! Touchstone file exported from HFSS 2026.1.0
!        File:           C:/ffzhzh/LocalFiles/Ansys_Project_Files/temp_train_TMRDL_392_1783004747_55676.aedt
!        Generated:      11:07:20 PM Jul  2, 2026
!        Design:         TMRDL
!        Project:        temp_train_TMRDL_392_1783004747_55676
!
! Variables:
!        h_bsmrdl = 2um
!        h_ox = 20um
!        h_rdl = 5um
!        h_sub = 80um
!        h_tmrdl = 4.92um
!        h_tsv = 80um
!        h_via = 3um
!        l_bsmrdl = 300um
!        l_sub = 1258.51um
!        l_tmrdl = 858.51um
!        m_sub = 200um
!        pitch = 48.62um
!        r_tsv = 6um
!        s_tmrdl = 10um
!        w_bsmrdl = 18um
!        w_sub = 500um
!        w_tmrdl = 25.37um
!        x_tsv_center1 = 871.195um
!        x_tsv_center2 = 1189.195um
!        x_tsv_center3 = 2073.075um
!        x_tsv_center4 = 2391.075um
!        x_tsv_center5 = 3274.955um
!        x_tsv_center6 = 3592.955um
!
# GHz S MA R 50.000000
! Terminal data exported
! Port[1] = TM_RDL1_1_T1
! Port[2] = TM_RDL1_1_T2
0.1                            0.00392250053291616 47.0456850656078 0.997338600947801 -0.31116750236651 0.997338600947801 -0.311167502366512 0.00392251284987973 47.0453172030198 
! Gamma         0                0                0                0                
! Port Impedance         50               0                50               0                
0.2                            0.00627823270234668 62.0698142087756 0.997102922906264 -0.611031840385741 0.997102922906263 -0.611031840385198 0.0062782830936085 62.0689485713712 
! Gamma         0                0                0                0                
! Port Impedance         50               0                50               0                
0.3                            0.00870904489441617 68.5869766426433 0.996918695370945 -0.904511487726867 0.996918695370951 -0.904511487726025 0.0087091457372886 68.5854172525898 
! Gamma         0                0                0                0                
! Port Impedance         50               0                50               0                
0.4                            0.011163393386744 72.3363557394865 0.996784574591224 -1.19638204979569 0.996784574591237 -1.19638204979484 0.0111635438704158 72.3340693145654 
! Gamma         0                0                0                0                
! Port Impedance         50               0                50               0                
0.5                            0.0136431179944649 74.7510301129074 0.99667544192618 -1.48818742250499 0.996675441926198 -1.48818742250425 0.0136433164463014 74.7480256704028 
! Gamma         0                0                0                0                
! Port Impedance         50               0                50               0                
0.6                            0.0161442689619934 76.3892169812161 0.996575091968497 -1.78023961742677 0.996575091968519 -1.78023961742619 0.0161445148346334 76.3855073759965 
! Gamma         0                0                0                0                
! Port Impedance         50               0                50               0                
0.7                            0.0186612311106117 77.5324742620407 0.996474865774981 -2.07252386696412 0.996474865775004 -2.07252386696369 0.0186615247914857 77.5280694807387 
! Gamma         0                0                0                0                
! Port Impedance         50               0                50               0                
0.8                            0.0211891207698281 78.3418512753418 0.996370197495082 -2.36495826592951 0.996370197495106 -2.36495826592924 0.0211894632763873 78.3367583020978 
! Gamma         0                0                0                0                
! Port Impedance         50               0                50               0                
0.9                            0.0237241662918057 78.9163978639982 0.99625863224507 -2.65745959036753 0.996258632245094 -2.65745959036739 0.0237245590792801 78.9106214552075 
! Gamma         0                0                0                0                
! Port Impedance         50               0                50               0                
1                              0.0262635337396976 79.3202149531004 0.996138831826497 -2.94995709921089 0.996138831826521 -2.94995709921087 0.0262639785905334 79.3137583079346 
! Gamma         0                0                0                0                
! Port Impedance         50               0                50               0                
1.1                            0.0288050854454276 79.5964792295865 0.996010075486551 -3.24239311255204 0.996010075486574 -3.24239311255213 0.0288055844034324 79.5893444571839 
! Gamma         0                0                0                0                
! Port Impedance         50               0                50               0                
1.2                            0.0313471838467686 79.7752532810488 0.995872000338357 -3.53472078141586 0.99587200033838 -3.53472078141605 0.0313477391746002 79.7674417125388 
! Gamma         0                0                0                0                
! Port Impedance         50               0                50               0                
1.3                            0.0338885503848737 79.8780667025142 0.995724460345739 -3.82690174022807 0.995724460345762 -3.82690174022834 0.0338891645338075 79.8695791000525 
! Gamma         0                0                0                0                
! Port Impedance         50               0                50               0                
1.4                            0.036428167607448 79.9207171683164 0.995567446174508 -4.11890421906379 0.99556744617453 -4.11890421906415 0.0364288431937764 79.9115538677508 
! Gamma         0                0                0                0                
! Port Impedance         50               0                50               0                
1.5                            0.0389652116535838 79.9150441298169 0.995401037570106 -4.41070163605559 0.995401037570127 -4.41070163605601 0.0389659514387339 79.9052051404372 
! Gamma         0                0                0                0                
! Port Impedance         50               0                50               0                
1.6                            0.0414990053683177 79.8700865088673 0.995225373814401 -4.70227156991994 0.995225373814421 -4.70227156992041 0.0414998122411653 79.8595715849805 
! Gamma         0                0                0                0                
! Port Impedance         50               0                50               0                
1.7                            0.0440289853125684 79.7928587224128 0.995040634615681 -4.99359500908298 0.9950406346157  -4.9935950090835 0.0440298622731461 79.7816674160491 
! Gamma         0                0                0                0                
! Port Impedance         50               0                50               0                
1.8                            0.0465546781639448 79.6888833191275 0.994847027239511 -5.2846557958887 0.994847027239529 -5.28465579588926 0.0465556283081288 79.6770150198398 
! Gamma         0                0                0                0                
! Port Impedance         50               0                50               0                
1.9                            0.049075683518476 79.5625643852229 0.994644777505439 -5.57544020696152 0.994644777505456 -5.57544020696211 0.0490767100234422 79.5500183508645 
! Gamma         0                0                0                0                
! Port Impedance         50               0                50               0                
2                              0.0515916611030339 79.4174543610027 0.994434123263205 -5.86593662852067 0.994434123263221 -5.86593662852129 0.0515927672133889 79.4042297420619 
! Gamma         0                0                0                0                
! Port Impedance         50               0                50               0                
2.1                            0.0541023210636835 79.25644801627   0.994215309516627 -6.15613529821603 0.994215309516642 -6.15613529821667 0.0541035100782389 79.2425438755009 
! Gamma         0                0                0                0                
! Port Impedance         50               0                50               0                
2.2                            0.0566074164263357 79.081925706178  0.99398858468294 -6.4460280939595 0.993988584682954 -6.44602809396014 0.0566086916855252 79.0673410347265 
! Gamma         0                0                0                0                
! Port Impedance         50               0                50               0                
2.3                            0.059106737111897 78.8958607033483 0.993754197664206 -6.73560835635806 0.993754197664219 -6.7356083563587 0.059108101985852 78.8805944342075 
! Gamma         0                0                0                0                
! Port Impedance         50               0                50               0                
2.4                            0.0616001050794706 78.69990068584   0.993512395521358 -7.02487073556406 0.993512395521369 -7.02487073556471 0.0616015629567761 78.6839517052281 
! Gamma         0                0                0                0                
! Port Impedance         50               0                50               0                
2.5                            0.0640873703006326 78.4954303640631 0.993263421611584 -7.31381105624942 0.993263421611594 -7.31381105625006 0.0640889245777838 78.4787975211513 
! Gamma         0                0                0                0                
! Port Impedance         50               0                50               0                
2.6                            0.0665684073562931 78.2836201597439 0.993007514093621 -7.60242619639985 0.993007514093631 -7.60242619640048 0.0665700614278698 78.2663022750462 
! Gamma         0                0                0                0                
! Port Impedance         50               0                50               0                
2.7                            0.0690431125087004 78.0654644431636 0.992744904733416 -7.89071397699563 0.992744904733425 -7.89071397699625 0.0690448697582706 78.0474603158214 
! Gamma         0                0                0                0                
! Port Impedance         50               0                50               0                
2.8                            0.0715114011436066 77.8418118639574 0.992475817960595 -8.17867306058793 0.992475817960603 -8.17867306058852 0.0715132649353647 77.8231202780938 
! Gamma         0                0                0                0                
! Port Impedance         50               0                50               0                
2.9                            0.0739732055073479 77.613389631163  0.99220047013794 -8.46630285742626 0.992200470137948 -8.46630285742684 0.0739751791784853 77.5940093614422 
! Gamma         0                0                0                0                
! Port Impedance         50               0                50               0                
3                              0.0764284726845221 77.3808231162523 0.991919069013942 -8.75360343823199 0.991919069013948 -8.75360343823254 0.0764305595383227 77.3607529327495 
! Gamma         0                0                0                0                
! Port Impedance         50               0                50               0                
3.1                            0.0788771627767266 77.1446518069111 0.991631813333799 -9.04057545300744 0.991631813333805 -9.04057545300797 0.0788793660763727 77.1238904793771 
! Gamma         0                0                0                0                
! Port Impedance         50               0                50               0                
3.2                            0.0813192472532783 76.9053423881472 0.991338892588025 -9.32722005546402 0.99133889258803 -9.32722005546452 0.0813215702163479 76.8838886897369 
! Gamma         0                0                0                0                
! Port Impedance         50               0                50               0                
3.3                            0.0837547074522354 76.6632995430071 0.9910404868805  -9.61353883277547 0.991040486880504 -9.61353883277594 0.0837571532458664 76.6411522535284 
! Gamma         0                0                0                0                
! Port Impedance         50               0                50               0                
3.4                            0.0861835332152598 76.4188749286084 0.990736766899905 -9.89953374043657 0.990736766899909 -9.89953374043701 0.0861861049519529 76.3960328373409 
! Gamma         0                0                0                0                
! Port Impedance         50               0                50               0                
3.5                            0.0886057216435363 76.1723746810511 0.990427893980103 -10.1852070420486 0.990427893980106 -10.185207042049 0.0886084223775664 76.1488365891751 
! Gamma         0                0                0                0                
! Port Impedance         50               0                50               0                
3.6                            0.0910212759645334 75.9240657257043 0.990114020236404 -10.4705612538709 0.990114020236407 -10.4705612538713 0.0910241086889352 75.8998304483781 
! Gamma         0                0                0                0                
! Port Impedance         50               0                50               0                
3.7                            0.0934302045011824 75.6741811107405 0.989795288765898 -10.755599093983 0.989795288765901 -10.7555990939834 0.0934331721452737 75.6492474788579 
! Gamma         0                0                0                0                
! Port Impedance         50               0                50               0                
3.8                            0.0958325197362845 75.422924536845  0.98947183390107 -11.0403234358967 0.989471833901073 -11.040323435897 0.0958356251636929 75.397291398503  
! Gamma         0                0                0                0                
! Port Impedance         50               0                50               0                
3.9                            0.0982282374658142 75.1704742213144 0.989143781506977 -11.3247372664482 0.98914378150698 -11.3247372664485 0.0982314834729684 75.1441404430175 
! Gamma         0                0                0                0                
! Port Impedance         50               0                50               0                
4                              0.100617376035369 74.9169862077545 0.988811249313169 -11.6088436477915 0.988811249313171 -11.6088436477918 0.100620765350418 74.8899506753813 
! Gamma         0                0                0                0                
! Port Impedance         50               0                50               0                
4.1                            0.102999955654428 74.6625972114461 0.988474347272472 -11.8926456833008 0.988474347272474 -11.892645683301 0.103003490936552 74.6348588309992 
! Gamma         0                0                0                0                
! Port Impedance         50               0                50               0                
4.2                            0.105375997783377 74.4074270737737 0.988133177939569 -12.1761464871813 0.988133177939571 -12.1761464871815 0.105379681622452 74.3789847719357 
! Gamma         0                0                0                0                
! Port Impedance         50               0                50               0                
4.3                            0.107745524588467 74.1515808858935 0.987787836863137 -12.4593491575818 0.987787836863139 -12.4593491575819 0.10774935950505 74.1224336104076 
! Gamma         0                0                0                0                
! Port Impedance         50               0                50               0                
4.4                            0.110108558460063 73.8951508312642 0.987438412986043 -12.7422567529925 0.987438412986045 -12.7422567529926 0.110112546905666 73.8652975511581 
! Gamma         0                0                0                0                
! Port Impedance         50               0                50               0                
4.5                            0.112465121589696 73.6382177881899 0.987084989048818 -13.0248722717149 0.98708498904882 -13.024872271715 0.112469265947308 73.6076574938593 
! Gamma         0                0                0                0                
! Port Impedance         50               0                50               0                
4.6                            0.114815235601564 73.380852726685  0.986727641992281 -13.3071986341839 0.986727641992283 -13.307198634184 0.114819538186403 73.3495844298526 
! Gamma         0                0                0                0                
! Port Impedance         50               0                50               0                
4.7                            0.117158921234294 73.1231179284134 0.986366443355797 -13.5892386679285 0.986366443355798 -13.5892386679286 0.117163384294753 73.0911406619783 
! Gamma         0                0                0                0                
! Port Impedance         50               0                50               0                
4.8                            0.119496198068935 72.8650680539178 0.986001459668204 -13.8709950949592 0.986001459668205 -13.8709950949593 0.11950082378769 72.8323808717076 
! Gamma         0                0                0                0                
! Port Impedance         50               0                50               0                
4.9                            0.121827084299283 72.6067510776292 0.985632752828967 -14.1524705213765 0.985632752828969 -14.1524705213765 0.121831874794552 72.5733530540687 
! Gamma         0                0                0                0                
! Port Impedance         50               0                50               0                
5                              0.124151596540862 72.3482091080721 0.985260380477553 -14.4336674290011 0.985260380477556 -14.4336674290011 0.124156553867779 72.314099337778  
! Gamma         0                0                0                0                
! Port Impedance         50               0                50               0                
5.1                            0.126469749675014 72.089479108129  0.984884396349459 -14.7145881688361 0.984884396349461 -14.714588168836 0.126474875827103 72.0546567054428 
! Gamma         0                0                0                0                
! Port Impedance         50               0                50               0                
5.2                            0.128781556724763 71.8305935281012 0.984504850617657 -14.9952349561787 0.984504850617659 -14.9952349561787 0.128786853635489 71.7950576265692 
! Gamma         0                0                0                0                
! Port Impedance         50               0                50               0                
5.3                            0.131087028759307 71.5715808625208 0.984121790218594 -15.2756098672119 0.984121790218596 -15.2756098672118 0.131092498303694 71.5353306143292 
! Gamma         0                0                0                0                
! Port Impedance         50               0                50               0                
5.4                            0.133386174824175 71.3124661401668 0.983735259162102 -15.5557148369114 0.983735259162104 -15.5557148369114 0.133391818820462 71.2755007155408 
! Gamma         0                0                0                0                
! Port Impedance         50               0                50               0                
5.5                            0.135679001894278 71.0532713554694 0.983345298824881 -15.8355516581217 0.983345298824883 -15.8355516581216 0.13568482210561 71.0155899420434 
! Gamma         0                0                0                0                
! Port Impedance         50               0                50               0                
5.6                            0.137965514847284 70.7940158484115 0.982951948227375 -16.1151219816562 0.982951948227378 -16.1151219816561 0.137971512983422 70.7556176505755 
! Gamma         0                0                0                0                
! Port Impedance         50               0                50               0                
5.7                            0.140245716454926 70.5347166391119 0.982555244294091 -16.3944273172963 0.982555244294094 -16.3944273172961 0.140251894173962 70.4956008773419 
! Gamma         0                0                0                0                
! Port Impedance         50               0                50               0                
5.8                            0.142519607390039 70.275388722492  0.982155222097509 -16.6734690355664 0.982155222097512 -16.6734690355663 0.142525966300105 70.2355546326679 
! Gamma         0                0                0                0                
! Port Impedance         50               0                50               0                
5.9                            0.144787186247293 70.0160453277498 0.9817519150859  -16.9522483701782 0.981751915085903 -16.952248370178 0.144793727908261 69.9754921604662 
! Gamma         0                0                0                0                
! Port Impedance         50               0                50               0                
6                              0.14704844957577 69.7566981467804 0.981345355295438 -17.2307664210427 0.981345355295441 -17.2307664210426 0.147055175500933 69.7154251666547 
! Gamma         0                0                0                0                
! Port Impedance         50               0                50               0                
6.1                            0.149303391921687 69.4973575351798 0.980935573547102 -17.5090241577608 0.980935573547105 -17.5090241577607 0.14931030357941 69.45536402016   
! Gamma         0                0                0                0                
! Port Impedance         50               0                50               0                
6.2                            0.151552005879727 69.238032689028  0.980522599628889 -17.7870224235094 0.980522599628893 -17.7870224235092 0.151559104695067 69.1953179297046 
! Gamma         0                0                0                0                
! Port Impedance         50               0                50               0                
6.3                            0.153794282151576 68.9787318002682 0.980106462463954 -18.0647619392504 0.980106462463957 -18.0647619392503 0.153801569507865 68.9352950991925 
! Gamma         0                0                0                0                
! Port Impedance         50               0                50               0                
6.4                            0.156030209610418 68.7194621931663 0.979687190265275 -18.3422433081962 0.979687190265279 -18.342243308196 0.156037686850805 68.6753028641768 
! Gamma         0                0                0                0                
! Port Impedance         50               0                50               0                
6.5                            0.158259775370242 68.4602304440413 0.979264810677519 -18.6194670204721 0.979264810677523 -18.619467020472 0.158267443799191 68.4153478116013 
! Gamma         0                0                0                0                
! Port Impedance         50               0                50               0                
6.6                            0.160482964858972 68.2010424862059 0.978839350906733 -18.8964334579256 0.978839350906737 -18.8964334579255 0.160490825743713 68.1554358847536 
! Gamma         0                0                0                0                
! Port Impedance         50               0                50               0                
6.7                            0.162699761894498 67.9419037018309 0.978410837838555 -19.1731428990334 0.978410837838559 -19.1731428990332 0.162707816466429 67.8955724751432 
! Gamma         0                0                0                0                
! Port Impedance         50               0                50               0                
6.8                            0.164910148762817 67.6828190022488 0.977979298145582 -19.4495955238678 0.977979298145586 -19.4495955238676 0.164918398218854 67.6357625028201 
! Gamma         0                0                0                0                
! Port Impedance         50               0                50               0                
6.9                            0.167114106297575 67.4237928980414 0.977544758384552 -19.7257914190867 0.977544758384556 -19.7257914190866 0.167122551801458 67.3760104864782 
! Gamma         0                0                0                0                
! Port Impedance         50               0                50               0                
7                              0.169311613960399 67.1648295601001 0.977107245083976 -20.001730582916 0.97710724508398 -20.0017305829158 0.169320256643936 67.1163206045331 
! Gamma         0                0                0                0                
! Port Impedance         50               0                50               0                
7.1                            0.171502649921462 66.9059328727153 0.976666784822839 -20.2774129300971 0.976666784822844 -20.2774129300969 0.171511490885728 66.8566967482279 
! Gamma         0                0                0                0                
! Port Impedance         50               0                50               0                
7.2                            0.173687191139816 66.6471064796283 0.976223404300967 -20.5528382967792 0.976223404300972 -20.5528382967791 0.173696231456299 66.5971425677038 
! Gamma         0                0                0                0                
! Port Impedance         50               0                50               0                
7.3                            0.175865213443089 66.3883538238768 0.975777130401632 -20.8280064453346 0.975777130401638 -20.8280064453344 0.175874454154785 66.3376615118626 
! Gamma         0                0                0                0                
! Port Impedance         50               0                50               0                
7.4                            0.178036691606193 66.1296781821685 0.975327990246954 -21.1029170690816 0.975327990246959 -21.1029170690814 0.178046133728648 66.0782568627592 
! Gamma         0                0                0                0                
! Port Impedance         50               0                50               0                
7.5                            0.180201599428748 65.8710826944353 0.974876011246616 -21.3775697969028 0.974876011246621 -21.3775697969027 0.18021124395105 65.8189317651738 
! Gamma         0                0                0                0                
! Port Impedance         50               0                50               0                
7.6                            0.182359909810966 65.6125703891469 0.974421221140406 -21.6519641977458 0.974421221140411 -21.6519641977457 0.182369757696694 65.5596892519435 
! Gamma         0                0                0                0                
! Port Impedance         50               0                50               0                
7.7                            0.184511594827796 65.354144204897  0.97396364803504 -21.926099784999 0.973963648035045 -21.9260997849989 0.184521647015914 65.3005322655665 
! Gamma         0                0                0                0                
! Port Impedance         50               0                50               0                
7.8                            0.186656625801161 65.0958070087165 0.973503320435737 -22.1999760207348 0.973503320435742 -22.1999760207347 0.186666883206871 65.0414636765335 
! Gamma         0                0                0                0                
! Port Impedance         50               0                50               0                
7.9                            0.188794973370135 64.8375616115177 0.973040267272951 -22.4735923198154 0.973040267272956 -22.4735923198152 0.188805436885679 64.7824862987884 
! Gamma         0                0                0                0                
! Port Impedance         50               0                50               0                
8                              0.190926607558969 64.5794107810256 0.972574517924657 -22.7469480538577 0.972574517924662 -22.7469480538576 0.190937278054395 64.5236029026782 
! Gamma         0                0                0                0                
! Port Impedance         50               0                50               0                
8.1                            0.193051497842876 64.321357252515  0.972106102234583 -23.0200425550543 0.972106102234588 -23.0200425550542 0.193062376166754 64.2648162257053 
! Gamma         0                0                0                0                
! Port Impedance         50               0                50               0                
8.2                            0.195169613211517 64.0634037376304 0.97163505052671 -23.2928751198498 0.971635050526715 -23.2928751198496 0.195180700191623 64.0061289813653 
! Gamma         0                0                0                0                
! Port Impedance         50               0                50               0                
8.3                            0.197280922230153 63.8055529315407 0.971161393616384 -23.5654450124716 0.971161393616389 -23.5654450124715 0.197292218674106 63.7475438663165 
! Gamma         0                0                0                0                
! Port Impedance         50               0                50               0                
8.4                            0.199385393098435 63.5478075186444 0.970685162818335 -23.8377514683169 0.97068516281834 -23.8377514683168 0.199396899794301 63.4890635661013 
! Gamma         0                0                0                0                
! Port Impedance         50               0                50               0                
8.5                            0.201482993706832 63.2901701770211 0.970206389951894 -24.1097936971955 0.970206389951899 -24.1097936971954 0.20149471142369 63.2306907596125 
! Gamma         0                0                0                0                
! Port Impedance         50               0                50               0                
8.6                            0.203573691690699 63.0326435818009 0.96972510734366 -24.3815708864314 0.969725107343665 -24.3815708864313 0.203585621179177 62.9724281224773 
! Gamma         0                0                0                0                
! Port Impedance         50               0                50               0                
8.7                            0.205657454482009 62.7752304076009 0.969241347827869 -24.6530822038251 0.969241347827874 -24.653082203825 0.20566959647478 62.7142783295079 
! Gamma         0                0                0                0                
! Port Impedance         50               0                50               0                
8.8                            0.207734249358763 62.5179333301642 0.96875514474469 -24.9243268004801 0.968755144744695 -24.92432680048  0.207746604571018 62.4562440563537 
! Gamma         0                0                0                0                
! Port Impedance         50               0                50               0                
8.9                            0.209804043492133 62.2607550273167 0.968266531936655 -25.1953038134949 0.968266531936659 -25.1953038134948 0.209816612622018 62.1983279804719 
! Gamma         0                0                0                0                
! Port Impedance         50               0                50               0                
9                              0.211866803991358 62.0036981793469 0.967775543743412 -25.4660123685262 0.967775543743416 -25.4660123685262 0.211879587720386 61.9405327815191 
! Gamma         0                0                0                0                
! Port Impedance         50               0                50               0                
9.1                            0.213922497946461 61.7467654688974 0.967282214994997 -25.7364515822252 0.967282214995001 -25.7364515822251 0.213935496939898 61.6828611412553 
! Gamma         0                0                0                0                
! Port Impedance         50               0                50               0                
9.2                            0.215971092468818 61.489959580449  0.966786581003767 -26.006620564551 0.966786581003772 -26.0066205645509 0.21598430737604 61.4253157430396 
! Gamma         0                0                0                0                
! Port Impedance         50               0                50               0                
9.3                            0.218012554729654 61.2332831994668 0.966288677555159 -26.2765184209663 0.966288677555163 -26.2765184209662 0.218025986184486 61.1678992709874 
! Gamma         0                0                0                0                
! Port Impedance         50               0                50               0                
9.4                            0.220046851996507 60.976739011269  0.96578854089741 -26.5461442545171 0.965788540897414 -26.5461442545171 0.220060500617532 60.9106144088494 
! Gamma         0                0                0                0                
! Port Impedance         50               0                50               0                
9.5                            0.222073951667729 60.7203296996717 0.965286207730373 -26.8154971678024 0.965286207730376 -26.8154971678024 0.222087818058585 60.6534638386669 
! Gamma         0                0                0                0                
! Port Impedance         50               0                50               0                
9.6                            0.224093821305091 60.4640579454556 0.964781715193532 -27.0845762648367 0.964781715193536 -27.0845762648367 0.224107906054739 60.3964502392487 
! Gamma         0                0                0                0                
! Port Impedance         50               0                50               0                
9.7                            0.22610642866453 60.2079264246961 0.96427510085334 -27.35338065281  0.964275100853343 -27.35338065281  0.226120732347511 60.1395762845094 
! Gamma         0                0                0                0                
! Port Impedance         50               0                50               0                
9.8                            0.228111741725138 59.9519378069904 0.963766402689965 -27.6219094437486 0.963766402689968 -27.6219094437485 0.228126264901804 59.8828446417061 
! Gamma         0                0                0                0                
! Port Impedance         50               0                50               0                
9.9                            0.230109728716415 59.6960947536117 0.963255659083543 -27.8901617560811 0.963255659083546 -27.8901617560811 0.230124471933152 59.6262579696009 
! Gamma         0                0                0                0                
! Port Impedance         50               0                50               0                
10                             0.232100358143881 59.4403999156176 0.962742908800017 -28.1581367161137 0.96274290880002 -28.1581367161137 0.232115321933313 59.3698189165772 
! Gamma         0                0                0                0                
! Port Impedance         50               0                50               0                
10.1                           0.234083598813091 59.184855931934  0.962228190976635 -28.4258334594175 0.962228190976638 -28.4258334594175 0.234098783694267 59.113530118731  
! Gamma         0                0                0                0                
! Port Impedance         50               0                50               0                
10.2                           0.236059419852118 58.9294654274332 0.961711545107176 -28.6932511321328 0.961711545107179 -28.6932511321328 0.236074826330692 58.8573941979569 
! Gamma         0                0                0                0                
! Port Impedance         50               0                50               0                
10.3                           0.238027790732569 58.6742310110232 0.961193011026972 -28.9603888921929 0.961193011026975 -28.9603888921929 0.23804341930096 58.6014137600436 
! Gamma         0                0                0                0                
! Port Impedance         50               0                50               0                
10.4                           0.239988681289182 58.4191552737614 0.960672628897775 -29.2272459104718 0.960672628897777 -29.2272459104718 0.240004532426728 58.3455913927944 
! Gamma         0                0                0                0                
! Port Impedance         50               0                50               0                
10.5                           0.241942061738073 58.1642407870034 0.960150439192518 -29.4938213718588 0.96015043919252 -29.4938213718588 0.241958135911174 58.0899296641824 
! Gamma         0                0                0                0                
! Port Impedance         50               0                50               0                
10.6                           0.243887902693682 57.9094901005974 0.959626482680027 -29.7601144762626 0.959626482680029 -29.7601144762626 0.243904200355929 57.8344311205501 
! Gamma         0                0                0                0                
! Port Impedance         50               0                50               0                
10.7                           0.245826175184474 57.6549057411313 0.959100800409718 -30.0261244395499 0.95910080040972 -30.0261244395498 0.245842696776771 57.5790982848628 
! Gamma         0                0                0                0                
! Port Impedance         50               0                50               0                
10.8                           0.247756850667446 57.4004902102381 0.958573433696317 -30.2918504944192 0.958573433696319 -30.2918504944191 0.24777359661813 57.3239336550189 
! Gamma         0                0                0                0                
! Port Impedance         50               0                50               0                
10.9                           0.249679901041505 57.1462459829667 0.958044424104635 -30.5572918912152 0.958044424104637 -30.5572918912151 0.249696871766445 57.0689397022255 
! Gamma         0                0                0                0                
! Port Impedance         50               0                50               0                
11                             0.251595298659737 56.8921755062188 0.957513813434438 -30.8224478986846 0.95751381343444 -30.8224478986846 0.251612494562438 56.8141188694401 
! Gamma         0                0                0                0                
! Port Impedance         50               0                50               0                
11.1                           0.253503016340654 56.6382811972576 0.956981643705426 -31.0873178046774 0.956981643705428 -31.0873178046773 0.253520437812348 56.5594735698838 
! Gamma         0                0                0                0                
! Port Impedance         50               0                50               0                
11.2                           0.255403027378428 56.3845654422883 0.956447957142357 -31.3519009167954 0.956447957142359 -31.3519009167954 0.255420674798163 56.3050061856261 
! Gamma         0                0                0                0                
! Port Impedance         50               0                50               0                
11.3                           0.257295305552186 56.131030595113  0.955912796160329 -31.6161965629916 0.95591279616033 -31.6161965629915 0.257313179286906 56.0507190662432 
! Gamma         0                0                0                0                
! Port Impedance         50               0                50               0                
11.4                           0.259179825134395 55.8776789758599 0.95537620335024 -31.8802040921214 0.955376203350242 -31.8802040921214 0.259197925539018 55.7966145275511 
! Gamma         0                0                0                0                
! Port Impedance         50               0                50               0                
11.5                           0.261056560898376 55.6245128697867 0.954838221464458 -32.1439228744495 0.954838221464459 -32.1439228744495 0.261074888315866 55.5426948504126 
! Gamma         0                0                0                0                
! Port Impedance         50               0                50               0                
11.6                           0.262925488124998 55.3715345261588 0.954298893402683 -32.4073523021135 0.954298893402685 -32.4073523021135 0.262944042886435 55.2889622796187 
! Gamma         0                0                0                0                
! Port Impedance         50               0                50               0                
11.7                           0.264786582608585 55.1187461572007 0.953758262198055 -32.6704917895468 0.953758262198056 -32.6704917895468 0.264805365033229 55.0354190228429 
! Gamma         0                0                0                0                
! Port Impedance         50               0                50               0                
11.8                           0.266639820662069 54.86614993712   0.953216371003483 -32.9333407738635 0.953216371003483 -32.9333407738635 0.266658831057425 54.7820672496682 
! Gamma         0                0                0                0                
! Port Impedance         50               0                50               0                
11.9                           0.268485179121434 54.6137480012025 0.952673263078228 -33.1958987152058 0.952673263078229 -33.1958987152058 0.268504417783308 54.5289090906847 
! Gamma         0                0                0                0                
! Port Impedance         50               0                50               0                
12                             0.270322635349476 54.3615424449773 0.952128981774743 -33.4581650970574 0.952128981774744 -33.4581650970574 0.270342102562036 54.2759466366569 
! Gamma         0                0                0                0                
! Port Impedance         50               0                50               0                
12.1                           0.272152167238917 54.1095353234487 0.951583570525766 -33.720139426523 0.951583570525766 -33.7201394265229 0.272171863274746 54.0231819377589 
! Gamma         0                0                0                0                
! Port Impedance         50               0                50               0                
12.2                           0.273973753214905 53.8577286503958 0.951037072831684 -33.9818212345774 0.951037072831685 -33.9818212345773 0.273993678335055 53.7706170028749 
! Gamma         0                0                0                0                
! Port Impedance         50               0                50               0                
12.3                           0.275787372236925 53.606124397735  0.950489532248177 -34.2432100762843 0.950489532248177 -34.2432100762843 0.275807526690971 53.5182537989645 
! Gamma         0                0                0                0                
! Port Impedance         50               0                50               0                
12.4                           0.277593003800159 53.354724494945  0.949940992374123 -34.5043055309876 0.949940992374124 -34.5043055309875 0.277613387826247 53.2660942504893 
! Gamma         0                0                0                0                
! Port Impedance         50               0                50               0                
12.5                           0.279390627936311 53.1035308285518 0.949391496839796 -34.7651072024749 0.949391496839796 -34.7651072024749 0.279411241761212 53.0141402388997 
! Gamma         0                0                0                0                
! Port Impedance         50               0                50               0                
12.6                           0.281180225213936 52.8525452416717 0.948841089295334 -35.0256147191175 0.948841089295335 -35.0256147191175 0.281201069053091 52.7623936021791 
! Gamma         0                0                0                0                
! Port Impedance         50               0                50               0                
12.7                           0.282961776738286 52.6017695336093 0.948289813399498 -35.285827733985 0.948289813399499 -35.2858277339849 0.282982850795859 52.510856134444  
! Gamma         0                0                0                0                
! Port Impedance         50               0                50               0                
12.8                           0.284735264150712 52.3512054595101 0.947737712808708 -35.5457459249379 0.947737712808708 -35.5457459249378 0.284756568619634 52.2595295855975 
! Gamma         0                0                0                0                
! Port Impedance         50               0                50               0                
12.9                           0.286500669627628 52.1008547300636 0.94718483116636 -35.8053689946993 0.94718483116636 -35.8053689946993 0.286522204689648 52.0084156610334 
! Gamma         0                0                0                0                
! Port Impedance         50               0                50               0                
13                             0.288257975879076 51.850719011256  0.946631212092436 -36.0646966709059 0.946631212092436 -36.0646966709059 0.288279741704808 51.7575160213904 
! Gamma         0                0                0                0                
! Port Impedance         50               0                50               0                
13.1                           0.290007166146903 51.6007999241697 0.946076899173385 -36.3237287061397 0.946076899173384 -36.3237287061396 0.290029162895874 51.5068322823529 
! Gamma         0                0                0                0                
! Port Impedance         50               0                50               0                
13.2                           0.291748224202572 51.3510990448285 0.945521935952285 -36.5824648779424 0.945521935952285 -36.5824648779424 0.29177045202327 51.2563660144962 
! Gamma         0                0                0                0                
! Port Impedance         50               0                50               0                
13.3                           0.293481134344633 51.1016179040851 0.944966365919295 -36.8409049888126 0.944966365919295 -36.8409049888126 0.293503593374555 51.0061187431754 
! Gamma         0                0                0                0                
! Port Impedance         50               0                50               0                
13.4                           0.295205881395864 50.8523579875498 0.944410232502366 -37.0990488661865 0.944410232502365 -37.0990488661865 0.295228571761562 50.756091948455  
! Gamma         0                0                0                0                
! Port Impedance         50               0                50               0                
13.5                           0.296922450700102 50.6033207355588 0.943853579058238 -37.3568963624042 0.943853579058237 -37.3568963624042 0.296945372517238 50.5062870650772 
! Gamma         0                0                0                0                
! Port Impedance         50               0                50               0                
13.6                           0.298630828118793 50.3545075431785 0.943296448863707 -37.6144473546613 0.943296448863707 -37.6144473546613 0.298653981492181 50.2567054824674 
! Gamma         0                0                0                0                
! Port Impedance         50               0                50               0                
13.7                           0.300331000027256 50.1059197602467 0.942738885107158 -37.8717017449475 0.942738885107158 -37.8717017449475 0.300354385050917 50.0073485447756 
! Gamma         0                0                0                0                
! Port Impedance         50               0                50               0                
13.8                           0.302022953310698 49.8575586914457 0.942180930880361 -38.1286594599722 0.94218093088036 -38.1286594599722 0.302046570067904 49.7582175509497 
! Gamma         0                0                0                0                
! Port Impedance         50               0                50               0                
13.9                           0.303706675359979 49.6094255964087 0.941622629170532 -38.3853204510788 0.941622629170532 -38.3853204510788 0.30373052392331 49.5093137548427 
! Gamma         0                0                0                0                
! Port Impedance         50               0                50               0                
14                             0.305382154067154 49.3615216898554 0.941064022852657 -38.6416846941473 0.941064022852656 -38.6416846941472 0.305406234498542 49.2606383653483 
! Gamma         0                0                0                0                
! Port Impedance         50               0                50               0                
14.1                           0.307049377820795 49.1138481417566 0.940505154682058 -38.897752189487 0.940505154682057 -38.8977521894869 0.30707369017158 49.0121925465658 
! Gamma         0                0                0                0                
! Port Impedance         50               0                50               0                
14.2                           0.308708335501117 48.8664060775256 0.939946067287223 -39.1535229617192 0.939946067287222 -39.1535229617192 0.308732879812097 48.7639774179915 
! Gamma         0                0                0                0                
! Port Impedance         50               0                50               0                
14.3                           0.310359016474912 48.6191965782357 0.939386803162877 -39.408997059651 0.939386803162876 -39.408997059651 0.310383792776391 48.5159940547366 
! Gamma         0                0                0                0                
! Port Impedance         50               0                50               0                
14.4                           0.312001410590302 48.3722206808609 0.938827404663294 -39.6641745561402 0.938827404663294 -39.6641745561401 0.312026418902149 48.2682434877676 
! Gamma         0                0                0                0                
! Port Impedance         50               0                50               0                
14.5                           0.31363550817134 48.1254793785401 0.938267913995855 -39.9190555479525 0.938267913995854 -39.9190555479524 0.313660748503036 48.0207267041709 
! Gamma         0                0                0                0                
! Port Impedance         50               0                50               0                
14.6                           0.315261300012445 47.8789736208626 0.937708373214833 -40.1736401556112 0.937708373214832 -40.1736401556112 0.315286772363138 47.7734446474379 
! Gamma         0                0                0                0                
! Port Impedance         50               0                50               0                
14.7                           0.316878777372696 47.6327043141731 0.937148824215415 -40.4279285232404 0.937148824215414 -40.4279285232404 0.316904481731252 47.5263982177703 
! Gamma         0                0                0                0                
! Port Impedance         50               0                50               0                
14.8                           0.318487931970002 47.3866723218971 0.936589308727947 -40.6819208184009 0.936589308727947 -40.6819208184008 0.31851386831506 47.279588272405  
! Gamma         0                0                0                0                
! Port Impedance         50               0                50               0                
14.9                           0.32008875597514 47.1408784648824 0.936029868312404 -40.9356172319208 0.936029868312404 -40.9356172319208 0.320114924275162 47.0330156259555 
! Gamma         0                0                0                0                
! Port Impedance         50               0                50               0                
15                             0.32168124200568 46.8953235217586 0.935470544353075 -41.1890179777208 0.935470544353075 -41.1890179777207 0.321707642219007 46.7866810507713 
! Gamma         0                0                0                0                
! Port Impedance         50               0                50               0                
15.1                           0.323265383119814 46.6500082293115 0.934911378053464 -41.4421232926336 0.934911378053464 -41.4421232926336 0.323292015194715 46.5405852773122 
! Gamma         0                0                0                0                
! Port Impedance         50               0                50               0                
15.2                           0.32484117281008 46.4049332828725 0.934352410431402 -41.6949334362197 0.934352410431401 -41.6949334362196 0.324868036684806 46.2947289945373 
! Gamma         0                0                0                0                
! Port Impedance         50               0                50               0                
15.3                           0.326408604997002 46.1600993367218 0.933793682314359 -41.9474486905776 0.933793682314359 -41.9474486905776 0.32643570059984 46.0491128503076 
! Gamma         0                0                0                0                
! Port Impedance         50               0                50               0                
15.4                           0.327967674022655 45.9155070045036 0.933235234334964 -42.1996693601516 0.933235234334963 -42.1996693601515 0.327995001271975 45.8037374518014 
! Gamma         0                0                0                0                
! Port Impedance         50               0                50               0                
15.5                           0.32951837464415 45.6711568596544 0.932677106926717 -42.4515957715345 0.932677106926716 -42.4515957715345 0.329545933448459 45.5586033659418 
! Gamma         0                0                0                0                
! Port Impedance         50               0                50               0                
15.6                           0.331060702027062 45.4270494358411 0.932119340319893 -42.7032282732684 0.932119340319893 -42.7032282732683 0.331088492285052 45.3137111198347 
! Gamma         0                0                0                0                
! Port Impedance         50               0                50               0                
15.7                           0.332594651738793 45.1831852274101 0.931561974537643 -42.9545672356415 0.931561974537642 -42.9545672356414 0.332622673339394 45.0690612012175 
! Gamma         0                0                0                0                
! Port Impedance         50               0                50               0                
15.8                           0.334120219741897 44.9395646898458 0.931005049392264 -43.2056130504831 0.931005049392264 -43.2056130504831 0.334148472564321 44.8246540589168 
! Gamma         0                0                0                0                
! Port Impedance         50               0                50               0                
15.9                           0.335637402387342 44.6961882402377 0.930448604481666 -43.4563661309557 0.930448604481665 -43.4563661309556 0.335665886301133 44.5804901033155 
! Gamma         0                0                0                0                
! Port Impedance         50               0                50               0                
16                             0.337146196407754 44.4530562577556 0.929892679186001 -43.7068269113451 0.929892679186001 -43.7068269113451 0.337174911272833 44.3365697068274 
! Gamma         0                0                0                0                
! Port Impedance         50               0                50               0                
16.1                           0.338646598910613 44.2101690841324 0.929337312664476 -43.9569958468492 0.929337312664475 -43.9569958468492 0.338675544577323 44.0928932043793 
! Gamma         0                0                0                0                
! Port Impedance         50               0                50               0                
16.2                           0.340138607371432 43.9675270241537 0.92878254385232 -44.2068734133647 0.92878254385232 -44.2068734133646 0.340167783680581 43.8494608939002 
! Gamma         0                0                0                0                
! Port Impedance         50               0                50               0                
16.3                           0.341622219626909 43.7251303461531 0.928228411457933 -44.4564601072723 0.928228411457933 -44.4564601072722 0.341651626409813 43.6062730368162 
! Gamma         0                0                0                0                
! Port Impedance         50               0                50               0                
16.4                           0.34309743386807 43.4829792825142 0.927674953960178 -44.7057564452217 0.927674953960178 -44.7057564452216 0.343127070946591 43.363329858552  
! Gamma         0                0                0                0                
! Port Impedance         50               0                50               0                
16.5                           0.344564248633392 43.2410740301765 0.927122209605839 -44.9547629639147 0.927122209605838 -44.9547629639147 0.344594115819977 43.120631549036  
! Gamma         0                0                0                0                
! Port Impedance         50               0                50               0                
16.6                           0.346022662801929 42.9994147511472 0.926570216407227 -45.2034802198884 0.926570216407227 -45.2034802198884 0.346052759899647 42.8781782632116 
! Gamma         0                0                0                0                
! Port Impedance         50               0                50               0                
16.7                           0.347472675586432 42.7580015730159 0.926019012139941 -45.4519087892973 0.926019012139941 -45.4519087892973 0.347503002389006 42.6359701215514 
! Gamma         0                0                0                0                
! Port Impedance         50               0                50               0                
16.8                           0.34891428652647 42.5168345894739 0.925468634340765 -45.7000492676953 0.925468634340765 -45.7000492676953 0.34894484281831 42.3940072105762 
! Gamma         0                0                0                0                
! Port Impedance         50               0                50               0                
16.9                           0.350347495481566 42.2759138608366 0.924919120305712 -45.9479022698179 0.924919120305712 -45.9479022698179 0.350378281037794 42.1522895833761 
! Gamma         0                0                0                0                
! Port Impedance         50               0                50               0                
17                             0.351772302624332 42.0352394145681 0.924370507088203 -46.1954684293637 0.924370507088204 -46.1954684293637 0.351803317210813 41.9108172601349 
! Gamma         0                0                0                0                
! Port Impedance         50               0                50               0                
17.1                           0.353188708433631 41.7948112458092 0.923822831497386 -46.4427483987771 0.923822831497386 -46.4427483987771 0.353219951806995 41.669590228658  
! Gamma         0                0                0                0                
! Port Impedance         50               0                50               0                
17.2                           0.354596713687752 41.5546293179069 0.923276130096573 -46.6897428490299 0.923276130096573 -46.6897428490299 0.354628185595414 41.4286084449    
! Gamma         0                0                0                0                
! Port Impedance         50               0                50               0                
17.3                           0.355996319457608 41.314693562946  0.922730439201818 -46.9364524694048 0.922730439201818 -46.9364524694048 0.356028019637784 41.1878718334968 
! Gamma         0                0                0                0                
! Port Impedance         50               0                50               0                
17.4                           0.357387527099958 41.0750038822813 0.922185794880609 -47.1828779672788 0.922185794880609 -47.1828779672788 0.357419455281681 40.947380288297  
! Gamma         0                0                0                0                
! Port Impedance         50               0                50               0                
17.5                           0.358770338250663 40.8355601470725 0.921642232950686 -47.4290200679072 0.921642232950686 -47.4290200679072 0.358802494153791 40.7071336728954 
! Gamma         0                0                0                0                
! Port Impedance         50               0                50               0                
17.6                           0.360144754817969 40.5963621988179 0.921099788978971 -47.6748795142086 0.921099788978971 -47.6748795142086 0.360177138153195 40.4671318211671 
! Gamma         0                0                0                0                
! Port Impedance         50               0                50               0                
17.7                           0.361510778975826 40.3574098498906 0.920558498280617 -47.9204570665512 0.920558498280617 -47.9204570665512 0.36154338944468 40.2273745378023 
! Gamma         0                0                0                0                
! Port Impedance         50               0                50               0                
17.8                           0.362868413157251 40.1187028840734 0.920018395918162 -48.1657535025396 0.920018395918162 -48.1657535025396 0.362901250452095 39.9878615988406 
! Gamma         0                0                0                0                
! Port Impedance         50               0                50               0                
17.9                           0.364217660047718 39.8802410570945 0.919479516700796 -48.4107696168031 0.919479516700795 -48.4107696168031 0.364250723851748 39.7485927522068 
! Gamma         0                0                0                0                
! Port Impedance         50               0                50               0                
18                             0.365558522578609 39.6420240971633 0.918941895183728 -48.6555062207852 0.918941895183728 -48.6555062207852 0.365591812565841 39.5095677182448 
! Gamma         0                0                0                0                
! Port Impedance         50               0                50               0                
18.1                           0.366891003920695 39.4040517055045 0.918405565667656 -48.8999641425344 0.918405565667656 -48.8999641425344 0.366924519755951 39.2707861902521 
! Gamma         0                0                0                0                
! Port Impedance         50               0                50               0                
18.2                           0.368215107477676 39.166323556893  0.917870562198338 -49.1441442264963 0.917870562198338 -49.1441442264963 0.368248848816567 39.0322478350135 
! Gamma         0                0                0                0                
! Port Impedance         50               0                50               0                
18.3                           0.369530836879763 38.928839300187  0.917336918566251 -49.3880473333076 0.917336918566251 -49.3880473333076 0.369564803368666 38.7939522933339 
! Gamma         0                0                0                0                
! Port Impedance         50               0                50               0                
18.4                           0.370838195977318 38.6915985588605 0.916804668306351 -49.6316743395914 0.916804668306351 -49.6316743395914 0.370872387253347 38.5558991805695 
! Gamma         0                0                0                0                
! Port Impedance         50               0                50               0                
18.5                           0.37213718883455 38.4546009315344 0.916273844697919 -49.8750261377539 0.916273844697919 -49.875026137754 0.372171604525523 38.318088087159  
! Gamma         0                0                0                0                
! Port Impedance         50               0                50               0                
18.6                           0.37342781972326 38.2178459925062 0.915744480764493 -50.1181036357838 0.915744480764493 -50.1181036357838 0.373462459447659 38.0805185791523 
! Gamma         0                0                0                0                
! Port Impedance         50               0                50               0                
18.7                           0.374710093116651 37.9813332922787 0.915216609273886 -50.3609077570518 0.915216609273885 -50.3609077570519 0.374744956483579 37.8431901987381 
! Gamma         0                0                0                0                
! Port Impedance         50               0                50               0                
18.8                           0.375984013683197 37.7450623580858 0.914690262738284 -50.603439440114 0.914690262738284 -50.603439440114 0.37601910029233 37.60610246477   
! Gamma         0                0                0                0                
! Port Impedance         50               0                50               0                
18.9                           0.377249586280571 37.5090326944178 0.914165473414428 -50.8456996385152 0.914165473414428 -50.8456996385153 0.3772848957221  37.3692548732902 
! Gamma         0                0                0                0                
! Port Impedance         50               0                50               0                
19                             0.378506815949642 37.2732437835444 0.913642273303867 -51.087689320596 0.913642273303867 -51.087689320596 0.37854234780421 37.1326468980524 
! Gamma         0                0                0                0                
! Port Impedance         50               0                50               0                
19.1                           0.379755707908528 37.0376950860348 0.913120694153284 -51.3294094693001 0.913120694153284 -51.3294094693001 0.379791461747167 36.8962779910411 
! Gamma         0                0                0                0                
! Port Impedance         50               0                50               0                
19.2                           0.380996267546725 36.8023860412767 0.912600767454902 -51.5708610819852 0.912600767454903 -51.5708610819852 0.381032242930779 36.6601475829899 
! Gamma         0                0                0                0                
! Port Impedance         50               0                50               0                
19.3                           0.3822285004193  36.5673160679925 0.912082524446953 -51.8120451702349 0.912082524446953 -51.812045170235 0.382264696900345 36.4242550838972 
! Gamma         0                0                0                0                
! Port Impedance         50               0                50               0                
19.4                           0.38345241224115 36.3324845647533 0.911565996114208 -52.0529627596733 0.911565996114208 -52.0529627596733 0.383488829360907 36.1885998835391 
! Gamma         0                0                0                0                
! Port Impedance         50               0                50               0                
19.5                           0.384668008881338 36.09789091049   0.911051213188591 -52.2936148897815 0.911051213188591 -52.2936148897815 0.384704646171579 35.9531813519806 
! Gamma         0                0                0                0                
! Port Impedance         50               0                50               0                
19.6                           0.385875296357491 35.8635344650025 0.91053820614983 -52.5340026137162 0.91053820614983 -52.5340026137162 0.385912153339941 35.7179988400835 
! Gamma         0                0                0                0                
! Port Impedance         50               0                50               0                
19.7                           0.387074280830283 35.6294145694654 0.910027005226193 -52.7741269981309 0.910027005226192 -52.774126998131 0.387111357016508 35.4830516800119 
! Gamma         0                0                0                0                
! Port Impedance         50               0                50               0                
19.8                           0.388264968597981 35.3955305469321 0.909517640395258 -53.0139891229991 0.909517640395258 -53.0139891229992 0.388302263489275 35.2483391857352 
! Gamma         0                0                0                0                
! Port Impedance         50               0                50               0                
19.9                           0.389447366091071 35.1618817028349 0.909010141384764 -53.2535900814395 0.909010141384764 -53.2535900814395 0.389484879178334 35.0138606535282 
! Gamma         0                0                0                0                
! Port Impedance         50               0                50               0                
20                             0.390621479866955 34.9284673254829 0.908504537673494 -53.4929309795439 0.908504537673494 -53.4929309795439 0.390659210630563 34.7796153624681 
! Gamma         0                0                0                0                
! Port Impedance         50               0                50               0                
