! Touchstone file exported from HFSS 2026.1.0
!        File:           C:/ffzhzh/LocalFiles/Ansys_Project_Files/temp_train_TMRDL_593_1783008463_53980.aedt
!        Generated:      12:09:08 AM Jul  3, 2026
!        Design:         TMRDL
!        Project:        temp_train_TMRDL_593_1783008463_53980
!
! Variables:
!        h_bsmrdl = 2um
!        h_ox = 20um
!        h_rdl = 5um
!        h_sub = 80um
!        h_tmrdl = 2.32um
!        h_tsv = 80um
!        h_via = 3um
!        l_bsmrdl = 300um
!        l_sub = 614.55um
!        l_tmrdl = 214.55um
!        m_sub = 200um
!        pitch = 39.8um
!        r_tsv = 6um
!        s_tmrdl = 10um
!        w_bsmrdl = 18um
!        w_sub = 500um
!        w_tmrdl = 16.3um
!        x_tsv_center1 = 222.7um
!        x_tsv_center2 = 540.7um
!        x_tsv_center3 = 771.55um
!        x_tsv_center4 = 1089.55um
!        x_tsv_center5 = 1320.4um
!        x_tsv_center6 = 1638.4um
!
# GHz S MA R 50.000000
! Terminal data exported
! Port[1] = TM_RDL1_1_T1
! Port[2] = TM_RDL1_1_T2
0.1                            0.00256388647139313 25.711859676172  0.997691220619535 -0.0962878341682615 0.997691220619534 -0.0962878341682593 0.0025638863528874 25.7118692489201 
! Gamma         0                0                0                0                
! Port Impedance         50               0                50               0                
0.2                            0.00322729404831358 43.3862435147777 0.997659840827332 -0.192143687418687 0.997659840827331 -0.192143687418678 0.00322729376380809 43.386249219224  
! Gamma         0                0                0                0                
! Port Impedance         50               0                50               0                
0.3                            0.00408612533012463 54.0561803223969 0.997613133930055 -0.287258970599742 0.997613133930054 -0.287258970599721 0.00408612361787978 54.0561859559976 
! Gamma         0                0                0                0                
! Port Impedance         50               0                50               0                
0.4                            0.0050283358726882 60.6700820099203 0.997557198715389 -0.381504517660272 0.997557198715387 -0.381504517660234 0.00502833147102576 60.6701003039337 
! Gamma         0                0                0                0                
! Port Impedance         50               0                50               0                
0.5                            0.00600504330935658 65.0466389536497 0.997497528284913 -0.474908332852126 0.997497528284912 -0.474908332852069 0.00600503544115325 65.0466816856266 
! Gamma         0                0                0                0                
! Port Impedance         50               0                50               0                
0.6                            0.00699579347099527 68.1337164527    0.997438095350172 -0.567592960937803 0.997438095350171 -0.567592960937727 0.00699578191945373 68.1337913637744 
! Gamma         0                0                0                0                
! Port Impedance         50               0                50               0                
0.7                            0.0079922849159034 70.4300143842884 0.997381251977203 -0.65971440413465 0.997381251977202 -0.659714404134559 0.00799226988905062 70.4301252590772 
! Gamma         0                0                0                0                
! Port Impedance         50               0                50               0                
0.8                            0.00899139002958359 72.2105367733438 0.997328066730947 -0.751422340299356 0.997328066730946 -0.751422340299253 0.00899137197463853 72.2106845333234 
! Gamma         0                0                0                0                
! Port Impedance         50               0                50               0                
0.9                            0.00999211327055002 73.6353875267138 0.997278762120469 -0.84284185827428 0.997278762120469 -0.842841858274168 0.00999209272215132 73.635571379184  
! Gamma         0                0                0                0                
! Port Impedance         50               0                50               0                
1                              0.0109942652618037 74.8029764973011 0.997233081448157 -0.9340693103157 0.997233081448156 -0.934069310315583 0.0109942427458533 74.8031948065639 
! Gamma         0                0                0                0                
! Port Impedance         50               0                50               0                
1.1                            0.0119979041282253 75.776995638997  0.99719054111349 -1.02517509177599 0.99719054111349 -1.02517509177587 0.0119978801129246 75.7772464836072 
! Gamma         0                0                0                0                
! Port Impedance         50               0                50               0                
1.2                            0.0130031179972852 76.6006563910702 0.997150583177956 -1.11620875595687 0.997150583177956 -1.11620875595675 0.0130030928753583 76.6009378764876 
! Gamma         0                0                0                0                
! Port Impedance         50               0                50               0                
1.3                            0.0140099540815628 77.3045173042018 0.997112658017156 -1.20720417917142 0.997112658017157 -1.2072041791713 0.0140099281699126 77.3048277142826 
! Gamma         0                0                0                0                
! Port Impedance         50               0                50               0                
1.4                            0.0150184065716593 77.9109684401299 0.997076263550231 -1.29818390300729 0.997076263550232 -1.29818390300717 0.0150183801192297 77.9113062934416 
! Gamma         0                0                0                0                
! Port Impedance         50               0                50               0                
1.5                            0.0160284250502992 78.4369080656479 0.997040959735154 -1.3891624792822 0.997040959735154 -1.38916247928209 0.0160283982487883 78.4372721206853 
! Gamma         0                0                0                0                
! Port Impedance         50               0                50               0                
1.6                            0.0170399276704722 78.8954057402643 0.997006370066788 -1.48014892511589 0.99700637006679 -1.48014892511578 0.0170399006651379 78.8957949762399 
! Gamma         0                0                0                0                
! Port Impedance         50               0                50               0                
1.7                            0.0180528132823563 79.2967758850214 0.996972176917917 -1.57114847409728 0.996972176917918 -1.57114847409717 0.018052786181692 79.2971894732049 
! Gamma         0                0                0                0                
! Port Impedance         50               0                50               0                
1.8                            0.0190669708692639 79.6492957952671 0.996938114478567 -1.66216380370477 0.996938114478569 -1.66216380370467 0.0190669437531426 79.6497330686955 
! Gamma         0                0                0                0                
! Port Impedance         50               0                50               0                
1.9                            0.0200822862623495 79.9597014856189 0.99690396123159 -1.75319588617451 0.996903961231592 -1.75319588617442 0.0200822591886364 79.9601619108819 
! Gamma         0                0                0                0                
! Port Impedance         50               0                50               0                
2                              0.0210986466180684 80.2335399638525 0.996869532882393 -1.8442445740084 0.996869532882395 -1.84424457400831 0.0210986196278737 80.2340231164195 
! Gamma         0                0                0                0                
! Port Impedance         50               0                50               0                
2.1                            0.0221159432200233 80.4754257768743 0.996834676112631 -1.93530900066399 0.996834676112633 -1.93530900066391 0.0221159163418154 80.4759313202788 
! Gamma         0                0                0                0                
! Port Impedance         50               0                50               0                
2.2                            0.0231340730927006 80.6892318837597 0.996799263247532 -2.02638785339412 0.996799263247534 -2.02638785339405 0.0231340463454985 80.6897595524143 
! Gamma         0                0                0                0                
! Port Impedance         50               0                50               0                
2.3                            0.0241529398052122 80.8782343095707 0.996763187793565 -2.11747955798388 0.996763187793567 -2.11747955798381 0.0241529132010481 80.878783894769  
! Gamma         0                0                0                0                
! Port Impedance         50               0                50               0                
2.4                            0.0251724537415505 81.0452235276465 0.996726360748411 -2.20858240290886 0.996726360748413 -2.2085824029088 0.0251724272873628 81.0457948662545 
! Gamma         0                0                0                0                
! Port Impedance         50               0                50               0                
2.5                            0.0261925320323243 81.1925914108584 0.996688707570136 -2.29969462190178 0.996688707570138 -2.29969462190172 0.0261925057314082 81.1931843762246 
! Gamma         0                0                0                0                
! Port Impedance         50               0                50               0                
2.6                            0.0272130982819237 81.3223999290538 0.996650165696414 -2.39081444800539 0.996650165696416 -2.39081444800534 0.0272130721350408 81.3230144237217 
! Gamma         0                0                0                0                
! Port Impedance         50               0                50               0                
2.7                            0.0282340821811737 81.436435999184  0.996610682516487 -2.48194014811838 0.996610682516489 -2.48194014811833 0.0282340561873996 81.4370719490569 
! Gamma         0                0                0                0                
! Port Impedance         50               0                50               0                
2.8                            0.029255419064761 81.536255689842  0.996570213712779 -2.57307004424019 0.996570213712781 -2.57307004424014 0.029255393222131 81.5369130395121 
! Gamma         0                0                0                0                
! Port Impedance         50               0                50               0                
2.9                            0.0302770494515228 81.6232201448244 0.996528721902962 -2.66420252569414 0.996528721902963 -2.6642025256941 0.0302770237575234 81.6238988538306 
! Gamma         0                0                0                0                
! Port Impedance         50               0                50               0                
3                              0.0312989185912944 81.6985249975177 0.99648617552572 -2.75533605528098 0.996486175525722 -2.75533605528094 0.0312988930432355 81.6992250373455 
! Gamma         0                0                0                0                
! Port Impedance         50               0                50               0                
3.1                            0.0323209760323707 81.7632246208734 0.996442547924117 -2.84646917139954 0.996442547924118 -2.84646917139951 0.0323209506276668 81.7639459725464 
! Gamma         0                0                0                0                
! Port Impedance         50               0                50               0                
3.2                            0.0333431752172659 81.8182522453665 0.996397816589261 -2.93760048753823 0.996397816589263 -2.9376004875382 0.0333431499536474 81.8189948975099 
! Gamma         0                0                0                0                
! Port Impedance         50               0                50               0                
3.3                            0.0343654731103192 81.8644367456812 0.996351962534256 -3.02872869010219 0.996351962534258 -3.02872869010216 0.0343654479859896 81.8652006929624 
! Gamma         0                0                0                0                
! Port Impedance         50               0                50               0                
3.4                            0.0353878298580616 81.9025167229584 0.996304969774234 -3.11985253523718 0.996304969774235 -3.11985253523716 0.0353878048718136 81.9033019648304 
! Gamma         0                0                0                0                
! Port Impedance         50               0                50               0                
3.5                            0.0364102084816478 81.933152377416  0.996256824892989 -3.21097084509952 0.99625682489299 -3.2109708450995 0.0364101836329473 81.9339589171014 
! Gamma         0                0                0                0                
! Port Impedance         50               0                50               0                
3.6                            0.0374325745997091 81.9569355649252 0.996207516680523 -3.30208250387461 0.996207516680525 -3.3020825038746 0.037432549888755 81.9577634085962 
! Gamma         0                0                0                0                
! Port Impedance         50               0                50               0                
3.7                            0.0384548961794824 81.9743983528065 0.996157035828812 -3.39318645374462 0.996157035828813 -3.39318645374461 0.0384548716072476 81.9752475089205 
! Gamma         0                0                0                0                
! Port Impedance         50               0                50               0                
3.8                            0.0394771433138525 81.9860203290045 0.996105374675516 -3.48428169093508 0.996105374675517 -3.48428169093508 0.0394771188821106 81.9868908077663 
! Gamma         0                0                0                0                
! Port Impedance         50               0                50               0                
3.9                            0.0404992880219055 81.9922348707681 0.996052526987335 -3.57536726192127 0.996052526987336 -3.57536726192126 0.0404992637332461 81.993126683694  
! Gamma         0                0                0                0                
! Port Impedance         50               0                50               0                
4                              0.0415213040706614 81.9934345409435 0.995998487776206 -3.66644225984167 0.995998487776207 -3.66644225984167 0.041521279928498 81.9943477005082 
! Gamma         0                0                0                0                
! Port Impedance         50               0                50               0                
4.1                            0.0425431668157891 81.989975749694  0.995943253142823 -3.7575058211431 0.995943253142825 -3.7575058211431 0.0425431428243599 81.9909102690448 
! Gamma         0                0                0                0                
! Port Impedance         50               0                50               0                
4.2                            0.0435648530592703 81.9821827951843 0.99588682014296 -3.84855712246633 0.995886820142962 -3.84855712246633 0.0435648292236343 81.9831386879091 
! Gamma         0                0                0                0                
! Port Impedance         50               0                50               0                
4.3                            0.044586340922159 81.970351377194  0.995829186672866 -3.93959537777138 0.995829186672868 -3.93959537777138 0.0445863172481889 81.9713286571343 
! Gamma         0                0                0                0                
! Port Impedance         50               0                50               0                
4.4                            0.0456076097307615 81.9547516617734 0.995770351370694 -4.03061983569477 0.995770351370696 -4.03061983569478 0.0456075862251339 81.9557503428731 
! Gamma         0                0                0                0                
! Port Impedance         50               0                50               0                
4.5                            0.046628639914735 81.9356309621409 0.995710313531418 -4.12162977712731 0.995710313531419 -4.12162977712732 0.0466286165849186 81.9366510583254 
! Gamma         0                0                0                0                
! Port Impedance         50               0                50               0                
4.6                            0.0476494129157635 81.9132160904608 0.995649073033155 -4.21262451299868 0.995649073033156 -4.21262451299869 0.0476493897700056 81.9142576155392 
! Gamma         0                0                0                0                
! Port Impedance         50               0                50               0                
4.7                            0.0486699111056176 81.8877154264584 0.995586630273157 -4.30360338225402 0.995586630273158 -4.30360338225403 0.0486698881529304 81.888778394046  
! Gamma         0                0                0                0                
! Port Impedance         50               0                50               0                
4.8                            0.0496901177125424 81.8593207416707 0.995522986112001 -4.39456575000758 0.995522986112002 -4.39456575000759 0.049690094962688 81.8604051651278 
! Gamma         0                0                0                0                
! Port Impedance         50               0                50               0                
4.9                            0.0507100167550353 81.8282088121944 0.995458141824796 -4.48551100585864 0.995458141824797 -4.48551100585865 0.0507099942185109 81.8293147045781 
! Gamma         0                0                0                0                
! Port Impedance         50               0                50               0                
5                              0.0517295929821874 81.7945428478604 0.995392099058361 -4.57643856235574 0.995392099058362 -4.57643856235576 0.0517295706702095 81.7956702218875 
! Gamma         0                0                0                0                
! Port Impedance         50               0                50               0                
5.1                            0.0527488318198547 81.7584737616443 0.995324859793545 -4.66734785359567 0.995324859793546 -4.66734785359569 0.0527488097443442 81.7596226296628 
! Gamma         0                0                0                0                
! Port Impedance         50               0                50               0                
5.2                            0.0537677193220163 81.7201412996714 0.995256426311944 -4.75823833394505 0.995256426311945 -4.75823833394507 0.0537676974955826 81.7213116736398 
! Gamma         0                0                0                0                
! Port Impedance         50               0                50               0                
5.3                            0.0547862421267459 81.679675049278  0.995186801166432 -4.8491094768729 0.995186801166433 -4.84910947687291 0.0547862205626717 81.6808669407496 
! Gamma         0                0                0                0                
! Port Impedance         50               0                50               0                
5.4                            0.0558043874162939 81.637195340142  0.995115987154967 -4.93996077388365 0.995115987154968 -4.93996077388367 0.0558043661285202 81.6384087602555 
! Gamma         0                0                0                0                
! Port Impedance         50               0                50               0                
5.5                            0.0568221428808355 81.5928140514335 0.995043987297245 -5.0307917335411 0.995043987297246 -5.03079173354112 0.0568221218839459 81.5940490109063 
! Gamma         0                0                0                0                
! Port Impedance         50               0                50               0                
5.6                            0.0578394966854896 81.5466353361766 0.994970804813833 -5.12160188057439 0.994970804813834 -5.12160188057441 0.057839475994696 81.5478918453018 
! Gamma         0                0                0                0                
! Port Impedance         50               0                50               0                
5.7                            0.0588564374402613 81.4987562725269 0.994896443107447 -5.21239075505823 0.994896443107447 -5.21239075505825 0.0588564170713885 81.5000343411734 
! Gamma         0                0                0                0                
! Port Impedance         50               0                50               0                
5.8                            0.0598729541725992 81.4492674503934 0.994820905746115 -5.30315791165997 0.994820905746116 -5.30315791165999 0.0598729341420705 81.4505670880075 
! Gamma         0                0                0                0                
! Port Impedance         50               0                50               0                
5.9                            0.0608890363022951 81.3982535007446 0.994744196447991 -5.3939029189473 0.994744196447992 -5.39390291894731 0.0608890166271177 81.3995747163537 
! Gamma         0                0                0                0                
! Port Impedance         50               0                50               0                
6                              0.0619046736184826 81.3457935740089 0.994666319067603 -5.48462535875036 0.994666319067604 -5.48462535875038 0.0619046543162333 81.3471363762261 
! Gamma         0                0                0                0                
! Port Impedance         50               0                50               0                
6.1                            0.0629198562585219 81.2919617731708 0.994587277583383 -5.57532482557334 0.994587277583384 -5.57532482557335 0.0629198373473325 81.2933261702015 
! Gamma         0                0                0                0                
! Port Impedance         50               0                50               0                
6.2                            0.0639345746885773 81.236827546479  0.994507076086316 -5.66600092605043 0.994507076086316 -5.66600092605044 0.0639345561871206 81.2382135461273 
! Gamma         0                0                0                0                
! Port Impedance         50               0                50               0                
6.3                            0.0649488196857203 81.180456044081  0.994425718769576 -5.75665327844217 0.994425718769577 -5.75665327844218 0.0649488016131963 81.1818636537576 
! Gamma         0                0                0                0                
! Port Impedance         50               0                50               0                
6.4                            0.065962582321406 81.1229084423828 0.994343209919051 -5.84728151216804 0.994343209919052 -5.84728151216806 0.0659625646975272 81.1243376691131 
! Gamma         0                0                0                0                
! Port Impedance         50               0                50               0                
6.5                            0.0669758539461882 81.0642422394843 0.994259553904643 -5.93788526737204 0.994259553904643 -5.93788526737205 0.0669758367911661 81.065693089917  
! Gamma         0                0                0                0                
! Port Impedance         50               0                50               0                
6.6                            0.0679886261755539 81.00451152465   0.994174755172265 -6.02846419451791 0.994174755172266 -6.02846419451792 0.0679886095100854 81.0059840050655 
! Gamma         0                0                0                0                
! Port Impedance         50               0                50               0                
6.7                            0.0690008908767713 80.9437672244342 0.994088818236469 -6.11901795401138 0.994088818236469 -6.1190179540114 0.069000874722024 80.9452613407542 
! Gamma         0                0                0                0                
! Port Impedance         50               0                50               0                
6.8                            0.0700126401566527 80.8820573277849 0.99400174767362 -6.20954621584677 0.994001747673621 -6.20954621584678 0.070012624534252 80.8835730855811 
! Gamma         0                0                0                0                
! Port Impedance         50               0                50               0                
6.9                            0.0710238663501508 80.8194270921888 0.993913548115585 -6.30004865927565 0.993913548115585 -6.30004865927566 0.0710238512821656 80.8209644966923 
! Gamma         0                0                0                0                
! Port Impedance         50               0                50               0                
7                              0.0720345620097095 80.7559192326932 0.99382422424386 -6.3905249724956 0.99382422424386 -6.39052497249561 0.0720345475186385 80.757478288804  
! Gamma         0                0                0                0                
! Port Impedance         50               0                50               0                
7.1                            0.0730447198953009 80.6915740954423 0.993733780784117 -6.48097485235713 0.993733780784117 -6.48097485235714 0.0730447060040589 80.6931548077378 
! Gamma         0                0                0                0                
! Port Impedance         50               0                50               0                
7.2                            0.0740543329650894 80.6264298171855 0.993642222501115 -6.57139800408709 0.993642222501115 -6.5713980040871 0.0740543196969936 80.6280321899306 
! Gamma         0                0                0                0                
! Port Impedance         50               0                50               0                
7.3                            0.0750633943666646 80.5605224720662 0.993549554193946 -6.66179414102715 0.993549554193946 -6.66179414102716 0.0750633817454211 80.5621465092219 
! Gamma         0                0                0                0                
! Port Impedance         50               0                50               0                
7.4                            0.0760718974287971 80.4938862068577 0.99345578069159 -6.75216298438584 0.99345578069159 -6.75216298438585 0.0760718854784867 80.4955319120905 
! Gamma         0                0                0                0                
! Port Impedance         50               0                50               0                
7.5                            0.0770798356536703 80.4265533656944 0.993360906848747 -6.84250426300309 0.993360906848747 -6.8425042630031 0.0770798243987351 80.428220742385  
! Gamma         0                0                0                0                
! Port Impedance         50               0                50               0                
7.6                            0.0780872027095491 80.3585546052405 0.993264937541929 -6.93281771312609 0.993264937541929 -6.93281771312609 0.0780871921747789 80.3602436564929 
! Gamma         0                0                0                0                
! Port Impedance         50               0                50               0                
7.7                            0.0790939924238507 80.2899190011403 0.99316787766578 -7.02310307819541 0.99316787766578 -7.02310307819541 0.0790939826343692 80.2916297297904 
! Gamma         0                0                0                0                
! Port Impedance         50               0                50               0                
7.8                            0.0801001987765836 80.220674146513  0.993069732129619 -7.11336010864067 0.993069732129619 -7.11336010864067 0.0801001897578348 80.2224065551375 
! Gamma         0                0                0                0                
! Port Impedance         50               0                50               0                
7.9                            0.0811058158941266 80.1508462431789 0.992970505854183 -7.20358856168472 0.992970505854183 -7.20358856168471 0.0811058076718609 80.1526003341037 
! Gamma         0                0                0                0                
! Port Impedance         50               0                50               0                
8                              0.0821108380433208 80.0804601862352 0.992870203768551 -7.29378820115579 0.99287020376855 -7.29378820115579 0.0821108306435818 80.0822359615437 
! Gamma         0                0                0                0                
! Port Impedance         50               0                50               0                
8.1                            0.0831152596258525 80.0095396425438 0.992768830807241 -7.38395879730689 0.992768830807241 -7.38395879730689 0.083115253074963 80.0113371040855 
! Gamma         0                0                0                0                
! Port Impedance         50               0                50               0                
8.2                            0.0841190751729034 79.9381071236365 0.992666391907475 -7.4741001266418 0.992666391907474 -7.47410012664179 0.0841190694974521 79.9399262730349 
! Gamma         0                0                0                0                
! Port Impedance         50               0                50               0                
8.3                            0.0851222793400498 79.8661840534971 0.992562892006581 -7.56421197174721 0.99256289200658 -7.5642119717472 0.0851222745668778 79.8680248921582 
! Gamma         0                0                0                0                
! Port Impedance         50               0                50               0                
8.4                            0.0861248669023944 79.7937908316386 0.992458336039548 -7.65429412113054 0.992458336039547 -7.65429412113053 0.0861248630585815 79.7956533607581 
! Gamma         0                0                0                0                
! Port Impedance         50               0                50               0                
8.5                            0.0871268327499117 79.7209468918509 0.992352728936702 -7.74434636906286 0.992352728936702 -7.74434636906284 0.0871268298627631 79.7228311124226 
! Gamma         0                0                0                0                
! Port Impedance         50               0                50               0                
8.6                            0.0881281718829964 79.6476707569661 0.992246075621515 -7.83436851542672 0.992246075621515 -7.83436851542671 0.0881281699800292 79.6495766697896 
! Gamma         0                0                0                0                
! Port Impedance         50               0                50               0                
8.7                            0.0891288794081985 79.5739800899529 0.992138381008522 -7.92436036556841 0.992138381008521 -7.92436036556839 0.0891288785171289 79.5759076956408 
! Gamma         0                0                0                0                
! Port Impedance         50               0                50               0                
8.8                            0.0901289505341356 79.4998917416247 0.992029650001355 -8.01432173015428 0.992029650001354 -8.01432173015426 0.090128950682865 79.5018410406103 
! Gamma         0                0                0                0                
! Port Impedance         50               0                50               0                
8.9                            0.0911283805675695 79.4254217952233 0.99191988749088 -8.10425242503109 0.991919887490879 -8.10425242503107 0.0911283817841718 79.427392787768  
! Gamma         0                0                0                0                
! Port Impedance         50               0                50               0                
9                              0.0921271649096394 79.3505856081144 0.991809098353428 -8.19415227108981 0.991809098353428 -8.19415227108979 0.0921271672223477 79.352578294315  
! Gamma         0                0                0                0                
! Port Impedance         50               0                50               0                
9.1                            0.0931252990522407 79.2753978508128 0.991697287449132 -8.28402109413283 0.991697287449131 -8.2840210941328 0.0931253024894347 79.2774122306081 
! Gamma         0                0                0                0                
! Port Impedance         50               0                50               0                
9.2                            0.0941227785745432 79.1998725435341 0.991584459620337 -8.37385872474438 0.991584459620337 -8.37385872474436 0.0941227831647362 79.2019086167127 
! Gamma         0                0                0                0                
! Port Impedance         50               0                50               0                
9.3                            0.0951195991396392 79.1240230904584 0.991470619690114 -8.46366499816391 0.991470619690113 -8.46366499816388 0.0951196049114654 79.126080856665  
! Gamma         0                0                0                0                
! Port Impedance         50               0                50               0                
9.4                            0.0961157564913169 79.0478623118679 0.991355772460839 -8.55343975416221 0.991355772460838 -8.55343975416218 0.0961157634735187 79.0499417706103 
! Gamma         0                0                0                0                
! Port Impedance         50               0                50               0                
9.5                            0.0971112464509503 78.9714024743154 0.991239922712863 -8.64318283692034 0.991239922712862 -8.6431828369203 0.0971112546723663 78.9735036249713 
! Gamma         0                0                0                0                
! Port Impedance         50               0                50               0                
9.6                            0.0981060649145027 78.8946553189619 0.991123075203251 -8.7328940949109 0.99112307520325 -8.73289409491086 0.0981060744040549 78.8967781607853 
! Gamma         0                0                0                0                
! Port Impedance         50               0                50               0                
9.7                            0.0991002078496358 78.8176320882128 0.991005234664593 -8.8225733807819 0.991005234664592 -8.82257338078187 0.0991002186363178 78.8197766203406 
! Gamma         0                0                0                0                
! Port Impedance         50               0                50               0                
9.8                            0.100093671292921 78.7403435507713 0.990886405803886 -8.91222055124279 0.990886405803885 -8.91222055124275 0.100093683405786 78.7425097722298 
! Gamma         0                0                0                0                
! Port Impedance         50               0                50               0                
9.9                            0.101086451347151 78.662800025219  0.990766593301479 -9.00183546695273 0.990766593301478 -9.00183546695269 0.1010864648153  78.6649879349299 
! Gamma         0                0                0                0                
! Port Impedance         50               0                50               0                
10                             0.102078544178738 78.5850114022234 0.990645801810088 -9.09141799241103 0.990645801810087 -9.09141799241099 0.102078559031308 78.58722099901   
! Gamma         0                0                0                0                
! Port Impedance         50               0                50               0                
10.1                           0.10306994601521 78.5069871654654 0.990524035953868 -9.18096799584958 0.990524035953867 -9.18096799584953 0.103069962281363 78.5092184480592 
! Gamma         0                0                0                0                
! Port Impedance         50               0                50               0                
10.2                           0.104060653142786 78.4287364113734 0.990401300327541 -9.27048534912725 0.99040130032754 -9.2704853491272 0.104060670851698 78.4309893784192 
! Gamma         0                0                0                0                
! Port Impedance         50               0                50               0                
10.3                           0.105050661904042 78.3502678677412 0.99027759949559 -9.35996992762623 0.990277599495589 -9.35996992762618 0.10505068108489 78.3525425178039 
! Gamma         0                0                0                0                
! Port Impedance         50               0                50               0                
10.4                           0.106039968695645 78.2715899113058 0.990152937991501 -9.44942161015024 0.9901529379915  -9.44942161015019 0.1060399893776  78.2738862428754 
! Gamma         0                0                0                0                
! Port Impedance         50               0                50               0                
10.5                           0.107028569966175 78.1927105843495 0.99002732031706 -9.5388402788245 0.990027320317059 -9.53884027882444 0.107028592178387 78.1950285958473 
! Gamma         0                0                0                0                
! Port Impedance         50               0                50               0                
10.6                           0.108016462214018 78.1136376103912 0.989900750941703 -9.62822581899751 0.989900750941702 -9.62822581899745 0.108016485985609 78.1159773001753 
! Gamma         0                0                0                0                
! Port Impedance         50               0                50               0                
10.7                           0.109003641985324 78.0343784090249 0.989773234301912 -9.71757811914454 0.989773234301911 -9.71757811914448 0.109003667345377 78.0367397753955 
! Gamma         0                0                0                0                
! Port Impedance         50               0                50               0                
10.8                           0.109990105872047 77.9549401099578 0.989644774800665 -9.80689707077284 0.989644774800664 -9.80689707077277 0.109990132849595 77.9573231511626 
! Gamma         0                0                0                0                
! Port Impedance         50               0                50               0                
10.9                           0.11097585051004 77.875329566299  0.989515376806922 -9.89618256832845 0.98951537680692 -9.89618256832839 0.110975879134058 77.8777342805387 
! Gamma         0                0                0                0                
! Port Impedance         50               0                50               0                
11                             0.111960872577221 77.7955533671459 0.989385044655166 -9.98543450910477 0.989385044655165 -9.9854345091047 0.111960902876615 77.7979797525793 
! Gamma         0                0                0                0                
! Port Impedance         50               0                50               0                
11.1                           0.112945168791803 77.7156178495094 0.989253782644984 -10.0746527931526 0.989253782644983 -10.0746527931525 0.112945200795402 77.7180659042583 
! Gamma         0                0                0                0                
! Port Impedance         50               0                50               0                
11.2                           0.113928735910582 77.6355291096198 0.989121595040684 -10.1638373231918 0.989121595040683 -10.1638373231918 0.113928769647129 77.6379988317742 
! Gamma         0                0                0                0                
! Port Impedance         50               0                50               0                
11.3                           0.114911570727285 77.5552930136498 0.98898848607096 -10.2529880045248 0.988988486070959 -10.2529880045247 0.114911606225429 77.5577844012729 
! Gamma         0                0                0                0                
! Port Impedance         50               0                50               0                
11.4                           0.11589367007098 77.4749152078898 0.988854459928591 -10.3421047449511 0.98885445992859 -10.342104744951 0.115893707359264 77.4774282590224 
! Gamma         0                0                0                0                
! Port Impedance         50               0                50               0                
11.5                           0.116875030804532 77.3944011284072 0.98871952077018 -10.4311874546838 0.988719520770179 -10.4311874546838 0.11687506991139 77.396935841073  
! Gamma         0                0                0                0                
! Port Impedance         50               0                50               0                
11.6                           0.117855649823127 77.3137560102207 0.988583672715926 -10.5202360462677 0.988583672715925 -10.5202360462676 0.117855690776874 77.3163123824303 
! Gamma         0                0                0                0                
! Port Impedance         50               0                50               0                
11.7                           0.118835524052838 77.232984896017  0.988446919849435 -10.6092504344982 0.988446919849434 -10.6092504344981 0.118835566881661 77.2355629257727 
! Gamma         0                0                0                0                
! Port Impedance         50               0                50               0                
11.8                           0.119814650449247 77.1520926444368 0.988309266217562 -10.6982305363426 0.988309266217561 -10.6982305363425 0.119814695181199 77.1546923297371 
! Gamma         0                0                0                0                
! Port Impedance         50               0                50               0                
11.9                           0.120793025996118 77.0710839379539 0.988170715830285 -10.7871762708626 0.988170715830284 -10.7871762708625 0.120793072659113 77.0737052767975 
! Gamma         0                0                0                0                
! Port Impedance         50               0                50               0                
12                             0.121770647704117 76.9899632903713 0.988031272660612 -10.8760875591378 0.988031272660611 -10.8760875591377 0.121770696325919 76.9926062807617 
! Gamma         0                0                0                0                
! Port Impedance         50               0                50               0                
12.1                           0.12274751260958 76.9087350539549 0.987890940644516 -10.9649643241913 0.987890940644515 -10.9649643241912 0.1227475632178  76.9113996939042 
! Gamma         0                0                0                0                
! Port Impedance         50               0                50               0                
12.2                           0.123723617773326 76.8274034262251 0.987749723680903 -11.0538064909163 0.987749723680902 -11.0538064909162 0.123723670395415 76.8300897137583 
! Gamma         0                0                0                0                
! Port Impedance         50               0                50               0                
12.3                           0.124698960279521 76.7459724564258 0.987607625631603 -11.1426139860047 0.987607625631602 -11.1426139860046 0.124699014942764 76.7486803895845 
! Gamma         0                0                0                0                
! Port Impedance         50               0                50               0                
12.4                           0.125673537234576 76.6644460516873 0.98746465032139 -11.2313867378764 0.987464650321389 -11.2313867378763 0.125673593966086 76.6671756285334 
! Gamma         0                0                0                0                
! Port Impedance         50               0                50               0                
12.5                           0.126647345766098 76.5828279828999 0.987320801538029 -11.3201246766107 0.987320801538027 -11.3201246766106 0.12664740459281 76.5855792015198 
! Gamma         0                0                0                0                
! Port Impedance         50               0                50               0                
12.6                           0.127620383021873 76.5011218903149 0.987176083032343 -11.4088277338787 0.987176083032342 -11.4088277338786 0.127620443970541 76.503894748823  
! Gamma         0                0                0                0                
! Port Impedance         50               0                50               0                
12.7                           0.128592646168898 76.4193312888859 0.987030498518313 -11.4974958428773 0.987030498518311 -11.4974958428772 0.128592709266091 76.4221257854277 
! Gamma         0                0                0                0                
! Port Impedance         50               0                50               0                
12.8                           0.129564132392449 76.3374595733646 0.986884051673189 -11.5861289382648 0.986884051673188 -11.5861289382647 0.129564197664541 76.3402757061207 
! Gamma         0                0                0                0                
! Port Impedance         50               0                50               0                
12.9                           0.130534838895182 76.2555100231646 0.986736746137632 -11.6747269560971 0.986736746137631 -11.674726956097 0.130534906368354 76.2583477903536 
! Gamma         0                0                0                0                
! Port Impedance         50               0                50               0                
13                             0.131504762896283 76.1734858070041 0.986588585515874 -11.7632898337665 0.986588585515873 -11.7632898337664 0.131504832596517 76.1763452068864 
! Gamma         0                0                0                0                
! Port Impedance         50               0                50               0                
13.1                           0.132473901630644 76.0913899873402 0.986439573375894 -11.8518175099408 0.986439573375893 -11.8518175099407 0.132473973583719 76.0942710182208 
! Gamma         0                0                0                0                
! Port Impedance         50               0                50               0                
13.2                           0.13344225234808 76.0092255246044 0.98628971324962 -11.9403099245042 0.986289713249619 -11.9403099245041 0.133442326579567 76.0121281848359 
! Gamma         0                0                0                0                
! Port Impedance         50               0                50               0                
13.3                           0.134409812312576 75.9269952812492 0.986139008633143 -12.0287670184998 0.986139008633142 -12.0287670184997 0.134409888847838 75.9299195692351 
! Gamma         0                0                0                0                
! Port Impedance         50               0                50               0                
13.4                           0.135376578801574 75.8447020256167 0.985987462986956 -12.1171887340731 0.985987462986954 -12.117188734073 0.135376657665762 75.8476479398141 
! Gamma         0                0                0                0                
! Port Impedance         50               0                50               0                
13.5                           0.136342549105285 75.7623484356364 0.985835079736195 -12.2055750144168 0.985835079736194 -12.2055750144167 0.136342630323337 75.7653159745588 
! Gamma         0                0                0                0                
! Port Impedance         50               0                50               0                
13.6                           0.137307720526041 75.6799371023622 0.985681862270916 -12.2939258037171 0.985681862270915 -12.2939258037169 0.137307804122675 75.6829262645822 
! Gamma         0                0                0                0                
! Port Impedance         50               0                50               0                
13.7                           0.138272090377668 75.5974705333547 0.985527813946369 -12.3822410471013 0.985527813946368 -12.3822410471012 0.138272176377386 75.600481317507  
! Gamma         0                0                0                0                
! Port Impedance         50               0                50               0                
13.8                           0.139235655984898 75.5149511559186 0.985372938083295 -12.4705206905868 0.985372938083294 -12.4705206905866 0.139235744411979 75.5179835607019 
! Gamma         0                0                0                0                
! Port Impedance         50               0                50               0                
13.9                           0.140198414682803 75.4323813201999 0.985217237968235 -12.5587646810309 0.985217237968234 -12.5587646810308 0.140198505561306 75.4354353443799 
! Gamma         0                0                0                0                
! Port Impedance         50               0                50               0                
14                             0.141160363816265 75.3497633021515 0.985060716853852 -12.6469729660828 0.98506071685385 -12.6469729660826 0.141160457170025 75.3528389445629 
! Gamma         0                0                0                0                
! Port Impedance         50               0                50               0                
14.1                           0.142121500739463 75.2670993063724 0.984903377959259 -12.7351454941355 0.984903377959258 -12.7351454941354 0.14212159659209 75.2701965659215 
! Gamma         0                0                0                0                
! Port Impedance         50               0                50               0                
14.2                           0.143081822815396 75.1843914688268 0.984745224470371 -12.8232822142805 0.98474522447037 -12.8232822142804 0.143081921190277 75.1875103444936 
! Gamma         0                0                0                0                
! Port Impedance         50               0                50               0                
14.3                           0.144041327415428 75.101641859449  0.984586259540254 -12.9113830762626 0.984586259540253 -12.9113830762625 0.144041428335724 75.1047823502892 
! Gamma         0                0                0                0                
! Port Impedance         50               0                50               0                
14.4                           0.145000011918858 75.0188524846392 0.98442648628949 -12.9994480304363 0.984426486289489 -12.9994480304362 0.145000115407503 75.0220145897862 
! Gamma         0                0                0                0                
! Port Impedance         50               0                50               0                
14.5                           0.145957873712511 74.9360252896548 0.984265907806554 -13.0874770277236 0.984265907806553 -13.0874770277235 0.145957979792216 74.9392090083219 
! Gamma         0                0                0                0                
! Port Impedance         50               0                50               0                
14.6                           0.146914910190361 74.8531621609035 0.984104527148193 -13.1754700195726 0.984104527148192 -13.1754700195725 0.146915018883611 74.8563674923856 
! Gamma         0                0                0                0                
! Port Impedance         50               0                50               0                
14.7                           0.14787111875317 74.7702649281408 0.983942347339817 -13.2634269579175 0.983942347339816 -13.2634269579173 0.147871230082223 74.7734918718163 
! Gamma         0                0                0                0                
! Port Impedance         50               0                50               0                
14.8                           0.148826496808147 74.6873353665777 0.983779371375899 -13.3513477951399 0.983779371375898 -13.3513477951398 0.148826610795039 74.6905839219102 
! Gamma         0                0                0                0                
! Port Impedance         50               0                50               0                
14.9                           0.149781041768637 74.604375198902  0.983615602220377 -13.4392324840311 0.983615602220376 -13.439232484031 0.149781158435181 74.6076453654418 
! Gamma         0                0                0                0                
! Port Impedance         50               0                50               0                
15                             0.150734751053824 74.5213860972174 0.983451042807065 -13.5270809777554 0.983451042807064 -13.5270809777553 0.150734870421611 74.5246778746034 
! Gamma         0                0                0                0                
! Port Impedance         50               0                50               0                
15.1                           0.151687622088454 74.438369684904  0.98328569604007 -13.6148932298146 0.983285696040069 -13.6148932298145 0.151687744178854 74.4416830728648 
! Gamma         0                0                0                0                
! Port Impedance         50               0                50               0                
15.2                           0.152639652302582 74.3553275384031 0.983119564794216 -13.7026691940138 0.983119564794215 -13.7026691940137 0.152639777136745 74.3586625367587 
! Gamma         0                0                0                0                
! Port Impedance         50               0                50               0                
15.3                           0.153590839131332 74.272261188931  0.982952651915465 -13.7904088244282 0.982952651915464 -13.7904088244281 0.153590966730191 74.2756177975941 
! Gamma         0                0                0                0                
! Port Impedance         50               0                50               0                
15.4                           0.154541180014677 74.1891721241236 0.982784960221353 -13.8781120753706 0.982784960221352 -13.8781120753705 0.154541310398952 74.1925503431008 
! Gamma         0                0                0                0                
! Port Impedance         50               0                50               0                
15.5                           0.15549067239724 74.1060617896154 0.98261649250142 -13.9657789013606 0.982616492501419 -13.9657789013605 0.155490805587436 74.1094616190085 
! Gamma         0                0                0                0                
! Port Impedance         50               0                50               0                
15.6                           0.156439313728109 74.0229315905559 0.982447251517652 -14.0534092570943 0.982447251517651 -14.0534092570942 0.15643944974452 74.0263530305631 
! Gamma         0                0                0                0                
! Port Impedance         50               0                50               0                
15.7                           0.157387101460664 73.9397828930657 0.982277240004916 -14.1410030974153 0.982277240004916 -14.1410030974151 0.157387240323377 73.9432259439825 
! Gamma         0                0                0                0                
! Port Impedance         50               0                50               0                
15.8                           0.158334033052426 73.8566170256354 0.982106460671409 -14.2285603772864 0.982106460671408 -14.2285603772863 0.158334174781323 73.8600816878559 
! Gamma         0                0                0                0                
! Port Impedance         50               0                50               0                
15.9                           0.159280105964922 73.7734352804692 0.981934916199096 -14.3160810517631 0.981934916199095 -14.3160810517629 0.15928025057968 73.7769215544867 
! Gamma         0                0                0                0                
! Port Impedance         50               0                50               0                
16                             0.160225317663555 73.690238914776  0.981762609244162 -14.4035650759665 0.981762609244161 -14.4035650759664 0.160225465183652 73.6937468011842 
! Gamma         0                0                0                0                
! Port Impedance         50               0                50               0                
16.1                           0.161169665617497 73.6070291520099 0.981589542437456 -14.4910124050591 0.981589542437455 -14.491012405059 0.161169816062218 73.6105586515035 
! Gamma         0                0                0                0                
! Port Impedance         50               0                50               0                
16.2                           0.162113147299596 73.5238071830624 0.981415718384942 -14.5784229942201 0.981415718384941 -14.57842299422  0.162113300688029 73.5273582964381 
! Gamma         0                0                0                0                
! Port Impedance         50               0                50               0                
16.3                           0.163055760186285 73.4405741674089 0.981241139668145 -14.6657967986218 0.981241139668144 -14.6657967986217 0.163055916537332 73.4441468955659 
! Gamma         0                0                0                0                
! Port Impedance         50               0                50               0                
16.4                           0.163997501757518 73.3573312342097 0.981065808844603 -14.7531337734078 0.981065808844602 -14.7531337734077 0.163997661089894 73.3609255781506 
! Gamma         0                0                0                0                
! Port Impedance         50               0                50               0                
16.5                           0.164938369496708 73.2740794833697 0.980889728448313 -14.8404338736711 0.980889728448312 -14.840433873671 0.164938531828947 73.2776954442008 
! Gamma         0                0                0                0                
! Port Impedance         50               0                50               0                
16.6                           0.165878360890677 73.1908199865566 0.980712900990181 -14.9276970544332 0.980712900990181 -14.9276970544331 0.165878526241135 73.1944575654886 
! Gamma         0                0                0                0                
! Port Impedance         50               0                50               0                
16.7                           0.166817473429624 73.1075537881804 0.98053532895847 -15.0149232706248 0.98053532895847 -15.0149232706247 0.166817641816484 73.111212986529  
! Gamma         0                0                0                0                
! Port Impedance         50               0                50               0                
16.8                           0.167755704607094 73.0242819063353 0.980357014819245 -15.1021124770665 0.980357014819244 -15.1021124770664 0.167755876048369 73.0279627255215 
! Gamma         0                0                0                0                
! Port Impedance         50               0                50               0                
16.9                           0.168693051919965 72.9410053337057 0.980177961016817 -15.1892646284504 0.980177961016816 -15.1892646284503 0.168693226433505 72.9447077752562 
! Gamma         0                0                0                0                
! Port Impedance         50               0                50               0                
17                             0.16962951286844 72.8577250384382 0.97999816997419 -15.2763796793232 0.979998169974189 -15.2763796793231 0.169629690471933 72.8614491039856 
! Gamma         0                0                0                0                
! Port Impedance         50               0                50               0                
17.1                           0.170565084956049 72.7744419649794 0.979817644093499 -15.3634575840692 0.979817644093499 -15.3634575840691 0.170565265667029 72.778187656263  
! Gamma         0                0                0                0                
! Port Impedance         50               0                50               0                
17.2                           0.171499765689663 72.6911570348834 0.979636385756453 -15.4504982968946 0.979636385756453 -15.4504982968945 0.171499949525513 72.6949243537489 
! Gamma         0                0                0                0                
! Port Impedance         50               0                50               0                
17.3                           0.17243355257951 72.6078711475883 0.979454397324769 -15.5375017718123 0.979454397324768 -15.5375017718122 0.172433739557467 72.611660095988  
! Gamma         0                0                0                0                
! Port Impedance         50               0                50               0                
17.4                           0.173366443139206 72.5245851811625 0.979271681140605 -15.6244679626277 0.979271681140605 -15.6244679626276 0.173366633276368 72.528395761156  
! Gamma         0                0                0                0                
! Port Impedance         50               0                50               0                
17.5                           0.17429843488579 72.4412999930252 0.979088239526998 -15.7113968229249 0.979088239526998 -15.7113968229248 0.174298628199117 72.4451322067788 
! Gamma         0                0                0                0                
! Port Impedance         50               0                50               0                
17.6                           0.175229525339766 72.3580164206374 0.978904074788287 -15.7982883060536 0.978904074788287 -15.7982883060535 0.175229721846089 72.3618702704249 
! Gamma         0                0                0                0                
! Port Impedance         50               0                50               0                
17.7                           0.176159712025151 72.2747352821692 0.97871918921054 -15.8851423651172 0.97871918921054 -15.8851423651171 0.176159911741177 72.2786107703712 
! Gamma         0                0                0                0                
! Port Impedance         50               0                50               0                
17.8                           0.177088992469536 72.191457377141  0.978533585061978 -15.9719589529607 0.978533585061978 -15.9719589529606 0.177089195411851 72.1953545062454 
! Gamma         0                0                0                0                
! Port Impedance         50               0                50               0                
17.9                           0.178017364204144 72.1081834870411 0.978347264593392 -16.0587380221601 0.978347264593392 -16.05873802216  0.17801757038922 72.1121022596429 
! Gamma         0                0                0                0                
! Port Impedance         50               0                50               0                
18                             0.1789448247639  72.0249143759209 0.978160230038559 -16.1454795250117 0.978160230038559 -16.1454795250117 0.178945034208102 72.0288547947221 
! Gamma         0                0                0                0                
! Port Impedance         50               0                50               0                
18.1                           0.179871371687507 71.9416507909673 0.977972483614651 -16.2321834135228 0.977972483614651 -16.2321834135228 0.179871584407097 71.9456128587767 
! Gamma         0                0                0                0                
! Port Impedance         50               0                50               0                
18.2                           0.180797002517522 71.8583934630548 0.977784027522648 -16.3188496394021 0.977784027522648 -16.318849639402 0.180797218528664 71.8623771827879 
! Gamma         0                0                0                0                
! Port Impedance         50               0                50               0                
18.3                           0.181721714800443 71.7751431072764 0.977594863947733 -16.4054781540514 0.977594863947733 -16.4054781540513 0.181721934119212 71.7791484819551 
! Gamma         0                0                0                0                
! Port Impedance         50               0                50               0                
18.4                           0.182645506086796 71.6919004234557 0.977404995059699 -16.4920689085574 0.977404995059699 -16.4920689085574 0.182645728729181 71.6959274562084 
! Gamma         0                0                0                0                
! Port Impedance         50               0                50               0                
18.5                           0.183568373931232 71.6086660966398 0.977214423013339 -16.5786218536848 0.977214423013339 -16.5786218536847 0.183568599913143 71.6127147907007 
! Gamma         0                0                0                0                
! Port Impedance         50               0                50               0                
18.6                           0.18449031589262 71.5254407975741 0.977023149948839 -16.6651369398686 0.977023149948839 -16.6651369398685 0.184490545229894 71.5295111562832 
! Gamma         0                0                0                0                
! Port Impedance         50               0                50               0                
18.7                           0.185411329534155 71.4422251831604 0.976831177992159 -16.7516141172084 0.976831177992159 -16.7516141172083 0.185411562242562 71.4463172099632 
! Gamma         0                0                0                0                
! Port Impedance         50               0                50               0                
18.8                           0.186331412423455 71.3590198968974 0.976638509255422 -16.8380533354621 0.976638509255422 -16.838053335462 0.186331648518705 71.3631335953441 
! Gamma         0                0                0                0                
! Port Impedance         50               0                50               0                
18.9                           0.187250562132679 71.2758255693055 0.976445145837283 -16.9244545440407 0.976445145837283 -16.9244545440407 0.187250801630426 71.2799609430513 
! Gamma         0                0                0                0                
! Port Impedance         50               0                50               0                
19                             0.188168776238632 71.1926428183367 0.976251089823307 -17.0108176920036 0.976251089823307 -17.0108176920036 0.188169019154484 71.1967998711408 
! Gamma         0                0                0                0                
! Port Impedance         50               0                50               0                
19.1                           0.189086052322883 71.1094722497688 0.97605634328633 -17.0971427280538 0.97605634328633 -17.0971427280537 0.189086298672404 71.1136509854943 
! Gamma         0                0                0                0                
! Port Impedance         50               0                50               0                
19.2                           0.190002387971883 71.0263144575858 0.975860908286825 -17.183429600534 0.975860908286825 -17.183429600534 0.190002637770604 71.0305148801992 
! Gamma         0                0                0                0                
! Port Impedance         50               0                50               0                
19.3                           0.190917780777085 70.9431700243446 0.97566478687326 -17.2696782574234 0.975664786873259 -17.2696782574233 0.190918034040507 70.9473921379151 
! Gamma         0                0                0                0                
! Port Impedance         50               0                50               0                
19.4                           0.191832228335066 70.8600395215281 0.975467981082444 -17.3558886463341 0.975467981082444 -17.355888646334 0.191832485078666 70.8642833302274 
! Gamma         0                0                0                0                
! Port Impedance         50               0                50               0                
19.5                           0.192745728247652 70.7769235098861 0.975270492939882 -17.4420607145087 0.975270492939882 -17.4420607145087 0.192745988486893 70.7811890179876 
! Gamma         0                0                0                0                
! Port Impedance         50               0                50               0                
19.6                           0.193658278122044 70.6938225397636 0.97507232446011 -17.5281944088182 0.97507232446011 -17.5281944088182 0.19365854187238 70.6981097516419 
! Gamma         0                0                0                0                
! Port Impedance         50               0                50               0                
19.7                           0.194569875570952 70.6107371514173 0.974873477647037 -17.6142896757595 0.974873477647037 -17.6142896757595 0.194570142847831 70.6150460715477 
! Gamma         0                0                0                0                
! Port Impedance         50               0                50               0                
19.8                           0.195480518212715 70.5276678753209 0.974673954494272 -17.7003464614543 0.974673954494272 -17.7003464614543 0.195480789031593 70.5319985082789 
! Gamma         0                0                0                0                
! Port Impedance         50               0                50               0                
19.9                           0.196390203671443 70.4446152324596 0.974473756985454 -17.786364711648 0.974473756985454 -17.7863647116479 0.196390478047783 70.4489675829201 
! Gamma         0                0                0                0                
! Port Impedance         50               0                50               0                
20                             0.197298929577144 70.3615797346139 0.974272887094571 -17.8723443717084 0.974272887094571 -17.8723443717083 0.197299207526428 70.3659538073506 
! Gamma         0                0                0                0                
! Port Impedance         50               0                50               0                
