! Touchstone file exported from HFSS 2026.1.0
!        File:           C:/ffzhzh/LocalFiles/Ansys_Project_Files/temp_train_TMRDL_678_1783010052_55676.aedt
!        Generated:      12:35:24 AM Jul  3, 2026
!        Design:         TMRDL
!        Project:        temp_train_TMRDL_678_1783010052_55676
!
! Variables:
!        h_bsmrdl = 2um
!        h_ox = 20um
!        h_rdl = 5um
!        h_sub = 80um
!        h_tmrdl = 4.67um
!        h_tsv = 80um
!        h_via = 3um
!        l_bsmrdl = 300um
!        l_sub = 937.74um
!        l_tmrdl = 537.74um
!        m_sub = 200um
!        pitch = 33.44um
!        r_tsv = 6um
!        s_tmrdl = 10um
!        w_bsmrdl = 18um
!        w_sub = 500um
!        w_tmrdl = 28.86um
!        x_tsv_center1 = 552.17um
!        x_tsv_center2 = 870.17um
!        x_tsv_center3 = 1436.77um
!        x_tsv_center4 = 1754.77um
!        x_tsv_center5 = 2321.37um
!        x_tsv_center6 = 2639.37um
!
# GHz S MA R 50.000000
! Terminal data exported
! Port[1] = TM_RDL1_1_T1
! Port[2] = TM_RDL1_1_T2
0.1                            0.00179410468673344 13.5938031654194 0.998257445341268 -0.186381918771482 0.998257445341266 -0.186381918771488 0.00179410140026402 13.5943983778102 
! Gamma         0                0                0                0                
! Port Impedance         50               0                50               0                
0.2                            0.00217071957458774 15.5433111994549 0.997913771489421 -0.358335531544722 0.997913771489419 -0.358335531544684 0.0021706792255218 15.5379715490189 
! Gamma         0                0                0                0                
! Port Impedance         50               0                50               0                
0.3                            0.00244524629547182 12.9775148618002 0.997618408209812 -0.519228612468563 0.99761840820981 -0.519228612468484 0.00244498839363059 12.9698945012692 
! Gamma         0                0                0                0                
! Port Impedance         50               0                50               0                
0.4                            0.00262214458091956 9.78237997832639 0.997410791781501 -0.675806508603967 0.9974107917815  -0.675806508603868 0.00262165788372467 9.77521523658195 
! Gamma         0                0                0                0                
! Port Impedance         50               0                50               0                
0.5                            0.00274179624540708 6.84993431792544 0.99726665327449 -0.831373316323323 0.997266653274489 -0.831373316323222 0.00274111471102101 6.84420885515957 
! Gamma         0                0                0                0                
! Port Impedance         50               0                50               0                
0.6                            0.00283096976828872 4.2843663905655  0.997160904982498 -0.987045041732161 0.997160904982498 -0.987045041732065 0.00283012294798096 4.28027552374058 
! Gamma         0                0                0                0                
! Port Impedance         50               0                50               0                
0.7                            0.00290446067057022 2.03125043227741 0.997077256305736 -1.14310065119489 0.997077256305735 -1.1431006511948 0.00290346645007986 2.02869441579979 
! Gamma         0                0                0                0                
! Port Impedance         50               0                50               0                
0.8                            0.00297035316618473 0.0207732215973303 0.997006023899433 -1.29954748050793 0.997006023899433 -1.29954748050785 0.0029692200397494 0.0195489525905011 
! Gamma         0                0                0                0                
! Port Impedance         50               0                50               0                
0.9                            0.00303319179865156 -1.80443075769461 0.996941485554703 -1.45631765242598 0.996941485554703 -1.45631765242591 0.0030319218607337 -1.80455863159911 
! Gamma         0                0                0                0                
! Port Impedance         50               0                50               0                
1                              0.003095624085242 -3.48729653380623 0.996880201567343 -1.61333179010822 0.996880201567343 -1.61333179010816 0.00309421523150921 -3.48656940095657 
! Gamma         0                0                0                0                
! Port Impedance         50               0                50               0                
1.1                            0.00315924306672604 -5.05925246434528 0.996820060822955 -1.77051785199842 0.996820060822956 -1.77051785199836 0.00315769044094293 -5.05790814845494 
! Gamma         0                0                0                0                
! Port Impedance         50               0                50               0                
1.2                            0.00322503128769856 -6.54331369615602 0.996759745918422 -1.92781518421436 0.996759745918423 -1.92781518421431 0.00322332821156768 -6.54158298012887 
! Gamma         0                0                0                0                
! Port Impedance         50               0                50               0                
1.3                            0.00329360356901848 -7.95647772004911 0.996698428274216 -2.08517398690741 0.996698428274216 -2.08517398690737 0.00329174214403122 -7.95458306765483 
! Gamma         0                0                0                0                
! Port Impedance         50               0                50               0                
1.4                            0.00336534495235937 -9.31143758760799 0.996635589662885 -2.24255362464277 0.996635589662886 -2.24255362464273 0.00336331645685859 -9.30959259933558 
! Gamma         0                0                0                0                
! Port Impedance         50               0                50               0                
1.5                            0.00344049202132353 -10.6177810151713 0.996570914599801 -2.39992088840591 0.996570914599802 -2.39992088840588 0.00343828717891081 -10.616190095847 
! Gamma         0                0                0                0                
! Port Impedance         50               0                50               0                
1.6                            0.00351918252011737 -11.8828292318068 0.996504223495739 -2.55724851799508 0.99650422349574 -2.55724851799505 0.00351679168600575 -11.8816873077061 
! Gamma         0                0                0                0                
! Port Impedance         50               0                50               0                
1.7                            0.00360148661112848 -13.1122286581377 0.99643542990832 -2.71451402655181 0.996435429908321 -2.71451402655179 0.0035988999051627 -13.1117209141624 
! Gamma         0                0                0                0                
! Port Impedance         50               0                50               0                
1.8                            0.00368742715949647 -14.3103732441955 0.996364512431969 -2.87169878887974 0.996364512431969 -2.87169878887972 0.00368463456378382 -14.3106748947737 
! Gamma         0                0                0                0                
! Port Impedance         50               0                50               0                
1.9                            0.00377699326789288 -15.4807099453584 0.99629149571434 -3.02878733946326 0.99629149571434 -3.02878733946325 0.00377398470043349 -15.4819860610381 
! Gamma         0                0                0                0                
! Port Impedance         50               0                50               0                
2                              0.00387014954734462 -16.6259626424565 0.99621643730581 -3.18576683078889 0.996216437305811 -3.18576683078887 0.00386691491900957 -16.6283680500571 
! Gamma         0                0                0                0                
! Port Impedance         50               0                50               0                
2.1                            0.00396684262711048 -17.7482984026552 0.996139418326808 -3.34262661216914 0.996139418326809 -3.34262661216913 0.00396337188678614 -17.7519776693866 
! Gamma         0                0                0                0                
! Port Impedance         50               0                50               0                
2.2                            0.0040670058349785 -18.8494524190405 0.996060536691985 -3.49935789861809 0.996060536691985 -3.49935789861808 0.00406328900608527 -18.8545399237429 
! Gamma         0                0                0                0                
! Port Impedance         50               0                50               0                
2.3                            0.00417056263825696 -19.9308229342108 0.995979902085557 -3.65595350702566 0.995979902085558 -3.65595350702566 0.00416658984881121 -19.9374430230224 
! Gamma         0                0                0                0                
! Port Impedance         50               0                50               0                
2.4                            0.0042774292273767 -20.9935440724451 0.995897632162869 -3.81240764281046 0.995897632162869 -3.81240764281046 0.00427319073508295 -21.0018112920148 
! Gamma         0                0                0                0                
! Port Impedance         50               0                50               0                
2.5                            0.00438751649398685 -22.0385422090536 0.995813849629695 -3.96871572466626 0.995813849629695 -3.96871572466626 0.00438300270739548 -22.0485616077434 
! Gamma         0                0                0                0                
! Port Impedance         50               0                50               0                
2.6                            0.00450073157266106 -23.0665799275803 0.99572867996384 -4.12487423828868 0.99572867996384 -4.12487423828868 0.00449593306912327 -23.0784474136755 
! Gamma         0                0                0                0                
! Port Impedance         50               0                50               0                
2.7                            0.00461697906169706 -24.0782905175982 0.99564224961709 -4.28088061236665 0.99564224961709 -4.28088061236665 0.00461188660264316 -24.0920932630727 
! Gamma         0                0                0                0                
! Port Impedance         50               0                50               0                
2.8                            0.00473616200315865 -25.074205192287 0.995554684584221 -4.4367331118786 0.995554684584222 -4.4367331118786 0.00473076654708547 -25.0900220708977 
! Gamma         0                0                0                0                
! Port Impedance         50               0                50               0                
2.9                            0.00485818267867812 -26.0547746531794 0.995466109258317 -4.59243074501968 0.995466109258318 -4.59243074501968 0.00485247539213447 -26.0726767023565 
! Gamma         0                0                0                0                
! Port Impedance         50               0                50               0                
3                              0.00498294326150993 -27.0203862309705 0.995376645513805 -4.74797318102975 0.995376645513806 -4.74797318102975 0.00497691552830241 -27.040437127967 
! Gamma         0                0                0                0                
! Port Impedance         50               0                50               0                
3.1                            0.00511034635431639 -27.9713775400793 0.995286411973842 -4.90336067688587 0.995286411973842 -4.90336067688587 0.00510398978311135 -27.9936340839877 
! Gamma         0                0                0                0                
! Port Impedance         50               0                50               0                
3.2                            0.00524029543450897 -28.9080473693502 0.995195523429271 -5.05859401133367 0.995195523429271 -5.05859401133368 0.00523360186497412 -28.9325599618058 
! Gamma         0                0                0                0                
! Port Impedance         50               0                50               0                
3.3                            0.00537269522358211 -29.8306643703479 0.995104090383878 -5.21367442510889 0.995104090383879 -5.21367442510889 0.00536565673118868 -29.8574774889308 
! Gamma         0                0                0                0                
! Port Impedance         50               0                50               0                
3.4                            0.00550745199304325 -30.7394739831167 0.995012218706001 -5.36860356647786 0.995012218706001 -5.36860356647786 0.00550006089263379 -30.7686266425938 
! Gamma         0                0                0                0                
! Port Impedance         50               0                50               0                
3.5                            0.00564447381678391 -31.6347039465071 0.994920009370427 -5.52338344143046 0.994920009370427 -5.52338344143047 0.00563672266499955 -31.6662301440955 
! Gamma         0                0                0                0                
! Port Impedance         50               0                50               0                
3.6                            0.00578367077772714 -32.5165686687333 0.9948275582774  -5.67801636800961 0.9948275582774  -5.67801636800961 0.00577555237438013 -32.5504978104957 
! Gamma         0                0                0                0                
! Port Impedance         50               0                50               0                
3.7                            0.00592495513510424 -33.3852726783317 0.994734956137651 -5.83250493437167 0.994734956137652 -5.83250493437168 0.0059164625235759 -33.4216299846268 
! Gamma         0                0                0                0                
! Port Impedance         50               0                50               0                
3.8                            0.00606824145760557 -34.2410133322408 0.994642288414074 -5.98685196025321 0.994642288414074 -5.98685196025322 0.0060593679243451 -34.2798202208507 
! Gamma         0                0                0                0                
! Port Impedance         50               0                50               0                
3.9                            0.00621344672680814 -35.0839829234592 0.994549635311897 -6.14106046157793 0.994549635311898 -6.14106046157793 0.00620418580000458 -35.1252573696057 
! Gamma         0                0                0                0                
! Port Impedance         50               0                50               0                
4                              0.00636049041463321 -35.914370303535 0.994457071810291 -6.29513361798055 0.994457071810291 -6.29513361798056 0.00635083586212971 -35.9581271764816 
! Gamma         0                0                0                0                
! Port Impedance         50               0                50               0                
4.1                            0.00650929453807622 -36.7323621134231 0.994364667729145 -6.44907474305492 0.994364667729145 -6.44907474305493 0.00649924036459342 -36.7786134897571 
! Gamma         0                0                0                0                
! Port Impedance         50               0                50               0                
4.2                            0.00665978369404178 -37.5381436988032 0.994272487825514 -6.60288725715581 0.994272487825514 -6.60288725715581 0.00664932413777456 -37.5868991528057 
! Gamma         0                0                0                0                
! Port Impedance         50               0                50               0                
4.3                            0.00681188507678203 -38.3318997718933 0.994180591914819 -6.7565746625997 0.994180591914819 -6.7565746625997 0.00680101460543159 -38.3831666436481 
! Gamma         0                0                0                0                
! Port Impedance         50               0                50               0                
4.4                            0.00696552848015728 -39.1138148703943 0.99408903501242 -6.9101405211216 0.99408903501242 -6.91014052112161 0.00695424178645817 -39.1675985124709 
! Gamma         0                0                0                0                
! Port Impedance         50               0                50               0                
4.5                            0.00712064628670086 -39.8840736549429 0.993997867491682 -7.06358843345304 0.993997867491682 -7.06358843345304 0.00710893828350013 -39.9403776586202 
! Gamma         0                0                0                0                
! Port Impedance         50               0                50               0                
4.6                            0.00727717344526487 -40.6428610788942 0.993907135255068 -7.21692202089317 0.993907135255068 -7.21692202089317 0.00726503926020797 -40.7016874809805 
! Gamma         0                0                0                0                
! Port Impedance         50               0                50               0                
4.7                            0.00743504743884373 -41.3903624580747 0.993816879915173 -7.3701449087499 0.993816879915173 -7.3701449087499 0.00742248240871932 -41.4517119294341 
! Gamma         0                0                0                0                
! Port Impedance         50               0                50               0                
4.8                            0.00759420824401214 -42.1267634630825 0.993727138982989 -7.5232607115322 0.993727138982989 -7.5232607115322 0.00758120790880517 -42.1906354800045 
! Gamma         0                0                0                0                
! Port Impedance         50               0                50               0                
4.9                            0.00775459828327048 -42.8522500525475 0.993637946061001 -7.67627301977876 0.993637946061001 -7.67627301977876 0.0077411583799703 -42.9186430520976 
! Gamma         0                0                0                0                
! Port Impedance         50               0                50               0                
5                              0.00791616237146035 -43.5670083623403 0.993549331039017 -7.82918538841183 0.993549331039017 -7.82918538841183 0.00790227882766776 -43.6359198828177 
! Gamma         0                0                0                0                
! Port Impedance         50               0                50               0                
5.1                            0.00807884765729451 -44.2712245628969 0.993461320290899 -7.98200132650871 0.993461320290899 -7.98200132650871 0.00806451658466908 -44.3426513704949 
! Gamma         0                0                0                0                
! Port Impedance         50               0                50               0                
5.2                            0.00824260356093713 -44.9650846945001 0.993373936870619 -8.13472428838715 0.99337393687062 -8.13472428838715 0.00822782124852305 -45.0390228972264 
! Gamma         0                0                0                0                
! Port Impedance         50               0                50               0                
5.3                            0.0084073817084707 -45.6487744884359 0.993287200706296 -8.28735766590483 0.993287200706296 -8.28735766590483 0.00839214461593702 -45.7252196383072 
! Gamma         0                0                0                0                
! Port Impedance         50               0                50               0                
5.4                            0.00857313586399521 -46.3224791803646 0.993201128791037 -8.43990478187719 0.993201128791037 -8.43990478187719 0.00855744061482332 -46.4014263648355 
! Gamma         0                0                0                0                
! Port Impedance         50               0                50               0                
5.5                            0.0087398218600213 -46.9863833209343 0.993115735369668 -8.59236888452186 0.993115735369668 -8.59236888452186 0.00872366523467004 -47.0678272444697 
! Gamma         0                0                0                0                
! Port Impedance         50               0                50               0                
5.6                            0.00890739752674256 -47.6406705875906 0.993031032120513 -8.74475314284247 0.993031032120513 -8.74475314284246 0.00889077645581873 -47.7246056442354 
! Gamma         0                0                0                0                
! Port Impedance         50               0                50               0                
5.7                            0.00907582262070204 -48.2855236006503 0.992947028331615 -8.89706064286905 0.992947028331615 -8.89706064286905 0.00905873417816155 -48.3719439383925 
! Gamma         0                0                0                0                
! Port Impedance         50               0                50               0                
5.8                            0.00924505875330379 -48.9211237459748 0.992863731070868 -9.04929438467648 0.992863731070868 -9.04929438467647 0.00922750014970641 -49.0100233236471 
! Gamma         0                0                0                0                
! Port Impedance         50               0                50               0                
5.9                            0.00941506931956189 -49.5476510059864 0.992781145349689 -9.20145728010706 0.992781145349689 -9.20145728010706 0.00939703789540013 -49.6390236433944 
! Gamma         0                0                0                0                
! Port Impedance         50               0                50               0                
6                              0.00958581942742622 -50.1652838002781 0.99269927427993 -9.35355215112798 0.99269927427993 -9.35355215112798 0.00956731264654673 -50.2591232221941 
! Gamma         0                0                0                0                
! Port Impedance         50               0                50               0                
6.1                            0.00975727582797581 -50.7741988366733 0.992618119223855 -9.50558172875848 0.992618119223855 -9.50558172875848 0.00973829127110986 -50.8704987112832 
! Gamma         0                0                0                0                
! Port Impedance         50               0                50               0                
6.2                            0.00992940684672731 -51.3745709732669 0.992537679937065 -9.65754865250621 0.992537679937064 -9.6575486525062 0.00990994220514458 -51.4733249456132 
! Gamma         0                0                0                0                
! Port Impedance         50               0                50               0                
6.3                            0.0101021823162666 -51.9665730917238 0.992457954704327 -9.80945547025643 0.992457954704327 -9.80945547025642 0.010082235385565 -52.0677748126403 
! Gamma         0                0                0                0                
! Port Impedance         50               0                50               0                
6.4                            0.0102755735103761 -52.5503759818988 0.99237894046834 -9.96130463856182 0.99237894046834 -9.96130463856182 0.0102551421844184 -52.6540191328939 
! Gamma         0                0                0                0                
! Port Impedance         50               0                50               0                
6.5                            0.010449553079799 -53.1261482376836 0.992300632951496 -10.1130985232847 0.992300632951496 -10.1130985232847 0.0104286353448061 -53.2322265521876 
! Gamma         0                0                0                0                
! Port Impedance         50               0                50               0                
6.6                            0.0106240949897534 -53.6940561638534 0.992223026770752 -10.2648394005472 0.992223026770752 -10.2648394005472 0.0106026889185614 -53.8025634452106 
! Gamma         0                0                0                0                
! Port Impedance         50               0                50               0                
6.7                            0.0107991744592839 -54.254263693591 0.992146115545776 -10.4165294579489 0.992146115545776 -10.4165294579489 0.010777278205772 -54.365193830143 
! Gamma         0                0                0                0                
! Port Impedance         50               0                50               0                
6.8                            0.0109747679025165 -54.8069323162913 0.992069892000517 -10.5681707960139 0.992069892000517 -10.5681707960139 0.0109523796962107 -54.9202792938659 
! Gamma         0                0                0                0                
! Port Impedance         50               0                50               0                
6.9                            0.0111508528718628 -55.3522210151943 0.991994348058435 -10.7197654298348 0.991994348058435 -10.7197654298348 0.0111279710127204 -55.467978927288 
! Gamma         0                0                0                0                
! Port Impedance         50               0                50               0                
7                              0.0113274080032031 -55.8902862143611 0.991919474931576 -10.8713152908812 0.991919474931576 -10.8713152908812 0.0113040308565796 -56.0084492702724 
! Gamma         0                0                0                0                
! Port Impedance         50               0                50               0                
7.1                            0.0115044129630612 -56.4212817344778 0.991845263203751 -11.0228222289451 0.991845263203751 -11.0228222289451 0.011480538954863 -56.5418442656291 
! Gamma         0                0                0                0                
! Port Impedance         50               0                50               0                
7.2                            0.0116818483977736 -56.9453587569667 0.991771702908045 -11.1742880141994 0.991771702908045 -11.1742880141994 0.0116574760097979 -57.0683152216265 
! Gamma         0                0                0                0                
! Port Impedance         50               0                50               0                
7.3                            0.0118596958846423 -57.4626657958739 0.991698783598914 -11.3257143393439 0.991698783598914 -11.3257143393439 0.0118348236501036 -57.5880107824717 
! Gamma         0                0                0                0                
! Port Impedance         50               0                50               0                
7.4                            0.0120379378850514 -57.9733486770097 0.991626494419114 -11.4771028218215 0.991626494419114 -11.4771028218215 0.0120125643842959 -58.1010769062177 
! Gamma         0                0                0                0                
! Port Impedance         50               0                50               0                
7.5                            0.0122165576995218 -58.4775505238241 0.991554824161722 -11.6284550060843 0.991554824161722 -11.6284550060843 0.0121906815559276 -58.6076568495623 
! Gamma         0                0                0                0                
! Port Impedance         50               0                50               0                
7.6                            0.0123955394246667 -58.9754117495152 0.991483761327493 -11.779772365894 0.991483761327493 -11.779772365894 0.0123691593007294 -59.1078911590203 
! Gamma         0                0                0                0                
! Port Impedance         50               0                50               0                
7.7                            0.0125748679120108 -59.4670700548813 0.991413294177806 -11.9310563066426 0.991413294177806 -11.9310563066426 0.0125479825056131 -59.6019176679669 
! Gamma         0                0                0                0                
! Port Impedance         50               0                50               0                
7.8                            0.012754528728628 -59.9526604314491 0.991343410783443 -12.0823081676806 0.991343410783443 -12.0823081676806 0.0127271367694893 -60.08987149907  
! Gamma         0                0                0                0                
! Port Impedance         50               0                50               0                
7.9                            0.0129345081195481 -60.4323151694283 0.991274099069432 -12.2335292246407 0.991274099069432 -12.2335292246407 0.0129066083658536 -60.5718850716524 
! Gamma         0                0                0                0                
! Port Impedance         50               0                50               0                
8                              0.0131147929718835 -60.9061638700659 0.991205346856192 -12.3847206917489 0.991205346856192 -12.3847206917489 0.0130863842070886 -61.0480881135443 
! Gamma         0                0                0                0                
! Port Impedance         50               0                50               0                
8.1                            0.0132953707806219 -61.3743334619954 0.991137141897203 -12.5358837241133 0.991137141897203 -12.5358837241133 0.0132664518104289 -61.518607677012 
! Gamma         0                0                0                0                
! Port Impedance         50               0                50               0                
8.2                            0.0134762296160297 -61.8369482211975 0.991069471913407 -12.6870194199837 0.991069471913408 -12.6870194199837 0.0134467992655339 -61.9835681583716 
! Gamma         0                0                0                0                
! Port Impedance         50               0                50               0                
8.3                            0.0136573580926123 -62.294129794211 0.991002324624565 -12.8381288229765 0.991002324624565 -12.8381288229765 0.0136274152036134 -62.443091320919 
! Gamma         0                0                0                0                
! Port Impedance         50               0                50               0                
8.4                            0.013838745339573 -62.7459972242588 0.990935687777746 -12.989212924258 0.990935687777746 -12.989212924258 0.0138082887680478 -62.8972963208308 
! Gamma         0                0                0                0                
! Port Impedance         50               0                50               0                
8.5                            0.0140203809727159 -63.1926669799683 0.990869549173157 -13.1402726646842 0.990869549173157 -13.1402726646842 0.0139894095864487 -63.3462997357124 
! Gamma         0                0                0                0                
! Port Impedance         50               0                50               0                
8.6                            0.0142022550677361 -63.6342529863934 0.99080389668748 -13.2913089368906 0.99080389668748 -13.2913089368906 0.0141707677441028 -63.7902155954936 
! Gamma         0                0                0                0                
! Port Impedance         50               0                50               0                
8.7                            0.0143843581348407 -64.070866658063 0.990738718294896 -13.4423225873321 0.990738718294896 -13.4423225873321 0.0143523537587424 -64.2291554153892 
! Gamma         0                0                0                0                
! Port Impedance         50               0                50               0                
8.8                            0.0145666810946483 -64.5026169337976 0.990674002085958 -13.5933144182677 0.990674002085958 -13.5933144182677 0.0145341585565897 -64.6632282306654 
! Gamma         0                0                0                0                
! Port Impedance         50               0                50               0                
8.9                            0.0147492152553103 -64.9296103130613 0.990609736284454 -13.7442851896909 0.990609736284454 -13.7442851896909 0.0147161734496191 -65.0925406329709 
! Gamma         0                0                0                0                
! Port Impedance         50               0                50               0                
9                              0.0149319522908031 -65.3519508936261 0.990545909262429 -13.8952356212026 0.990545909262429 -13.8952356212026 0.0148983901139863 -65.5171968080091 
! Gamma         0                0                0                0                
! Port Impedance         50               0                50               0                
9.1                            0.0151148842203392 -65.7697404103497 0.990482509553481 -14.0461663938271 0.990482509553481 -14.0461663938271 0.0150808005695712 -65.9372985743464 
! Gamma         0                0                0                0                
! Port Impedance         50               0                50               0                
9.2                            0.0152980033888469 -66.1830782748781 0.990419525864467 -14.1970781517688 0.990419525864467 -14.1970781517688 0.015263397160586 -66.3529454231671 
! Gamma         0                0                0                0                
! Port Impedance         50               0                50               0                
9.3                            0.0154813024484705 -66.5920616161046 0.990356947085749 -14.3479715041124 0.99035694708575 -14.3479715041124 0.0154461725371987 -66.7642345588014 
! Gamma         0                0                0                0                
! Port Impedance         50               0                50               0                
9.4                            0.0156647743410436 -66.9967853212256 0.990294762300079 -14.4988470264633 0.990294762300079 -14.4988470264633 0.0156291196381258 -67.1712609398676 
! Gamma         0                0                0                0                
! Port Impedance         50               0                50               0                
9.5                            0.0158484122814892 -67.3973420772532 0.990232960790236 -14.6497052625317 0.990232960790237 -14.6497052625317 0.0158122316741477 -67.5741173208812 
! Gamma         0                0                0                0                
! Port Impedance         50               0                50               0                
9.6                            0.0160322097421045 -67.793822412851 0.99017153204553 -14.8005467256588 0.99017153204553 -14.8005467256588 0.0159955021125041 -67.972894294201 
! Gamma         0                0                0                0                
! Port Impedance         50               0                50               0                
9.7                            0.0162161604376859 -68.1863147403754 0.990110465767227 -14.9513719002866 0.990110465767227 -14.9513719002866 0.0161789246621259 -68.3676803321887 
! Gamma         0                0                0                0                
! Port Impedance         50               0                50               0                
9.8                            0.0164002583114552 -68.5749053980143 0.99004975187303 -15.1021812433731 0.99004975187303 -15.1021812433731 0.0163624932596639 -68.7585618294736 
! Gamma         0                0                0                0                
! Port Impedance         50               0                50               0                
9.9                            0.0165844975217462 -68.9596786919244 0.989989380500663 -15.2529751857524 0.989989380500664 -15.2529751857524 0.0165462020562737 -69.1456231452221 
! Gamma         0                0                0                0                
! Port Impedance         50               0                50               0                
10                             0.0167688724294162 -69.3407169382798 0.989929342010647 -15.4037541334421 0.989929342010647 -15.4037541334421 0.016730045405122 -69.5289466453238 
! Gamma         0                0                0                0                
! Port Impedance         50               0                50               0                
10.1                           0.0169533775859439 -69.7181005051509 0.989869626988333 -15.5545184688986 0.989869626988333 -15.5545184688986 0.0169140178495747 -69.908612744411 
! Gamma         0                0                0                0                
! Port Impedance         50               0                50               0                
10.2                           0.0171380077221815 -70.0919078541432 0.989810226245272 -15.7052685522218 0.989810226245273 -15.7052685522217 0.0170981141120361 -70.284699947641 
! Gamma         0                0                0                0                
! Port Impedance         50               0                50               0                
10.3                           0.0173227577377267 -70.4622155817308 0.989751130819958 -15.8560047223108 0.989751130819958 -15.8560047223108 0.0172823290834031 -70.6572848921756 
! Gamma         0                0                0                0                
! Port Impedance         50               0                50               0                
10.4                           0.017507622690883 -70.8290984602287 0.989692331978024 -16.0067272979718 0.989692331978024 -16.0067272979718 0.0174666578131054 -71.0264423882989 
! Gamma         0                0                0                0                
! Port Impedance         50               0                50               0                
10.5                           0.0176925977891796 -71.1926294783525 0.989633821211928 -16.1574365789795 0.989633821211928 -16.1574365789795 0.0176510954996997 -71.3922454601246 
! Gamma         0                0                0                0                
! Port Impedance         50               0                50               0                
10.6                           0.0178776783804198 -71.5528798813211 0.98957559024019 -16.3081328470938 0.98957559024019 -16.3081328470938 0.0178356374819914 -71.7547653858437 
! Gamma         0                0                0                0                
! Port Impedance         50               0                50               0                
10.7                           0.0180628599442332 -71.9099192104624 0.98951763100621 -16.4588163670327 0.98951763100621 -16.4588163670327 0.0180202792306535 -72.1140717374774 
! Gamma         0                0                0                0                
! Port Impedance         50               0                50               0                
10.8                           0.018248138084103 -72.2638153422899 0.989459935676722 -16.6094873874039 0.989459935676722 -16.6094873874039 0.0182050163403206 -72.4702324200956 
! Gamma         0                0                0                0                
! Port Impedance         50               0                50               0                
10.9                           0.0184335085198464 -72.614634527017 0.989402496639915 -16.7601461415957 0.989402496639915 -16.7601461415957 0.0183898445221289 -72.8233137104751 
! Gamma         0                0                0                0                
! Port Impedance         50               0                50               0                
11                             0.018618967080521 -72.9624414264875 0.989345306503259 -16.9107928486283 0.989345306503259 -16.9107928486283 0.0185747595966821 -73.1733802951689 
! Gamma         0                0                0                0                
! Port Impedance         50               0                50               0                
11.1                           0.0188045096977377 -73.307299151497 0.989288358091067 -17.0614277139685 0.989288358091066 -17.0614277139685 0.018759757487419 -73.5204953079661 
! Gamma         0                0                0                0                
! Port Impedance         50               0                50               0                
11.2                           0.0189901323993572 -73.649269298491 0.989231644441823 -17.2120509303071 0.989231644441823 -17.2120509303071 0.0189448342143618 -73.8647203667233 
! Gamma         0                0                0                0                
! Port Impedance         50               0                50               0                
11.3                           0.01917583130355 -73.9884119856203 0.989175158805308 -17.3626626783027 0.989175158805308 -17.3626626783027 0.0191299858882245 -74.2061156095534 
! Gamma         0                0                0                0                
! Port Impedance         50               0                50               0                
11.4                           0.0193616026132001 -74.3247858881465 0.989118894639542 -17.5132631272907 0.989118894639542 -17.5132631272907 0.0193152087048634 -74.5447397303581 
! Gamma         0                0                0                0                
! Port Impedance         50               0                50               0                
11.5                           0.0195474426106355 -74.6584482731844 0.989062845607567 -17.6638524359614 0.989062845607567 -17.6638524359614 0.0195004989400493 -74.8806500136965 
! Gamma         0                0                0                0                
! Port Impedance         50               0                50               0                
11.6                           0.0197333476526658 -74.9894550337771 0.989007005574104 -17.8144307530064 0.989007005574104 -17.8144307530064 0.0196858529445461 -75.2139023689809 
! Gamma         0                0                0                0                
! Port Impedance         50               0                50               0                
11.7                           0.0199193141659123 -75.3178607222974 0.988951368602083 -17.9649982177356 0.988951368602083 -17.9649982177356 0.0198712671394779 -75.544551363997 
! Gamma         0                0                0                0                
! Port Impedance         50               0                50               0                
11.8                           0.020105338642414 -75.6437185831738 0.98889592894908 -18.1155549606662 0.98889592894908 -18.1155549606662 0.0200567380119694 -75.8726502577435 
! Gamma         0                0                0                0                
! Port Impedance         50               0                50               0                
11.9                           0.0202914176354947 -75.9670805849397 0.988840681063671 -18.2661011040836 0.988840681063671 -18.2661011040836 0.020242262111045 -76.1982510325928 
! Gamma         0                0                0                0                
! Port Impedance         50               0                50               0                
12                             0.0204775477558763 -76.287997451607 0.988785619581723 -18.4166367625774 0.988785619581723 -18.4166367625774 0.020427836043772 -76.5214044257701 
! Gamma         0                0                0                0                
! Port Impedance         50               0                50               0                
12.1                           0.0206637256680267 -76.6065186933649 0.988730739322622 -18.5671620435513 0.988730739322622 -18.5671620435513 0.0206134564716351 -76.8421599601561 
! Gamma         0                0                0                0                
! Port Impedance         50               0                50               0                
12.2                           0.0208499480867279 -76.9226926366095 0.988676035285472 -18.7176770477098 0.988676035285472 -18.7176770477098 0.0207991201071288 -77.160565974415 
! Gamma         0                0                0                0                
! Port Impedance         50               0                50               0                
12.3                           0.0210362117738524 -77.2365664533059 0.988621502645256 -18.8681818695218 0.988621502645256 -18.8681818695218 0.0209848237105565 -77.4766696524526 
! Gamma         0                0                0                0                
! Port Impedance         50               0                50               0                
12.4                           0.0212225135353374 -77.5481861896915 0.988567136748979 -19.0186765976623 0.988567136748979 -19.0186765976623 0.0211705640870245 -77.7905170522095 
! Gamma         0                0                0                0                
! Port Impedance         50               0                50               0                
12.5                           0.0214088502183452 -77.857596794324 0.988512933111802 -19.1691613154329 0.988512933111802 -19.1691613154329 0.0213563380836198 -78.1021531337982 
! Gamma         0                0                0                0                
! Port Impedance         50               0                50               0                
12.6                           0.0215952187085994 -78.1648421454832 0.988458887413173 -19.3196361011631 0.988458887413173 -19.3196361011631 0.0215421425867627 -78.4116217869877 
! Gamma         0                0                0                0                
! Port Impedance         50               0                50               0                
12.7                           0.021781615927888 -78.4699650779343 0.988404995492967 -19.4701010285914 0.988404995492967 -19.4701010285914 0.0217279745197223 -78.7189658580467 
! Gamma         0                0                0                0                
! Port Impedance         50               0                50               0                
12.8                           0.021968038831723 -78.7730074090604 0.98835125334763 -19.6205561672289 0.98835125334763 -19.6205561672289 0.0219138308402886 -79.0242271759529 
! Gamma         0                0                0                0                
! Port Impedance         50               0                50               0                
12.9                           0.0221544844071489 -79.0740099643745 0.988297657126349 -19.7710015827052 0.988297657126349 -19.7710015827052 0.0220997085385901 -79.3274465779768 
! Gamma         0                0                0                0                
! Port Impedance         50               0                50               0                
13                             0.0223409496706909 -79.3730126024188 0.988244203127244 -19.9214373370972 0.988244203127244 -19.9214373370972 0.0222856046350498 -79.6286639346506 
! Gamma         0                0                0                0                
! Port Impedance         50               0                50               0                
13.1                           0.0225274316664357 -79.6700542390632 0.988190887793584 -20.0718634892427 0.988190887793584 -20.0718634892427 0.0224715161784719 -79.927918174132 
! Gamma         0                0                0                0                
! Port Impedance         50               0                50               0                
13.2                           0.0227139274642368 -79.965172871212 0.988137707710044 -20.2222800950383 0.988137707710043 -20.2222800950383 0.022657440244251 -80.2252473059721 
! Gamma         0                0                0                0                
! Port Impedance         50               0                50               0                
13.3                           0.0229004341580379 -80.258405599929 0.988084659598987 -20.3726872077228 0.988084659598987 -20.3726872077228 0.0228433739326982 -80.5206884443001 
! Gamma         0                0                0                0                
! Port Impedance         50               0                50               0                
13.4                           0.0230869488643072 -80.5497886529926 0.988031740316802 -20.5230848781466 0.988031740316801 -20.5230848781466 0.023029314367476 -80.8142778304326 
! Gamma         0                0                0                0                
! Port Impedance         50               0                50               0                
13.5                           0.0232734687205765 -80.8393574068916 0.987978946850264 -20.6734731550284 0.987978946850264 -20.6734731550284 0.0232152586941368 -81.1060508549217 
! Gamma         0                0                0                0                
! Port Impedance         50               0                50               0                
13.6                           0.0234599908840797 -81.1271464082711 0.987926276312961 -20.8238520851986 0.987926276312961 -20.8238520851986 0.0234012040787586 -81.3960420790496 
! Gamma         0                0                0                0                
! Port Impedance         50               0                50               0                
13.7                           0.0236465125304836 -81.4131893948427 0.987873725941752 -20.974221713831 0.987873725941751 -20.974221713831 0.0235871477066727 -81.6842852557839 
! Gamma         0                0                0                0                
! Port Impedance         50               0                50               0                
13.8                           0.0238330308527076 -81.6975193157664 0.987821293093281 -21.1245820846629 0.987821293093281 -21.1245820846629 0.0237730867812773 -81.9708133502025 
! Gamma         0                0                0                0                
! Port Impedance         50               0                50               0                
13.9                           0.0240195430598253 -81.9801683515179 0.987768975240546 -21.2749332402044 0.987768975240546 -21.2749332402044 0.0239590185229332 -82.2556585594002 
! Gamma         0                0                0                0                
! Port Impedance         50               0                50               0                
14                             0.0242060463760447 -82.2611679332519 0.987716769969508 -21.4252752219364 0.987716769969508 -21.4252752219364 0.0241449401679359 -82.5388523318886 
! Gamma         0                0                0                0                
! Port Impedance         50               0                50               0                
14.1                           0.0243925380397619 -82.5405487616715 0.987664674975768 -21.5756080705001 0.987664674975768 -21.5756080705001 0.0243308489675599 -82.8204253864991 
! Gamma         0                0                0                0                
! Port Impedance         50               0                50               0                
14.2                           0.0245790153026834 -82.8183408254155 0.987612688061286 -21.7259318258753 0.987612688061286 -21.7259318258753 0.0245167421871712 -83.100407730802 
! Gamma         0                0                0                0                
! Port Impedance         50               0                50               0                
14.3                           0.0247654754290145 -83.0945734189749 0.987560807131163 -21.8762465275508 0.987560807131163 -21.8762465275508 0.0247026171054035 -83.3788286790505 
! Gamma         0                0                0                0                
! Port Impedance         50               0                50               0                
14.4                           0.024951915694708 -83.3692751601479 0.987509030190472 -22.0265522146855 0.987509030190472 -22.0265522146855 0.024888471013395 -83.6557168696624 
! Gamma         0                0                0                0                
! Port Impedance         50               0                50               0                
14.5                           0.0251383333867716 -83.6424740070464 0.987457355341151 -22.1768489262615 0.987457355341151 -22.1768489262616 0.0250743012140814 -83.9311002822494 
! Gamma         0                0                0                0                
! Port Impedance         50               0                50               0                
14.6                           0.0253247258026284 -83.9141972746624 0.987405780778945 -22.3271367012292 0.987405780778945 -22.3271367012292 0.0252601050215424 -84.2050062542049 
! Gamma         0                0                0                0                
! Port Impedance         50               0                50               0                
14.7                           0.0255110902495297 -84.1844716510058 0.987354304790409 -22.4774155786445 0.987354304790409 -22.4774155786445 0.0254458797603984 -84.4774614968604 
! Gamma         0                0                0                0                
! Port Impedance         50               0                50               0                
14.8                           0.0256974240440144 -84.4533232128246 0.987302925749962 -22.6276855977996 0.987302925749962 -22.6276855977996 0.0256316227652536 -84.7484921112218 
! Gamma         0                0                0                0                
! Port Impedance         50               0                50               0                
14.9                           0.0258837245114146 -84.720777440916 0.987251642117003 -22.7779467983462 0.987251642117003 -22.7779467983462 0.025817331380184 -85.0181236032949 
! Gamma         0                0                0                0                
! Port Impedance         50               0                50               0                
15                             0.0260699889854024 -84.98685923504  0.987200452433073 -22.9281992204126 0.987200452433073 -22.9281992204126 0.0260030029582666 -85.2863808990113 
! Gamma         0                0                0                0                
! Port Impedance         50               0                50               0                
15.1                           0.0262562148075776 -85.2515929284444 0.987149355319082 -23.0784429047141 0.987149355319082 -23.0784429047141 0.0261886348611466 -85.5532883587633 
! Gamma         0                0                0                0                
! Port Impedance         50               0                50               0                
15.2                           0.0264423993270913 -85.515002302011 0.987098349472581 -23.228677892658 0.987098349472581 -23.228677892658 0.0263742244586431 -85.8188697915586 
! Gamma         0                0                0                0                
! Port Impedance         50               0                50               0                
15.3                           0.0266285399003051 -85.7771105980335 0.987047433665095 -23.3789042264424 0.987047433665095 -23.3789042264424 0.0265597691283866 -86.0831484688038 
! Gamma         0                0                0                0                
! Port Impedance         50               0                50               0                
15.4                           0.0268146338904836 -86.0379405336342 0.986996606739502 -23.5291219491501 0.986996606739502 -23.5291219491502 0.0267452662554905 -86.3461471377265 
! Gamma         0                0                0                0                
! Port Impedance         50               0                50               0                
15.5                           0.0270006786675158 -86.2975143138316 0.986945867607474 -23.6793311048367 0.986945867607474 -23.6793311048367 0.0269307132322517 -86.6078880344451 
! Gamma         0                0                0                0                
! Port Impedance         50               0                50               0                
15.6                           0.027186671607667 -86.5558536442653 0.986895215246959 -23.8295317386141 0.986895215246959 -23.8295317386141 0.0271161074578789 -86.8683928966946 
! Gamma         0                0                0                0                
! Port Impedance         50               0                50               0                
15.7                           0.0273726100933567 -86.8129797435881 0.986844648699724 -23.9797238967296 0.986844648699724 -23.9797238967296 0.0273014463382487 -87.1276829762191 
! Gamma         0                0                0                0                
! Port Impedance         50               0                50               0                
15.8                           0.0275584915129613 -87.0689133555343 0.986794167068943 -24.1299076266396 0.986794167068943 -24.1299076266396 0.0274867272856844 -87.385779050837 
! Gamma         0                0                0                0                
! Port Impedance         50               0                50               0                
15.9                           0.0277443132606406 -87.3236747606714 0.986743769516833 -24.28008297708  0.986743769516833 -24.28008297708  0.0276719477187589 -87.6427014361899 
! Gamma         0                0                0                0                
! Port Impedance         50               0                50               0                
16                             0.0279300727361865 -87.5772837878445 0.986693455262346 -24.4302499981321 0.986693455262345 -24.4302499981321 0.0278571050621194 -87.8984699971823 
! Gamma         0                0                0                0                
! Port Impedance         50               0                50               0                
16.1                           0.0281157673448913 -87.8297598253211 0.9866432235789  -24.5804087412842 0.9866432235789  -24.5804087412842 0.0280421967463304 -88.1531041591195 
! Gamma         0                0                0                0                
! Port Impedance         50               0                50               0                
16.2                           0.0283013944974354 -88.0811218316438 0.986593073792168 -24.7305592594898 0.986593073792167 -24.7305592594898 0.0282272202077375 -88.4066229185532 
! Gamma         0                0                0                0                
! Port Impedance         50               0                50               0                
16.3                           0.0284869516097931 -88.3313883461991 0.986543005277899 -24.8807016072228 0.986543005277899 -24.8807016072228 0.0284121728883467 -88.6590448538419 
! Gamma         0                0                0                0                
! Port Impedance         50               0                50               0                
16.4                           0.028672436103154 -88.5805774995093 0.986493017459803 -25.030835840528 0.986493017459802 -25.030835840528 0.0285970522357212 -88.9103881354325 
! Gamma         0                0                0                0                
! Port Impedance         50               0                50               0                
16.5                           0.0288578454038604 -88.8287070232552 0.986443109807458 -25.1809620170695 0.986443109807458 -25.1809620170695 0.0287818557028924 -89.1606705358722 
! Gamma         0                0                0                0                
! Port Impedance         50               0                50               0                
16.6                           0.0290431769433586 -89.0757942600369 0.986393281834286 -25.3310801961756 0.986393281834286 -25.3310801961756 0.0289665807482851 -89.4099094395574 
! Gamma         0                0                0                0                
! Port Impedance         50               0                50               0                
16.7                           0.0292284281581634 -89.3218561728785 0.98634353309555 -25.4811904388804 0.98634353309555 -25.4811904388804 0.0291512248356562 -89.6581218522256 
! Gamma         0                0                0                0                
! Port Impedance         50               0                50               0                
16.8                           0.0294135964898346 -89.5669093544854 0.986293863186407 -25.631292807963 0.986293863186407 -25.631292807963 0.0293357854340442 -89.9053244101985 
! Gamma         0                0                0                0                
! Port Impedance         50               0                50               0                
16.9                           0.0295986793849651 -89.810970036259 0.986244271739994 -25.7813873679841 0.986244271739994 -25.7813873679841 0.029520260017731 -90.1515333893817 
! Gamma         0                0                0                0                
! Port Impedance         50               0                50               0                
17                             0.0297836742951792 -90.054054097076 0.986194758425561 -25.9314741853194 0.986194758425561 -25.9314741853194 0.0297046460662133 -90.3967647140295 
! Gamma         0                0                0                0                
! Port Impedance         50               0                50               0                
17.1                           0.0299685786771403 -90.2961770718393 0.986145322946641 -26.081553328191 0.986145322946641 -26.081553328191 0.0298889410641837 -90.641033965278 
! Gamma         0                0                0                0                
! Port Impedance         50               0                50               0                
17.2                           0.0301533899925678 -90.5373541598053 0.986095965039253 -26.2316248666963 0.986095965039252 -26.2316248666963 0.0300731425015206 -90.8843563894561 
! Gamma         0                0                0                0                
! Port Impedance         50               0                50               0                
17.3                           0.0303381057082617 -90.7776002326943 0.986046684470153 -26.381688872835 0.986046684470153 -26.381688872835 0.0302572478732859 -91.1267469061781 
! Gamma         0                0                0                0                
! Port Impedance         50               0                50               0                
17.4                           0.0305227232961347 -91.0169298425898 0.985997481035117 -26.5317454205331 0.985997481035117 -26.5317454205331 0.0304412546797302 -91.3682201162241 
! Gamma         0                0                0                0                
! Port Impedance         50               0                50               0                
17.5                           0.0307072402332514 -91.2553572296325 0.985948354557256 -26.6817945856655 0.985948354557256 -26.6817945856655 0.030625160426305 -91.6087903092155 
! Gamma         0                0                0                0                
! Port Impedance         50               0                50               0                
17.6                           0.0308916540018731 -91.492896329514 0.985899304885375 -26.8318364460768 0.985899304885375 -26.8318364460768 0.0308089626236807 -91.8484714710886 
! Gamma         0                0                0                0                
! Port Impedance         50               0                50               0                
17.7                           0.0310759620895085 -91.729560780776 0.985850331892361 -26.9818710815994 0.985850331892361 -26.9818710815994 0.0309926587877704 -92.0872772913737 
! Gamma         0                0                0                0                
! Port Impedance         50               0                50               0                
17.8                           0.0312601619889695 -91.9653639319201 0.985801435473606 -27.1318985740705 0.985801435473605 -27.1318985740705 0.0311762464397592 -92.3252211702848 
! Gamma         0                0                0                0                
! Port Impedance         50               0                50               0                
17.9                           0.0314442511984316 -92.2003188483336 0.985752615545463 -27.2819190073472 0.985752615545463 -27.2819190073472 0.0313597231061374 -92.5623162256235 
! Gamma         0                0                0                0                
! Port Impedance         50               0                50               0                
18                             0.0316282272214982 -92.4344383190352 0.985703872043737 -27.4319324673198 0.985703872043737 -27.4319324673197 0.0315430863187388 -92.7985752995042 
! Gamma         0                0                0                0                
! Port Impedance         50               0                50               0                
18.1                           0.0318120875672686 -92.6677348632473 0.985655204922203 -27.5819390419235 0.985655204922203 -27.5819390419235 0.0317263336147819 -93.0340109649038 
! Gamma         0                0                0                0                
! Port Impedance         50               0                50               0                
18.2                           0.0319958297504094 -92.9002207367975 0.98560661415116 -27.7319388211489 0.98560661415116 -27.7319388211489 0.0319094625369154 -93.2686355320413 
! Gamma         0                0                0                0                
! Port Impedance         50               0                50               0                
18.3                           0.0321794512912289 -93.1319079383557 0.98555809971601 -27.8819318970508 0.98555809971601 -27.8819318970508 0.032092470633266 -93.5024610545923 
! Gamma         0                0                0                0                
! Port Impedance         50               0                50               0                
18.4                           0.0323629497157534 -93.3628082155096 0.985509661615871 -28.0319183637555 0.985509661615871 -28.0319183637555 0.0322753554574894 -93.7354993357423 
! Gamma         0                0                0                0                
! Port Impedance         50               0                50               0                
18.5                           0.0325463225558068 -93.5929330706843 0.985461299862215 -28.1818983174671 0.985461299862215 -28.1818983174671 0.0324581145688235 -93.9677619340826 
! Gamma         0                0                0                0                
! Port Impedance         50               0                50               0                
18.6                           0.0327295673490905 -93.8222937669098 0.985413014477543 -28.3318718564721 0.985413014477543 -28.3318718564721 0.0326407455321438 -94.1992601693549 
! Gamma         0                0                0                0                
! Port Impedance         50               0                50               0                
18.7                           0.0329126816392667 -94.0509013334398 0.98536480549407 -28.4818390811434 0.98536480549407 -28.4818390811434 0.03282324591802 -94.4300051280467 
! Gamma         0                0                0                0                
! Port Impedance         50               0                50               0                
18.8                           0.0330956629760413 -94.2787665712266 0.985316672952459 -28.6318000939426 0.985316672952458 -28.6318000939426 0.0330056133027757 -94.660007668843 
! Gamma         0                0                0                0                
! Port Impedance         50               0                50               0                
18.9                           0.0332785089152494 -94.5059000582558 0.985268616900561 -28.7817549994211 0.985268616900561 -28.7817549994211 0.0331878452685473 -94.889278427937 
! Gamma         0                0                0                0                
! Port Impedance         50               0                50               0                
19                             0.03346121701894 -94.7323121547447 0.985220637392198 -28.9317039042207 0.985220637392197 -28.9317039042207 0.033369939403346 -95.1178278242046 
! Gamma         0                0                0                0                
! Port Impedance         50               0                50               0                
19.1                           0.033643784855463 -94.9580130082072 0.985172734485956 -29.0816469170728 0.985172734485955 -29.0816469170728 0.0335518933011191 -95.345666064246 
! Gamma         0                0                0                0                
! Port Impedance         50               0                50               0                
19.2                           0.0338262099995555 -95.1830125583902 0.985124908244014 -29.2315841487966 0.985124908244014 -29.2315841487966 0.0337337045618134 -95.5728031472975 
! Gamma         0                0                0                0                
! Port Impedance         50               0                50               0                
19.3                           0.0340084900324284 -95.4073205420834 0.985077158730992 -29.3815157122963 0.985077158730992 -29.3815157122963 0.0339153707914378 -95.7992488700185 
! Gamma         0                0                0                0                
! Port Impedance         50               0                50               0                
19.4                           0.0341906225418535 -95.6309464978077 0.985029486012823 -29.5314417225576 0.985029486012823 -29.5314417225576 0.0340968896021276 -96.0250128311544 
! Gamma         0                0                0                0                
! Port Impedance         50               0                50               0                
19.5                           0.0343726051222502 -95.8538997703832 0.984981890155646 -29.6813622966433 0.984981890155646 -29.6813622966433 0.0342782586122076 -96.2501044360823 
! Gamma         0                0                0                0                
! Port Impedance         50               0                50               0                
19.6                           0.034554435374772 -96.0761895153825 0.984934371224725 -29.8312775536881 0.984934371224725 -29.8312775536881 0.0344594754462568 -96.4745329012394 
! Gamma         0                0                0                0                
! Port Impedance         50               0                50               0                
19.7                           0.0347361109073926 -96.2978247034701 0.984886929283391 -29.9811876148922 0.98488692928339 -29.9811876148922 0.0346405377351715 -96.6983072584391 
! Gamma         0                0                0                0                
! Port Impedance         50               0                50               0                
19.8                           0.0349176293349916 -96.518814124633 0.984839564391997 -30.1310926035145 0.984839564391996 -30.1310926035145 0.0348214431162299 -96.9214363590772 
! Gamma         0                0                0                0                
! Port Impedance         50               0                50               0                
19.9                           0.035098988279439 -96.7391663923034 0.984792276606904 -30.2809926448654 0.984792276606904 -30.2809926448654 0.0350021892331547 -97.1439288782317 
! Gamma         0                0                0                0                
! Port Impedance         50               0                50               0                
20                             0.0352801853696801 -96.9588899473779 0.984745065979483 -30.4308878662978 0.984745065979482 -30.4308878662978 0.0351827737361769 -97.3657933186581 
! Gamma         0                0                0                0                
! Port Impedance         50               0                50               0                
