! Touchstone file exported from HFSS 2026.1.0
!        File:           C:/ffzhzh/LocalFiles/Ansys_Project_Files/temp_train_TSV_RDL_110_1783634841_29156.aedt
!        Generated:      06:24:28 AM Jul 10, 2026
!        Design:         TSV_RDL
!        Project:        temp_train_TSV_RDL_110_1783634841_29156
!
! Variables:
!        h_bsmrdl = 3.48um
!        h_ox = 20um
!        h_rdl = 5um
!        h_sub = 63.35um
!        h_tmrdl = 2.73um
!        h_tsv = 63.35um
!        h_via = 3um
!        l_bsmrdl = 517.28um
!        l_sub = 3558.75um
!        l_tmrdl = 371.9um
!        m_sub = 200um
!        pitch = 41.5um
!        r_tsv = 6.13um
!        s_tmrdl = 10um
!        w_bsmrdl = 20.58um
!        w_sub = 500um
!        w_tmrdl = 19.19um
!        x_tsv_center1 = 381.495um
!        x_tsv_center2 = 919.355um
!        x_tsv_center3 = 1310.445um
!        x_tsv_center4 = 1848.305um
!        x_tsv_center5 = 2239.395um
!        x_tsv_center6 = 2777.255um
!
# GHz S MA R 50.000000
! Terminal data exported
! Port[1] = TM_RDL1_1_T1
! Port[2] = TM_RDL5_1_T1
0.1                            0.0232348625930839 30.5564910173052 0.980183880281042 -1.27375080827253 0.980183880281043 -1.27375080827253 0.0232348630507783 30.5566177694529 
! Gamma         0                0                0                0                
! Port Impedance         50               0                50               0                
0.2                            0.0316069213873467 47.3605463335106 0.97934258422376 -2.52840501631812 0.979342584223762 -2.52840501631816 0.0316069364985075 47.3608031560294 
! Gamma         0                0                0                0                
! Port Impedance         50               0                50               0                
0.3                            0.0414448728319219 55.6728388619082 0.978283374060182 -3.76011629991431 0.978283374060183 -3.7601162999144 0.0414449120974823 55.6731857996082 
! Gamma         0                0                0                0                
! Port Impedance         50               0                50               0                
0.4                            0.0516816972188031 60.1766673085325 0.977177435478846 -4.9751051292161 0.977177435478846 -4.97510512921621 0.0516817431326765 60.1770886645444 
! Gamma         0                0                0                0                
! Port Impedance         50               0                50               0                
0.5                            0.0620477838564299 62.8112604190126 0.976068580228643 -6.18010252170143 0.976068580228643 -6.18010252170152 0.0620478079067732 62.811763947111  
! Gamma         0                0                0                0                
! Port Impedance         50               0                50               0                
0.6                            0.0724707795616561 64.3911857624885 0.974945148705641 -7.37923215726982 0.97494514870564 -7.37923215726989 0.072470754820964 64.3917866275501 
! Gamma         0                0                0                0                
! Port Impedance         50               0                50               0                
0.7                            0.0829196236519872 65.3077818970683 0.973784214799125 -8.57446134021185 0.973784214799123 -8.57446134021189 0.082919528504698 65.3084946426815 
! Gamma         0                0                0                0                
! Port Impedance         50               0                50               0                
0.8                            0.0933715489186815 65.7755512306764 0.972566572627948 -9.76654395938774 0.972566572627947 -9.76654395938776 0.0933713669333033 65.7763875970196 
! Gamma         0                0                0                0                
! Port Impedance         50               0                50               0                
0.9                            0.103806658548974 65.9244275846978 0.971279279211483 -10.9556470169174 0.971279279211482 -10.9556470169174 0.103806377503242 65.9253965151759 
! Gamma         0                0                0                0                
! Port Impedance         50               0                50               0                
1                              0.114207446553258 65.8388001820857 0.969914633388001 -12.1416788846382 0.969914633388   -12.1416788846382 0.114207057531307 65.8399083547444 
! Gamma         0                0                0                0                
! Port Impedance         50               0                50               0                
1.1                            0.124558756640465 65.5762181688739 0.968468657078989 -13.3244455360299 0.968468657078989 -13.3244455360299 0.124558253334988 65.5774705282018 
! Gamma         0                0                0                0                
! Port Impedance         50               0                50               0                
1.2                            0.134847572004777 65.1773560280035 0.966939865785861 -14.5037206809956 0.96693986578586 -14.5037206809956 0.134846950175505 65.1787562072418 
! Gamma         0                0                0                0                
! Port Impedance         50               0                50               0                
1.3                            0.145062696090878 64.6717715608493 0.965328415276536 -15.6792753316432 0.965328415276536 -15.6792753316432 0.145061953124753 64.6733222006235 
! Gamma         0                0                0                0                
! Port Impedance         50               0                50               0                
1.4                            0.155194421177927 64.0814386095777 0.963635544829304 -16.8508890176799 0.963635544829304 -16.8508890176799 0.155193555719576 64.083141598735  
! Gamma         0                0                0                0                
! Port Impedance         50               0                50               0                
1.5                            0.165234235699099 63.4230134255684 0.961863224017336 -18.0183531206664 0.961863224017336 -18.0183531206664 0.165233247337527 63.4248700861679 
! Gamma         0                0                0                0                
! Port Impedance         50               0                50               0                
1.6                            0.175174586761692 62.7093390497596 0.9600139310537  -19.1814711339853 0.9600139310537  -19.1814711339853 0.175173475767263 62.7113502812631 
! Gamma         0                0                0                0                
! Port Impedance         50               0                50               0                
1.7                            0.185008696914448 61.9504712004506 0.958090513392174 -20.3400579728965 0.958090513392174 -20.3400579728965 0.185007464022643 61.9526375930094 
! Gamma         0                0                0                0                
! Port Impedance         50               0                50               0                
1.8                            0.194730427292412 61.1543935045887 0.956096098585484 -21.4939392052903 0.956096098585484 -21.4939392052904 0.194729073530721 61.1567154281372 
! Gamma         0                0                0                0                
! Port Impedance         50               0                50               0                
1.9                            0.204334177613588 60.3275255719043 0.954034035261148 -22.6429505019944 0.954034035261148 -22.6429505019945 0.204332704167061 60.3300032459157 
! Gamma         0                0                0                0                
! Port Impedance         50               0                50               0                
2                              0.213814814139263 59.4750898497158 0.951907851820632 -23.7869373580548 0.951907851820632 -23.7869373580548 0.213813222249587 59.4777233973599 
! Gamma         0                0                0                0                
! Port Impedance         50               0                50               0                
2.1                            0.223167618155276 58.6013803957515 0.949721225393052 -24.9257550411094 0.949721225393051 -24.9257550411094 0.223165909047993 58.6041698854779 
! Gamma         0                0                0                0                
! Port Impedance         50               0                50               0                
2.2                            0.232388249100607 57.7099624195777 0.947477956647961 -26.0592686966459 0.94747795664796 -26.0592686966459 0.232386423935245 57.7129078966157 
! Gamma         0                0                0                0                
! Port Impedance         50               0                50               0                
2.3                            0.241472717880859 56.8038222528495 0.945181947957083 -27.1873535426162 0.945181947957083 -27.1873535426163 0.241470777719219 56.8069237626975 
! Gamma         0                0                0                0                
! Port Impedance         50               0                50               0                
2.4                            0.250417367068527 55.8854813646893 0.942837183530378 -28.3098950987766 0.942837183530377 -28.3098950987767 0.250415312856951 55.8887389703037 
! Gamma         0                0                0                0                
! Port Impedance         50               0                50               0                
2.5                            0.259218855606351 54.9570839882536 0.94044771082061 -29.4267894108084 0.940447710820609 -29.4267894108084 0.259216688168461 54.96049778234   
! Gamma         0                0                0                0                
! Port Impedance         50               0                50               0                
2.6                            0.267874146325635 54.0204651656931 0.938017622872921 -30.5379432423559 0.93801762287292 -30.5379432423559 0.267871866362678 54.0240352792346 
! Gamma         0                0                0                0                
! Port Impedance         50               0                50               0                
2.7                            0.276380495108801 53.0772041123291 0.935551041504998 -31.6432742185547 0.935551041504997 -31.6432742185547 0.276378103205311 53.0809307202615 
! Gamma         0                0                0                0                
! Port Impedance         50               0                50               0                
2.8                            0.284735440903541 52.1286664665537 0.933052101309939 -32.7427109124099 0.933052101309938 -32.7427109124099 0.284732937536529 52.1325497913057 
! Gamma         0                0                0                0                
! Port Impedance         50               0                50               0                
2.9                            0.292936796068382 51.1760380471308 0.930524934521127 -33.836192870909 0.930524934521126 -33.836192870909 0.292934181618714 51.1800783605952 
! Gamma         0                0                0                0                
! Port Impedance         50               0                50               0                
3                              0.300982636723217 50.2203520633697 0.927973656792529 -34.9236705814996 0.927973656792528 -34.9236705814995 0.300979911488124 50.2245496877407 
! Gamma         0                0                0                0                
! Port Impedance         50               0                50               0                
3.1                            0.308871292914222 49.2625112348516 0.925402353944654 -36.0051053819731 0.925402353944653 -36.0051053819731 0.308868457120241 49.2668665426663 
! Gamma         0                0                0                0                
! Port Impedance         50               0                50               0                
3.2                            0.31660133849664 48.3033059207812 0.922815069714857 -37.0804693182528 0.922815069714856 -37.0804693182528 0.316598392312418 48.3078193344198 
! Gamma         0                0                0                0                
! Port Impedance         50               0                50               0                
3.3                            0.324171580702646 47.3434290965456 0.920215794536156 -38.1497449553597 0.920215794536156 -38.1497449553597 0.324168524251268 47.3481010873841 
! Gamma         0                0                0                0                
! Port Impedance         50               0                50               0                
3.4                            0.331581049403773 46.3834888202342 0.917608455353842 -39.2129251471576 0.917608455353842 -39.2129251471575 0.331577882774364 46.3883199075929 
! Gamma         0                0                0                0                
! Port Impedance         50               0                50               0                
3.5                            0.338828986104329 45.4240186860939 0.914996906475482 -40.2700127704998 0.914996906475481 -40.2700127704997 0.338825709362781 45.429009436088  
! Gamma         0                0                0                0                
! Port Impedance         50               0                50               0                
3.6                            0.345914832718402 44.465486651971  0.912384921437962 -41.321020429228 0.912384921437962 -41.321020429228 0.345911445917163 44.4706376763408 
! Gamma         0                0                0                0                
! Port Impedance         50               0                50               0                
3.7                            0.352838220191729 43.5083025442945 0.909776185865223 -42.365970133188 0.909776185865223 -42.365970133188 0.352834723378613 43.5136144992699 
! Gamma         0                0                0                0                
! Port Impedance         50               0                50               0                
3.8                            0.359598957033161 42.552824480271  0.907174291282245 -43.4048929570732 0.907174291282244 -43.4048929570732 0.359595350259206 42.5582980655088 
! Gamma         0                0                0                0                
! Port Impedance         50               0                50               0                
3.9                            0.366197017820397 41.5993643977532 0.904582729844487 -44.4378286835256 0.904582729844487 -44.4378286835255 0.366193301146791 41.6050003553741 
! Gamma         0                0                0                0                
! Port Impedance         50               0                50               0                
4                              0.372632531742206 40.6481928450829 0.90200488993718 -45.4648254345286 0.90200488993718 -45.4648254345285 0.372628705246345 40.6539919588248 
! Gamma         0                0                0                0                
! Port Impedance         50               0                50               0                
4.1                            0.37890577123541 39.6995431534345 0.899444052595394 -46.4859392947416 0.899444052595394 -46.4859392947416 0.378901835016146 39.7055062479318 
! Gamma         0                0                0                0                
! Port Impedance         50               0                50               0                
4.2                            0.385017140770014 38.753615090801  0.896903388693481 -47.5012339300515 0.896903388693481 -47.5012339300514 0.385013094952163 38.7597430309963 
! Gamma         0                0                0                0                
! Port Impedance         50               0                50               0                
4.3                            0.390967165830456 37.8105780783045 0.89438595685115 -48.5107802042614 0.89438595685115 -48.5107802042613 0.390963010568637 37.8168717689932 
! Gamma         0                0                0                0                
! Port Impedance         50               0                50               0                
4.4                            0.396756482135365 36.8705740348454 0.89189470200286 -49.5146557965072 0.89189470200286 -49.5146557965071 0.396752217617247 36.8770344203536 
! Gamma         0                0                0                0                
! Port Impedance         50               0                50               0                
4.5                            0.402385825132597 35.9337199043984 0.88943245457738 -50.5129448216764 0.88943245457738 -50.5129448216764 0.402381451581615 35.9403479683922 
! Gamma         0                0                0                0                
! Port Impedance         50               0                50               0                
4.6                            0.407856019800831 35.0001099108641 0.887001930235024 -51.505737455822 0.887001930235025 -51.505737455822 0.407851537478461 35.0069066762851 
! Gamma         0                0                0                0                
! Port Impedance         50               0                50               0                
4.7                            0.413167970783824 34.0698175778027 0.884605730111261 -52.4931295682932 0.884605730111261 -52.4931295682932 0.413163379991455 34.0767841069286 
! Gamma         0                0                0                0                
! Port Impedance         50               0                50               0                
4.8                            0.418322652878452 33.1428975442374 0.88224634151686 -53.4752223620642 0.882246341516861 -53.4752223620642 0.418317953958948 33.1500349388607 
! Gamma         0                0                0                0                
! Port Impedance         50               0                50               0                
4.9                            0.423321101893134 32.2193872027063 0.879926139046603 -54.4521220235165 0.879926139046603 -54.4521220235164 0.42331629523212 32.2266966044296 
! Gamma         0                0                0                0                
! Port Impedance         50               0                50               0                
5                              0.428164405888988 31.2993081816582 0.877647386050556 -55.4239393827256 0.877647386050557 -55.4239393827255 0.428159491915936 31.3067907722991 
! Gamma         0                0                0                0                
! Port Impedance         50               0                50               0                
5.1                            0.43285369681229 30.3826676909199 0.875412236424179 -56.3907895851189 0.87541223642418 -56.3907895851189 0.432848676001441 30.3903246930246 
! Gamma         0                0                0                0                
! Port Impedance         50               0                50               0                
5.2                            0.437390142523299 29.469459746201  0.873222736675782 -57.3527917751996 0.873222736675783 -57.3527917751996 0.437385015394485 29.4772924236604 
! Gamma         0                0                0                0                
! Port Impedance         50               0                50               0                
5.3                            0.441774939223503 28.5596662862977 0.871080828232305 -58.3100687928811 0.871080828232306 -58.3100687928811 0.441769706342898 28.5676759450645 
! Gamma         0                0                0                0                
! Port Impedance         50               0                50               0                
5.4                            0.446009304280558 27.6532581947592 0.868988349946777 -59.2627468828383 0.868988349946778 -59.2627468828383 0.446003966261416 27.661446183662  
! Gamma         0                0                0                0                
! Port Impedance         50               0                50               0                
5.5                            0.45009446944789 26.7501962361814 0.866947040773283 -60.2109554171579 0.866947040773284 -60.2109554171579 0.450089026951289 26.758563947834  
! Gamma         0                0                0                0                
! Port Impedance         50               0                50               0                
5.6                            0.454031674473814 25.8504319159627 0.864958542577667 -61.1548266314607 0.864958542577668 -61.1548266314606 0.454026128209464 25.8589807877661 
! Gamma         0                0                0                0                
! Port Impedance         50               0                50               0                
5.7                            0.457822161093355 24.9539082712343 0.863024403054565 -62.0944953745691 0.863024403054565 -62.0944953745691 0.457816511820486 24.9626397864702 
! Gamma         0                0                0                0                
! Port Impedance         50               0                50               0                
5.8                            0.461467167394449 24.0605605997304 0.861146078723704 -63.0300988717104 0.861146078723705 -63.0300988717104 0.461461415922813 24.069476288744  
! Gamma         0                0                0                0                
! Port Impedance         50               0                50               0                
5.9                            0.464967922549041 23.1703171325621 0.85932493798061 -63.9617765011629 0.859324937980611 -63.9617765011629 0.464962069740059 23.1794185740347 
! Gamma         0                0                0                0                
! Port Impedance         50               0                50               0                
6                              0.468325641898646 22.283099656177  0.857562264179022 -64.8896695841942 0.857562264179023 -64.8896695841942 0.468319688666722 22.2923884784865 
! Gamma         0                0                0                0                
! Port Impedance         50               0                50               0                
6.1                            0.471541522383201 21.3988240882029 0.855859258724362 -65.8139211880758 0.855859258724362 -65.8139211880758 0.471535469697231 21.4083019708727 
! Gamma         0                0                0                0                
! Port Impedance         50               0                50               0                
6.2                            0.47461673830154 20.5174010113768 0.854217044159552 -66.7346759419133 0.854217044159552 -66.7346759419133 0.47461058718663 20.5270696866139 
! Gamma         0                0                0                0                
! Port Impedance         50               0                50               0                
6.3                            0.477552437391436 19.6387361693305 0.852636667226298 -67.652079864986 0.852636667226298 -67.652079864986 0.477546188930853 19.6485974236522 
! Gamma         0                0                0                0                
! Port Impedance         50               0                50               0                
6.4                            0.480349737217023 18.7627309276338 0.851119101886679 -68.566280207257 0.851119101886679 -68.566280207257 0.480343392554397 18.7727866035851 
! Gamma         0                0                0                0                
! Port Impedance         50               0                50               0                
6.5                            0.483009721851328 17.8892827031746 0.849665252291494 -69.4774253016827 0.849665252291494 -69.4774253016828 0.483003282193124 17.8995347011371 
! Gamma         0                0                0                0                
! Port Impedance         50               0                50               0                
6.6                            0.485533438841776 17.018285364679  0.848275955683293 -70.3856644279285 0.848275955683292 -70.3856644279285 0.485526905460043 17.0287356447728 
! Gamma         0                0                0                0                
! Port Impedance         50               0                50               0                
6.7                            0.487921896446697 16.1496296069265 0.846951985223421 -71.2911476870765 0.84695198522342 -71.2911476870766 0.487915270682113 16.160280191008  
! Gamma         0                0                0                0                
! Port Impedance         50               0                50               0                
6.8                            0.490176061131187 15.2832033010068 0.845694052733651 -72.1940258868974 0.84569405273365 -72.1940258868974 0.490169344396419 15.2940562747636 
! Gamma         0                0                0                0                
! Port Impedance         50               0                50               0                
6.9                            0.492296855311059 14.4188918227731 0.844502811344141 -73.0944504372468 0.84450281134414 -73.0944504372469 0.492290049094432 14.4299493379199 
! Gamma         0                0                0                0                
! Port Impedance         50               0                50               0                
7                              0.494285155334067 13.5565783614848 0.843378858040531 -73.9925732551385 0.84337885804053 -73.9925732551386 0.494278261203572 13.5678426380625 
! Gamma         0                0                0                0                
! Port Impedance         50               0                50               0                
7.1                            0.496141789688111 12.6961442104839 0.842322736103916 -74.888546679042 0.842322736103915 -74.8885466790421 0.496134809295742 12.7076175392659 
! Gamma         0                0                0                0                
! Port Impedance         50               0                50               0                
7.2                            0.497867537426698 11.8374690416204 0.841334937438321 -75.7825233919492 0.84133493743832 -75.7825233919493 0.497860472513147 11.8491537866301 
! Gamma         0                0                0                0                
! Port Impedance         50               0                50               0                
7.3                            0.499463126802559 10.9804311650267 0.840415904781062 -76.6746563527554 0.84041590478106 -76.6746563527555 0.499455979202253 10.9923297661701 
! Gamma         0                0                0                0                
! Port Impedance         50               0                50               0                
7.4                            0.500929234100927 10.1249077757381 0.839566033792053 -77.5650987354997 0.839566033792051 -77.5650987354997 0.500922005747434 10.1370227515561 
! Gamma         0                0                0                0                
! Port Impedance         50               0                50               0                
7.5                            0.502266482664705 9.27077518856196 0.838785675018753 -78.4540038760138 0.838785675018751 -78.4540038760139 0.502259175596498 9.28310913910781 
! Gamma         0                0                0                0                
! Port Impedance         50               0                50               0                
7.6                            0.503475442104399 8.41790906251885 0.838075135733935 -79.3415252255325 0.838075135733932 -79.3415252255325 0.503468058470991 8.43046467236629 
! Gamma         0                0                0                0                
! Port Impedance         50               0                50               0                
7.7                            0.504556627686407 7.56618461610105 0.837434681643948 -80.227816310822 0.837434681643946 -80.227816310822 0.504549169754856 7.5789646574889  
! Gamma         0                0                0                0                
! Port Impedance         50               0                50               0                
7.8                            0.50551049989397 6.71547683452906 0.836864538465542 -81.1130307003903 0.83686453846554 -81.1130307003904 0.505502970055761 6.72848417064904 
! Gamma         0                0                0                0                
! Port Impedance         50               0                50               0                
7.9                            0.506337464155805 5.86566067012496 0.836364893369622 -81.9973219763483 0.836364893369619 -81.9973219763484 0.506329864934095 5.87889825855964 
! Gamma         0                0                0                0                
! Port Impedance         50               0                50               0                
8                              0.507037870738115 5.01661123686695 0.83593589629062 -82.8808437114965 0.835935896290617 -82.8808437114966 0.507030204795362 5.03008213318564 
! Gamma         0                0                0                0                
! Port Impedance         50               0                50               0                
8.1                            0.507612014796441 4.16820400014    0.835577661100387 -83.7637494512188 0.835577661100384 -83.7637494512188 0.507604284942393 4.18191136166075 
! Gamma         0                0                0                0                
! Port Impedance         50               0                50               0                
8.2                            0.508060136584433 3.32031496265238 0.835290266645667 -84.6461926997714 0.835290266645664 -84.6461926997714 0.508052345784489 3.33426205237903 
! Gamma         0                0                0                0                
! Port Impedance         50               0                50               0                
8.3                            0.508382421817368 2.47282084744694 0.835073757648402 -85.5283269105604 0.835073757648398 -85.5283269105605 0.508374573201297 2.48701103819099 
! Gamma         0                0                0                0                
! Port Impedance         50               0                50               0                
8.4                            0.508579002188855 1.62559927889925 0.834928145468182 -86.4103054800069 0.834928145468179 -86.410305480007 0.508571099059869 1.64003605759676 
! Gamma         0                0                0                0                
! Port Impedance         50               0                50               0                
8.5                            0.508649956039829 0.778528962560705 0.834853408726254 -87.2922817446033 0.834853408726249 -87.2922817446034 0.508642001884004 0.793215934795732 
! Gamma         0                0                0                0                
! Port Impedance         50               0                50               0                
8.6                            0.508595309179557 -0.068510135325897 0.834849493790518 -88.1744089807712 0.834849493790514 -88.1744089807712 0.508587307675585 -0.0535692405792757 
! Gamma         0                0                0                0                
! Port Impedance         50               0                50               0                
8.7                            0.508415035858946 -0.915636607838376 0.834916315121006 -89.0568404071325 0.834916315121002 -89.0568404071325 0.508406990888213 -0.90043793324221 
! Gamma         0                0                0                0                
! Port Impedance         50               0                50               0                
8.8                            0.508109059897035 -1.76296742614044 0.835053755475269 -89.939729188809 0.835053755475265 -89.9397291888091 0.508100975554001 -1.74750698077296 
! Gamma         0                0                0                0                
! Port Impedance         50               0                50               0                
8.9                            0.507677255962033 -2.61061775624866 0.835261665973153 -90.8232284433698 0.835261665973149 -90.8232284433698 0.507669136564911 -2.59489141012271 
! Gamma         0                0                0                0                
! Port Impedance         50               0                50               0                
9                              0.507119451008803 -3.45870077307026 0.83553986602035 -91.7074912480441 0.835539866020346 -91.7074912480441 0.507111301110501 -3.4427042513734 
! Gamma         0                0                0                0                
! Port Impedance         50               0                50               0                
9.1                            0.506435425875092 -4.30732747099967 0.835888143090105 -92.5926706478217 0.835888143090101 -92.5926706478217 0.506427250274411 -4.29105634803766 
! Gamma         0                0                0                0                
! Port Impedance         50               0                50               0                
9.2                            0.505624917039239 -5.15660647037833 0.8363062523624  -93.4789196640583 0.836306252362396 -93.4789196640582 0.505616720792291 -5.14005616320219 
! Gamma         0                0                0                0                
! Port Impedance         50               0                50               0                
9.3                            0.50468761854241 -6.00664381913727 0.836793916219877 -94.3663913032047 0.836793916219873 -94.3663913032047 0.504679406974241 -5.98980958083243 
! Gamma         0                0                0                0                
! Port Impedance         50               0                50               0                
9.4                            0.50362318407876 -6.85754278895449 0.837350823599731 -95.2552385652747 0.837350823599726 -95.2552385652747 0.503614962795135 -6.84041970156855 
! Gamma         0                0                0                0                
! Port Impedance         50               0                50               0                
9.5                            0.502431229257088 -7.70940366527081 0.837976629200728 -96.145614451664 0.837976629200724 -96.145614451664 0.502423004156419 -7.6919866323543 
! Gamma         0                0                0                0                
! Port Impedance         50               0                50               0                
9.6                            0.501111334037799 -8.56232353051622 0.838670952544503 -97.0376719719266 0.838670952544499 -97.0376719719265 0.501103111323164 -8.54460726924858 
! Gamma         0                0                0                0                
! Port Impedance         50               0                50               0                
9.7                            0.499663045349031 -9.41639603990627 0.839433376890232 -97.9315641491091 0.839433376890228 -97.9315641491091 0.499654831540265 -9.39837507277653 
! Gamma         0                0                0                0                
! Port Impedance         50               0                50               0                
9.8                            0.498085879885893 -10.2717111891724 0.840263448001789 -98.8274440232404 0.840263448001786 -98.8274440232404 0.498077681831691 -10.2533798351812 
! Gamma         0                0                0                0                
! Port Impedance         50               0                50               0                
9.9                            0.496379327096675 -11.1283550735924 0.841160672766495 -99.7254646525589 0.841160672766492 -99.7254646525588 0.496371151986678 -11.109707438939 
! Gamma         0                0                0                0                
! Port Impedance         50               0                50               0                
10                             0.494542852359786 -11.9864096376862 0.842124517664599 -100.625779112059 0.842124517664597 -100.625779112059 0.494534707736588 -11.9674396059003 
! Gamma         0                0                0                0                
! Port Impedance         50               0                50               0                
10.1                           0.492577374731601 -12.8476932961085 0.84314052568124 -101.528492595104 0.843140525681235 -101.528492595104 0.492569258577146 -12.8283936558649 
! Gamma         0                0                0                0                
! Port Impedance         50               0                50               0                
10.2                           0.490480313216769 -13.7108887246392 0.844219417303808 -102.433749832203 0.844219417303802 -102.433749832203 0.490472232771234 -13.6912527808897 
! Gamma         0                0                0                0                
! Port Impedance         50               0                50               0                
10.3                           0.488250890148178 -14.5761002711408 0.845360303319064 -103.341691063064 0.845360303319056 -103.341691063064 0.488242852848398 -14.5561210455095 
! Gamma         0                0                0                0                
! Port Impedance         50               0                50               0                
10.4                           0.485888293678524 -15.4434292671337 0.846562238766911 -104.252455069555 0.846562238766902 -104.252455069556 0.485880307171224 -15.4230994811543 
! Gamma         0                0                0                0                
! Port Impedance         50               0                50               0                
10.5                           0.48339168028588 -16.3129737780393 0.847824221199699 -105.166179071697 0.847824221199688 -105.166179071698 0.483383752441473 -16.2922858352334 
! Gamma         0                0                0                0                
! Port Impedance         50               0                50               0                
10.6                           0.480760177464065 -17.1848283353223 0.849145188884705 -106.082998617209 0.849145188884694 -106.08299861721 0.480752316391043 -17.1637743020082 
! Gamma         0                0                0                0                
! Port Impedance         50               0                50               0                
10.7                           0.477992886606044 -18.0590836489258 0.850524018957956 -107.003047464354 0.850524018957943 -107.003047464355 0.477985100665953 -18.0376552336322 
! Gamma         0                0                0                0                
! Port Impedance         50               0                50               0                
10.8                           0.475088886088634 -18.9358262982436 0.851959525538302 -107.926457457825 0.851959525538288 -107.926457457825 0.475081183911652 -18.9140148295945 
! Gamma         0                0                0                0                
! Port Impedance         50               0                50               0                
10.9                           0.4720472345668  -19.8151383997154 0.853450457811502 -108.853358397432 0.853450457811487 -108.853358397432 0.472039625067953 -19.7929348026319 
! Gamma         0                0                0                0                
! Port Impedance         50               0                50               0                
11                             0.468866974485776 -20.6970972489341 0.854995498094881 -109.78387789939 0.854995498094866 -109.78387789939 0.468859466881807 -20.6744920189885 
! Gamma         0                0                0                0                
! Port Impedance         50               0                50               0                
11.1                           0.46554713581907 -21.5817749349419 0.856593259894039 -110.718141250013 0.856593259894024 -110.718141250013 0.465539739646028 -21.5587581106764 
! Gamma         0                0                0                0                
! Port Impedance         50               0                50               0                
11.2                           0.462086740040213 -22.4692379241356 0.858242285964017 -111.656271251655 0.858242285964002 -111.656271251655 0.462079465171788 -22.4457990571382 
! Gamma         0                0                0                0                
! Port Impedance         50               0                50               0                
11.3                           0.458484804335734 -23.3595466109108 0.859941046388305 -112.598388060782 0.85994104638829 -112.598388060782 0.458477661002428 -23.3356747334179 
! Gamma         0                0                0                0                
! Port Impedance         50               0                50               0                
11.4                           0.454740346066431 -24.2527548318362 0.861687936690079 -113.544609018069 0.861687936690065 -113.544609018069 0.454733344875624 -24.2284384216033 
! Gamma         0                0                0                0                
! Port Impedance         50               0                50               0                
11.5                           0.45085238748345 -25.1489093397552 0.863481275991076 -114.495048470485 0.863481275991062 -114.495048470486 0.450845539440465 -25.1241362819042 
! Gamma         0                0                0                0                
! Port Impedance         50               0                50               0                
11.6                           0.446819960705003 -26.0480492337491 0.865319305234585 -115.449817585345 0.865319305234572 -115.449817585346 0.446813277235265 -26.0228067792704 
! Gamma         0                0                0                0                
! Port Impedance         50               0                50               0                
11.7                           0.442642112958764 -26.9502053403632 0.867200185490093 -116.409024156369 0.86720018549008 -116.409024156369 0.442635605931186 -26.9244800609045 
! Gamma         0                0                0                0                
! Port Impedance         50               0                50               0                
11.8                           0.438317912094038 -27.8553995408613 0.869121996358178 -117.372772401838 0.869121996358164 -117.372772401838 0.438311593845774 -27.8291772793918 
! Gamma         0                0                0                0                
! Port Impedance         50               0                50               0                
11.9                           0.433846452366751 -28.7636440385347 0.871082734495313 -118.341162754998 0.871082734495299 -118.341162754998 0.433840335729484 -28.736909855419 
! Gamma         0                0                0                0                
! Port Impedance         50               0                50               0                
12                             0.429226860499058 -29.6749405592146 0.873080312279288 -119.314291646899 0.873080312279276 -119.314291646899 0.429220958827016 -29.6476786731691 
! Gamma         0                0                0                0                
! Port Impedance         50               0                50               0                
12.1                           0.424458302014064 -30.5892794771019 0.875112556636917 -120.292251281955 0.875112556636906 -120.292251281955 0.424452629213987 -30.5614732004364 
! Gamma         0                0                0                0                
! Port Impedance         50               0                50               0                
12.2                           0.419539987844608 -31.5066388568006 0.877177208056698 -121.275129406554 0.877177208056688 -121.275129406554 0.419534558407916 -31.4782705242624 
! Gamma         0                0                0                0                
! Port Impedance         50               0                50               0                
12.3                           0.414471181213445 -32.4269834009782 0.879271919809922 -122.263009071138 0.879271919809911 -122.263009071138 0.414466010250926 -32.3980342914246 
! Gamma         0                0                0                0                
! Port Impedance         50               0                50               0                
12.4                           0.409251204780419 -33.3502632913339 0.881394257404544 -123.255968386236 0.881394257404535 -123.255968386236 0.40924630805975 -33.3207135413449 
! Gamma         0                0                0                0                
! Port Impedance         50               0                50               0                
12.5                           0.403879448050283 -34.2764129084694 0.883541698296801 -124.254080273028 0.883541698296792 -124.254080273027 0.403874842036808 -34.2462414168824 
! Gamma         0                0                0                0                
! Port Impedance         50               0                50               0                
12.6                           0.39835537503289 -35.205349413751 0.885711631886069 -125.257412209097 0.885711631886062 -125.257412209097 0.398351076934111 -35.1745337359494 
! Gamma         0                0                0                0                
! Port Impedance         50               0                50               0                
12.7                           0.392678532145379 -36.1369711732337 0.887901359818917 -126.266025970132 0.88790135981891 -126.266025970132 0.392674559959686 -36.1054874038412 
! Gamma         0                0                0                0                
! Port Impedance         50               0                50               0                
12.8                           0.38684855634387 -37.0711560000765 0.890108096628419 -127.279977368402 0.890108096628414 -127.279977368402 0.386844928914159 -37.038978642497 
! Gamma         0                0                0                0                
! Port Impedance         50               0                50               0                
12.9                           0.380865183470099 -38.0077591874498 0.892328970734879 -128.299315988964 0.892328970734873 -128.299315988964 0.380861920542987 -37.9748610084477 
! Gamma         0                0                0                0                
! Port Impedance         50               0                50               0                
13                             0.374728256796285 -38.9466112985601 0.894561025833826 -129.324084924637 0.894561025833821 -129.324084924637 0.374725379087794 -38.9129631657773 
! Gamma         0                0                0                0                
! Port Impedance         50               0                50               0                
13.1                           0.368437735749642 -39.8875156738385 0.896801222696675 -130.354320510869 0.896801222696671 -130.354320510869 0.368435265018351 -39.8530863737935 
! Gamma         0                0                0                0                
! Port Impedance         50               0                50               0                
13.2                           0.361993704796112 -40.8302456072716 0.899046441408661 -131.390052061751 0.899046441408657 -131.390052061751 0.36199166392497 -40.795001640969 
! Gamma         0                0                0                0                
! Port Impedance         50               0                50               0                
13.3                           0.355396382461493 -41.774541133919 0.901293484067576 -132.431301608508 0.901293484067573 -132.431301608508 0.355394795549676 -41.738446486688 
! Gamma         0                0                0                0                
! Port Impedance         50               0                50               0                
13.4                           0.348646130467082 -42.7201053583558 0.903539077965398 -133.478083641891 0.903539077965395 -133.478083641891 0.348645022933567 -42.6831212399354 
! Gamma         0                0                0                0                
! Port Impedance         50               0                50               0                
13.5                           0.341743462956522 -43.6666002384914 0.905779879273158 -134.530404860021 0.905779879273157 -134.530404860021 0.341742861657352 -43.6286847886404 
! Gamma         0                0                0                0                
! Port Impedance         50               0                50               0                
13.6                           0.334689055790976 -44.6136417200989 0.908012477247214 -135.588263923281 0.908012477247213 -135.588263923281 0.334688989152555 -44.5747496741177 
! Gamma         0                0                0                0                
! Port Impedance         50               0                50               0                
13.7                           0.327483755891167 -45.5607940933832 0.910233398972577 -136.651651217974 0.910233398972576 -136.651651217974 0.327484254062435 -45.5208764008438 
! Gamma         0                0                0                0                
! Port Impedance         50               0                50               0                
13.8                           0.320128590607768 -46.5075634125827 0.912439114655996 -137.720548630518 0.912439114655996 -137.720548630518 0.320129685634643 -46.4665668012238 
! Gamma         0                0                0                0                
! Port Impedance         50               0                50               0                
13.9                           0.312624777106359 -47.4533897810501 0.914626043478174 -138.794929334032 0.914626043478174 -138.794929334032 0.312626503132572 -47.4112562561436 
! Gamma         0                0                0                0                
! Port Impedance         50               0                50               0                
14                             0.304973731760388 -48.3976382549629 0.916790560010713 -139.874757589211 0.916790560010713 -139.874757589211 0.304976125259725 -48.3543045224091 
! Gamma         0                0                0                0                
! Port Impedance         50               0                50               0                
14.1                           0.297177079556013 -49.3395880553419 0.918929001199276 -140.959988561446 0.918929001199276 -140.959988561446 0.297180179602087 -49.2949848541972 
! Gamma         0                0                0                0                
! Port Impedance         50               0                50               0                
14.2                           0.289236663527319 -50.2784196957674 0.921037673909893 -142.050568156165 0.921037673909894 -142.050568156165 0.289240512108415 -50.2324710227019 
! Gamma         0                0                0                0                
! Port Impedance         50               0                50               0                
14.3                           0.281154554260699 -51.2131995256747 0.923112863030451 -143.146432874391 0.923112863030453 -143.146432874392 0.281159196649005 -51.1658217298089 
! Gamma         0                0                0                0                
! Port Impedance         50               0                50               0                
14.4                           0.272933059534933 -52.1428610475407 0.925150840114184 -144.247509690518 0.925150840114186 -144.247509690518 0.272938544721779 -52.0939617689654 
! Gamma         0                0                0                0                
! Port Impedance         50               0                50               0                
14.5                           0.264574734201371 -53.0661821782435 0.92714787254645 -145.353715954257 0.927147872546451 -145.353715954257 0.264581115413031 -53.0156590969462 
! Gamma         0                0                0                0                
! Port Impedance         50               0                50               0                
14.6                           0.256082390460316 -53.9817573728804 0.92910023321031 -146.464959318715 0.929100233210312 -146.464959318715 0.256089725772743 -53.9294967263052 
! Gamma         0                0                0                0                
! Port Impedance         50               0                50               0                
14.7                           0.24745910876038 -54.8879631882875 0.931004210620495 -147.581137696436 0.931004210620497 -147.581137696436 0.247467461836302 -54.8338380047381 
! Gamma         0                0                0                0                
! Port Impedance         50               0                50               0                
14.8                           0.238708249644944 -55.7829153971953 0.932856119489213 -148.702139245221 0.932856119489214 -148.702139245221 0.23871769062334 -55.7267833778435 
! Gamma         0                0                0                0                
! Port Impedance         50               0                50               0                
14.9                           0.229833467004815 -56.6644151192201 0.934652311681193 -149.827842385372 0.934652311681194 -149.827842385372 0.22984407358169 -56.606116082416 
! Gamma         0                0                0                0                
! Port Impedance         50               0                50               0                
15                             0.220838723385417 -57.5298805328294 0.936389187509231 -150.958115849922 0.936389187509233 -150.958115849923 0.220850582136767 -57.4692333090064 
! Gamma         0                0                0                0                
! Port Impedance         50               0                50               0                
15.1                           0.211728308265138 -58.3762594541089 0.938063207315546 -152.092818769217 0.938063207315548 -152.092818769217 0.211741516279321 -58.3130580854163 
! Gamma         0                0                0                0                
! Port Impedance         50               0                50               0                
15.2                           0.202506860607049 -59.1999162315548 0.939670903278544 -153.231800791062 0.939670903278545 -153.231800791062 0.202521527516427 -59.1339252839862 
! Gamma         0                0                0                0                
! Port Impedance         50               0                50               0                
15.3                           0.193179397548971 -59.9964837279484 0.941208891379135 -154.374902237432 0.941208891379136 -154.374902237432 0.193195648082285 -59.927432460174 
! Gamma         0                0                0                0                
! Port Impedance         50               0                50               0                
15.4                           0.183751351931723 -60.7606671917042 0.942673883455797 -155.521954298514 0.942673883455798 -155.521954298514 0.183769329153661 -60.6882422368276 
! Gamma         0                0                0                0                
! Port Impedance         50               0                50               0                
15.5                           0.174228622627134 -61.4859808356799 0.944062699273069 -156.672779264616 0.944062699273069 -156.672779264616 0.174248492096324 -61.4098169291063 
! Gamma         0                0                0                0                
! Port Impedance         50               0                50               0                
15.6                           0.164617643572682 -62.1643887445163 0.945372278524355 -157.827190796203 0.945372278524356 -157.827190796204 0.164639598744335 -62.0840568575243 
! Gamma         0                0                0                0                
! Port Impedance         50               0                50               0                
15.7                           0.15492548048545 -62.7858073020865 0.946599692686787 -158.984994232046 0.946599692686787 -158.984994232046 0.154949749826533 -62.7007992937278 
! Gamma         0                0                0                0                
! Port Impedance         50               0                50               0                
15.8                           0.145159969177847 -63.3374031729858 0.947742156643579 -160.145986935166 0.94774215664358 -160.145986935166 0.145186825678009 -63.2471117197293 
! Gamma         0                0                0                0                
! Port Impedance         50               0                50               0                
15.9                           0.13532991760387 -63.8025827728885 0.948797039987911 -161.30995867597 0.948797039987911 -161.30995867597 0.135359691699394 -63.7062748300829 
! Gamma         0                0                0                0                
! Port Impedance         50               0                50               0                
16                             0.125445407775793 -64.1595047505673 0.949761877921907 -162.476692051644 0.949761877921906 -162.476692051645 0.125478505233528 -64.05628608406  
! Gamma         0                0                0                0                
! Port Impedance         50               0                50               0                
16.1                           0.115518258407081 -64.378834799999 0.950634381664837 -163.645962940568 0.950634381664836 -163.645962940569 0.115555185574457 -64.2676021450009 
! Gamma         0                0                0                0                
! Port Impedance         50               0                50               0                
16.2                           0.105562754354413 -64.4202601530388 0.951412448286287 -164.817540990195 0.951412448286286 -164.817540990195 0.10560415460809 -64.2996363278739 
! Gamma         0                0                0                0                
! Port Impedance         50               0                50               0                
16.3                           0.0955968350982934 -64.2269043755372 0.952094169882711 -165.991190136543 0.95209416988271 -165.991190136543 0.0956435427453715 -64.0951505398978 
! Gamma         0                0                0                0                
! Port Impedance         50               0                50               0                
16.4                           0.0856441063747636 -63.7160531360546 0.952677842019543 -167.16666915314 0.952677842019541 -167.16666915314 0.0856972284433313 -63.570952855089 
! Gamma         0                0                0                0                
! Port Impedance         50               0                50               0                
16.5                           0.0757373997960092 -62.7631311384433 0.95316197136585 -168.343732226982 0.953161971365849 -168.343732226982 0.0757984434052285 -62.6018486349884 
! Gamma         0                0                0                0                
! Port Impedance         50               0                50               0                
16.6                           0.0659254057637759 -61.172801716007 0.953545282454351 -169.522129558795 0.953545282454349 -169.522129558796 0.0659964809068383 -60.9917518353376 
! Gamma         0                0                0                0                
! Port Impedance         50               0                50               0                
16.7                           0.0562857873187423 -58.6245342905106 0.953826723506363 -170.701607984667 0.953826723506361 -170.701607984667 0.0563699319608546 -58.419437269935 
! Gamma         0                0                0                0                
! Port Impedance         50               0                50               0                
16.8                           0.0469528412308063 -54.5666458854857 0.954005471268944 -171.881911615869 0.954005471268943 -171.881911615869 0.0470545195993768 -54.3334461717641 
! Gamma         0                0                0                0                
! Port Impedance         50               0                50               0                
16.9                           0.0381794481066949 -48.0128758121645 0.954080934819897 -173.062782493529 0.954080934819896 -173.062782493529 0.0383051339442187 -47.7520555824872 
! Gamma         0                0                0                0                
! Port Impedance         50               0                50               0                
17                             0.0304779367083345 -37.2304313869888 0.954052758305396 -174.243961254659 0.954052758305394 -174.243961254659 0.0306357117390052 -36.963023124202 
! Gamma         0                0                0                0                
! Port Impedance         50               0                50               0                
17.1                           0.0248840542292838 -19.8741123682054 0.953920822584638 -175.425187805887 0.953920822584636 -175.425187805887 0.0250771120912311 -19.6814673603375 
! Gamma         0                0                0                0                
! Port Impedance         50               0                50               0                
17.2                           0.0229994854130661 3.84769902470873 0.953685245765928 -176.60620200123 0.953685245765926 -176.60620200123 0.0232077211555967 3.8351569749062  
! Gamma         0                0                0                0                
! Port Impedance         50               0                50               0                
17.3                           0.0256511874558163 26.7597327832806 0.953346382628848 -177.786744320132 0.953346382628846 -177.786744320132 0.0258370832204495 26.5624011714111 
! Gamma         0                0                0                0                
! Port Impedance         50               0                50               0                
17.4                           0.0317090632899103 42.7881685260668 0.952904822937525 -178.966556542025 0.952904822937523 -178.966556542025 0.0318584052268291 42.5389191039309 
! Gamma         0                0                0                0                
! Port Impedance         50               0                50               0                
17.5                           0.0396242577566102 52.640061449672  0.952361388660253 179.854617586284 0.952361388660251 179.854617586284 0.0397425324042926 52.4054397124435 
! Gamma         0                0                0                0                
! Port Impedance         50               0                50               0                
17.6                           0.0484761714495308 58.6443119467806 0.951717130120767 178.67703169406  0.951717130120765 178.67703169406  0.0485715107563668 58.4389273143576 
! Gamma         0                0                0                0                
! Port Impedance         50               0                50               0                
17.7                           0.0578151847055754 62.3774848108568 0.95097332111613 177.500936144426 0.950973321116128 177.500936144426 0.0578937363552511 62.2000472877243 
! Gamma         0                0                0                0                
! Port Impedance         50               0                50               0                
17.8                           0.0674171950964741 64.7262727449345 0.950131453045293 176.326577409883 0.95013145304529 176.326577409884 0.067483146335466 64.5723655314542 
! Gamma         0                0                0                0                
! Port Impedance         50               0                50               0                
17.9                           0.0771615177298683 66.1890926178205 0.949193228100891 175.154197468747 0.949193228100889 175.154197468747 0.0772177133575332 66.0544436378049 
! Gamma         0                0                0                0                
! Port Impedance         50               0                50               0                
18                             0.0869774586941827 67.0579834810135 0.948160551584534 173.984033225482 0.948160551584532 173.984033225482 0.0870258761218312 66.9390944871545 
! Gamma         0                0                0                0                
! Port Impedance         50               0                50               0                
18.1                           0.0968202382117021 67.5124349193628 0.947035523412655 172.816315957699 0.947035523412654 172.816315957699 0.0968622908591899 67.4065598142371 
! Gamma         0                0                0                0                
! Port Impedance         50               0                50               0                
18.2                           0.106659440325373 67.6677906583293 0.945820428885905 171.651270792274 0.945820428885903 171.651270792274 0.106696166134338 67.5727882219621 
! Gamma         0                0                0                0                
! Port Impedance         50               0                50               0                
18.3                           0.11647310402411 67.6011423972903 0.944517728799896 170.489116212814 0.944517728799894 170.489116212814 0.116505284040395 67.5153333495481 
! Gamma         0                0                0                0                
! Port Impedance         50               0                50               0                
18.4                           0.126244519449626 67.365800452619  0.943130048978958 169.330063600364 0.943130048978957 169.330063600365 0.126272754220397 67.2878541121993 
! Gamma         0                0                0                0                
! Port Impedance         50               0                50               0                
18.5                           0.135960400541418 66.9997321776129 0.941660169317265 168.174316808964 0.941660169317264 168.174316808964 0.135985160653148 66.9285816767586 
! Gamma         0                0                0                0                
! Port Impedance         50               0                50               0                
18.6                           0.145609796195624 66.5306782273747 0.940111012413368 167.022071777341 0.940111012413367 167.022071777342 0.145631456578976 66.4654581034839 
! Gamma         0                0                0                0                
! Port Impedance         50               0                50               0                
18.7                           0.155183416489689 65.9793647067941 0.93848563188479 165.873516177729 0.93848563188479 165.873516177729 0.155202280271153 65.9193649620188 
! Gamma         0                0                0                0                
! Port Impedance         50               0                50               0                
18.8                           0.164673201791726 65.361583392298  0.936787200448893 164.728829102453 0.936787200448892 164.728829102454 0.164689517244824 65.3062154387477 
! Gamma         0                0                0                0                
! Port Impedance         50               0                50               0                
18.9                           0.174072039061621 64.6895765536588 0.935018997854875 163.588180788676 0.935018997854875 163.588180788676 0.174086011895662 64.6383477168891 
! Gamma         0                0                0                0                
! Port Impedance         50               0                50               0                
19                             0.18337357009723 63.9729817499945 0.933184398749473 162.451732381329 0.933184398749473 162.451732381329 0.18338537252736 63.9254759676072 
! Gamma         0                0                0                0                
! Port Impedance         50               0                50               0                
19.1                           0.192572058738231 63.2194907146216 0.931286860555838 161.319635734049 0.931286860555838 161.319635734049 0.192581836289283 63.1753537589389 
! Gamma         0                0                0                0                
! Port Impedance         50               0                50               0                
19.2                           0.201662296735274 62.4353179872814 0.929329911441243 160.192033247608 0.929329911441243 160.192033247608 0.201670173421106 62.3942460260626 
! Gamma         0                0                0                0                
! Port Impedance         50               0                50               0                
19.3                           0.210639535467569 61.6255401987576 0.92731713844482 159.06905774511  0.927317138444821 159.06905774511  0.210645617786598 61.587270845699  
! Gamma         0                0                0                0                
! Port Impedance         50               0                50               0                
19.4                           0.219499435222488 60.7943456902525 0.925252175831533 157.950832382996 0.925252175831533 157.950832382996 0.21950381527751 60.7586509327915 
! Gamma         0                0                0                0                
! Port Impedance         50               0                50               0                
19.5                           0.228238026568384 59.9452208698384 0.923138693733154 156.837470596683 0.923138693733155 156.837470596683 0.228240784529624 59.9119014274589 
! Gamma         0                0                0                0                
! Port Impedance         50               0                50               0                
19.6                           0.236851680145998 59.0810912111754 0.920980387131303 155.72907607948  0.920980387131304 155.72907607948  0.236852886215354 59.0499719948374 
! Gamma         0                0                0                0                
! Port Impedance         50               0                50               0                
19.7                           0.245337082370874 58.2044292509723 0.918780965231581 154.625742793273 0.918780965231583 154.625742793273 0.245336798362861 58.1753556783309 
! Gamma         0                0                0                0                
! Port Impedance         50               0                50               0                
19.8                           0.253691215313112 57.3173382499728 0.916544141271762 153.527555009324 0.916544141271763 153.527555009324 0.253689495938153 57.2901732318003 
! Gamma         0                0                0                0                
! Port Impedance         50               0                50               0                
19.9                           0.261911339543196 56.4216176835205 0.914273622800824 152.434587377421 0.914273622800825 152.434587377421 0.261908233457438 56.3962391411136 
! Gamma         0                0                0                0                
! Port Impedance         50               0                50               0                
20                             0.269994979090854 55.5188150094831 0.911973102459527 151.346905021525 0.911973102459528 151.346905021525 0.269990529761173 55.4951138155484 
! Gamma         0                0                0                0                
! Port Impedance         50               0                50               0                
20.1                           0.277939907912987 54.6102669623232 0.909646249287218 150.264563659998 0.909646249287219 150.264563659998 0.277934154334475 54.5881452221951 
! Gamma         0                0                0                0                
! Port Impedance         50               0                50               0                
20.2                           0.285744137442214 53.697132774021  0.907296700573769 149.187609748441 0.90729670057377 149.187609748441 0.285737114736976 53.6765023823675 
! Gamma         0                0                0                0                
! Port Impedance         50               0                50               0                
20.3                           0.293405904912502 52.7804211150808 0.904928054269985 148.116080643163 0.904928054269987 148.116080643163 0.293397644832243 52.7612025371282 
! Gamma         0                0                0                0                
! Port Impedance         50               0                50               0                
20.4                           0.300923662247983 51.8610121086042 0.902543861964565 147.050004783277 0.902543861964566 147.050004783277 0.30091419359811 51.8431333455181 
! Gamma         0                0                0                0                
! Port Impedance         50               0                50               0                
20.5                           0.308296065366064 50.93967544783   0.900147622430734 145.989401889444 0.900147622430735 145.989401889444 0.308285414365325 50.9230711540624 
! Gamma         0                0                0                0                
! Port Impedance         50               0                50               0                
20.6                           0.315521963793006 50.017085408766  0.897742775741158 144.934283177322 0.897742775741159 144.934283177322 0.315510154379869 50.0016961355248 
! Gamma         0                0                0                0                
! Port Impedance         50               0                50               0                
20.7                           0.322600390524481 49.0938333710815 0.895332697945508 143.884651583795 0.895332697945509 143.884651583795 0.322587444619302 49.0796049150432 
! Gamma         0                0                0                0                
! Port Impedance         50               0                50               0                
20.8                           0.329530552088633 48.1704383258714 0.892920696301314 142.840502004134 0.892920696301316 142.840502004134 0.32951648981889 48.1573211661629 
! Gamma         0                0                0                0                
! Port Impedance         50               0                50               0                
20.9                           0.336311818787179 47.247355746567  0.890510005045359 141.801821538309 0.89051000504536 141.801821538309 0.336296658681729 47.2353045561456 
! Gamma         0                0                0                0                
! Port Impedance         50               0                50               0                
21                             0.342943715103074 46.3249851208413 0.88810378168989 140.768589744719 0.888103781689891 140.768589744719 0.342927474260309 46.3139583408683 
! Gamma         0                0                0                0                
! Port Impedance         50               0                50               0                
21.1                           0.349425910272365 45.4036763807805 0.8857051038254  139.740778899739 0.885705103825401 139.740778899739 0.349408604506288 45.3936358485701 
! Gamma         0                0                0                0                
! Port Impedance         50               0                50               0                
21.2                           0.35575820902416 44.4837354214985 0.883316966409539 138.718354261512 0.88331696640954 138.718354261512 0.355739852991683 44.4746460442216 
! Gamma         0                0                0                0                
! Port Impedance         50               0                50               0                
21.3                           0.361940542496648 43.5654288614931 0.880942279519936 137.701274336565 0.880942279519937 137.701274336565 0.361921149808915 43.5572583291138 
! Gamma         0                0                0                0                
! Port Impedance         50               0                50               0                
21.4                           0.36797295933972 42.6489881689992 0.87858386654729 136.689491147883 0.878583866547291 136.689491147883 0.367952542659732 42.6417067009819 
! Gamma         0                0                0                0                
! Port Impedance         50               0                50               0                
21.5                           0.373855617015873 41.7346132555772 0.876244462803982 135.682950503198 0.876244462803983 135.682950503198 0.373834188144381 41.7281933767662 
! Gamma         0                0                0                0                
! Port Impedance         50               0                50               0                
21.6                           0.379588773311564 40.8224756198324 0.873926714522692 134.681592262337 0.873926714522693 134.681592262337 0.379566343262853 40.8168919616242 
! Gamma         0                0                0                0                
! Port Impedance         50               0                50               0                
21.7                           0.385172778070805 39.9127211094709 0.871633178219015 133.685350602584 0.871633178219016 133.685350602584 0.385149357139772 39.9079502329852 
! Gamma         0                0                0                0                
! Port Impedance         50               0                50               0                
21.8                           0.390608065162102 39.0054723580634 0.869366320391817 132.69415428109  0.869366320391818 132.69415428109  0.390583662983777 39.0014925965136 
! Gamma         0                0                0                0                
! Port Impedance         50               0                50               0                
21.9                           0.395895144688671 38.1008309433235 0.867128517535116 131.707926893486 0.867128517535117 131.707926893486 0.395869770291222 38.0976222611942 
! Gamma         0                0                0                0                
! Port Impedance         50               0                50               0                
22                             0.401034595450645 37.1988793059242 0.86492205643546 130.726587127934 0.864922056435461 130.726587127934 0.401008257302688 37.1964231729056 
! Gamma         0                0                0                0                
! Port Impedance         50               0                50               0                
22.1                           0.406027057666446 36.2996824615324 0.862749134729176 129.750049013935 0.862749134729176 129.750049013935 0.405999763719431 36.2979617394508 
! Gamma         0                0                0                0                
! Port Impedance         50               0                50               0                
22.2                           0.410873225959102 35.4032895335358 0.860611861694437 128.778222165315 0.860611861694437 128.778222165315 0.410844983685384 35.4022883747596 
! Gamma         0                0                0                0                
! Port Impedance         50               0                50               0                
22.3                           0.41557384261168 34.5097351296557 0.858512259253779 127.81101201689  0.858512259253779 127.81101201689  0.415544659038843 34.5094388856673 
! Gamma         0                0                0                0                
! Port Impedance         50               0                50               0                
22.4                           0.420129691094611 33.6190405821072 0.856452263163497 126.848320054378 0.856452263163497 126.848320054378 0.4200995728365  33.619435721098  
! Gamma         0                0                0                0                
! Port Impedance         50               0                50               0                
22.5                           0.424541589866188 32.7312150680294 0.854433724367255 125.890044037212 0.854433724367255 125.890044037212 0.424510543151084 32.7322891005316 
! Gamma         0                0                0                0                
! Port Impedance         50               0                50               0                
22.6                           0.428810386446242 31.8462566244788 0.852458410492218 124.93607821398  0.852458410492218 124.93607821398  0.428778417142525 31.8479980361685 
! Gamma         0                0                0                0                
! Port Impedance         50               0                50               0                
22.7                           0.43293695176171 30.9641530702358 0.850528007467027 123.986313530267 0.850528007467027 123.986313530267 0.432904065401323 30.966551261157  
! Gamma         0                0                0                0                
! Port Impedance         50               0                50               0                
22.8                           0.436922174761693 30.0848828449759 0.848644121241991 123.040637828755 0.84864412124199 123.040637828755 0.436888376561693 30.0879280745237 
! Gamma         0                0                0                0                
! Port Impedance         50               0                50               0                
22.9                           0.440766957298576 29.2084157749201 0.846808279592986 122.09893604148  0.846808279592986 122.09893604148  0.440732252181002 29.2120991120053 
! Gamma         0                0                0                0                
! Port Impedance         50               0                50               0                
23                             0.44447220927086 28.3347137728761 0.845021933991598 121.161090374193 0.845021933991597 121.161090374193 0.444436601881139 28.339027050763  
! Gamma         0                0                0                0                
! Port Impedance         50               0                50               0                
23.1                           0.448038844022571 27.4637314795595 0.84328646152517 120.22698048284  0.843286461525169 120.22698048284  0.448002338746649 27.4686672549288 
! Gamma         0                0                0                0                
! Port Impedance         50               0                50               0                
23.2                           0.451467773993423 26.5954168522194 0.841603166851492 119.296483642187 0.841603166851491 119.296483642187 0.451430374973784 26.6009683680617 
! Gamma         0                0                0                0                
! Port Impedance         50               0                50               0                
23.3                           0.454759906613335 25.7297117058597 0.839973284173915 118.369474906688 0.839973284173914 118.369474906688 0.454721617764059 25.7358728578504 
! Gamma         0                0                0                0                
! Port Impedance         50               0                50               0                
23.4                           0.457916140434441 24.8665522117155 0.838397979223721 117.4458272637   0.83839797922372 117.4458272637   0.45787696545543 24.8733175177641 
! Gamma         0                0                0                0                
! Port Impedance         50               0                50               0                
23.5                           0.460937361493347 24.005869357115  0.836878351237577 116.525411779208 0.836878351237576 116.525411779208 0.460897303883848 24.0132339298142 
! Gamma         0                0                0                0                
! Port Impedance         50               0                50               0                
23.6                           0.463824439896133 23.1475893703893 0.835415434918856 115.608097736217 0.835415434918856 115.608097736217 0.463783502967647 23.1555488921239 
! Gamma         0                0                0                0                
! Port Impedance         50               0                50               0                
23.7                           0.466578226618392 22.2916341141053 0.834010202372552 114.693752766035 0.834010202372551 114.693752766035 0.466536413507082 22.3001848146059 
! Gamma         0                0                0                0                
! Port Impedance         50               0                50               0                
23.8                           0.469199550512492 21.4379214495515 0.832663565004355 113.782242972651 0.832663565004355 113.78224297265  0.469156864191165 21.4470600857031 
! Gamma         0                0                0                0                
! Port Impedance         50               0                50               0                
23.9                           0.471689215514218 20.5863655751131 0.831376375375345 112.873433050458 0.831376375375344 112.873433050458 0.471645658803968 20.5960894128505 
! Gamma         0                0                0                0                
! Port Impedance         50               0                50               0                
24                             0.474047998040983 19.7368773409195 0.830149429004468 111.967186395589 0.830149429004467 111.967186395589 0.474003573622562 19.7471841390615 
! Gamma         0                0                0                0                
! Port Impedance         50               0                50               0                
24.1                           0.476276644573873 18.8893645419271 0.828983466111786 111.063365211112 0.828983466111784 111.063365211112 0.476231354998863 18.9002525378159 
! Gamma         0                0                0                0                
! Port Impedance         50               0                50               0                
24.2                           0.478375869415976 18.0437321914049 0.827879173296101 110.161830606409 0.8278791732961  110.161830606409 0.478329717117818 18.0552000882361 
! Gamma         0                0                0                0                
! Port Impedance         50               0                50               0                
24.3                           0.480346352619609 17.1998827766262 0.82683718514126 109.262442690994 0.826837185141259 109.262442690994 0.480299339924549 17.2119297323663 
! Gamma         0                0                0                0                
! Port Impedance         50               0                50               0                
24.4                           0.482188738075316 16.3577164984251 0.825858085746   108.365060663106 0.825858085745998 108.365060663106 0.482140867213326 16.3703421162257 
! Gamma         0                0                0                0                
! Port Impedance         50               0                50               0                
24.5                           0.4839036317558  15.5171314961438 0.824942410172776 107.469542893376 0.824942410172775 107.469542893376 0.483854904871519 15.5303358161766 
! Gamma         0                0                0                0                
! Port Impedance         50               0                50               0                
24.6                           0.485491600108254 14.6780240593933 0.82409064581152 106.57574700388  0.824090645811519 106.57574700388  0.485442019272   14.6918075520349 
! Gamma         0                0                0                0                
! Port Impedance         50               0                50               0                
24.7                           0.48695316858892 13.8402888279478 0.823303233654731 105.683529942914 0.823303233654729 105.683529942914 0.486902735807826 13.8546523882577 
! Gamma         0                0                0                0                
! Port Impedance         50               0                50               0                
24.8                           0.488288820334069 13.0038189810098 0.82258056948076 104.792748055817 0.822580569480759 104.792748055817 0.488237537563378 13.018763924452  
! Gamma         0                0                0                0                
! Port Impedance         50               0                50               0                
24.9                           0.489498994962002 12.1685064170117 0.821923004942533 103.903257152153 0.821923004942532 103.903257152153 0.489446864116572 12.1840344763779 
! Gamma         0                0                0                0                
! Port Impedance         50               0                50               0                
25                             0.490584087501086 11.3342419250544 0.821330848559308 103.014912569614 0.821330848559307 103.014912569614 0.490531110467149 11.350355248555  
! Gamma         0                0                0                0                
! Port Impedance         50               0                50               0                
25.1                           0.491544447439281 10.5009153490272 0.820804366609426 102.127569234957 0.820804366609424 102.127569234957 0.491490626086498 10.5176164995249 
! Gamma         0                0                0                0                
! Port Impedance         50               0                50               0                
25.2                           0.492380377891062 9.66841574540974 0.820343783922299 101.24108172231  0.820343783922297 101.24108172231  0.492325714084913 9.68570770077498 
! Gamma         0                0                0                0                
! Port Impedance         50               0                50               0                
25.3                           0.493092134878104 8.83663153571385 0.819949284568163 100.355304309206 0.819949284568162 100.355304309206 0.493036630492659 8.85451769028998 
! Gamma         0                0                0                0                
! Port Impedance         50               0                50               0                
25.4                           0.493679926720569 8.00545065449096 0.81962101244439 99.4700910306487 0.819621012444389 99.4700910306487 0.493623583651689 8.02393482166289 
! Gamma         0                0                0                0                
! Port Impedance         50               0                50               0                
25.5                           0.494143913536333 7.17476069380387 0.819359071757382 98.5852957315821 0.819359071757381 98.5852957315821 0.494086733715334 7.19384710966982 
! Gamma         0                0                0                0                
! Port Impedance         50               0                50               0                
25.6                           0.494484206845962 6.34444904503992 0.819163527399312 97.7007721180724 0.819163527399311 97.7007721180725 0.494426192253801 6.36414237319255 
! Gamma         0                0                0                0                
! Port Impedance         50               0                50               0                
25.7                           0.494700869281756 5.51440303892589 0.819034405219165 96.8163738075611 0.819034405219164 96.8163738075612 0.494642021963769 5.53470837635527 
! Gamma         0                0                0                0                
! Port Impedance         50               0                50               0                
25.8                           0.494793914399676 4.68451008459481 0.818971692187756 95.9319543785169 0.818971692187755 95.931954378517  0.494734236480931 4.70543296873186 
! Gamma         0                0                0                0                
! Port Impedance         50               0                50               0                
25.9                           0.494763306593473 3.85465780854863 0.818975336456577 95.0473674198271 0.818975336456576 95.0473674198272 0.494702800294786 3.87620422547381 
! Gamma         0                0                0                0                
! Port Impedance         50               0                50               0                
26                             0.494608961110855 3.02473419435885 0.819045247310526 94.1624665802683 0.819045247310525 94.1624665802683 0.494547628765506 3.04691058820807 
! Gamma         0                0                0                0                
! Port Impedance         50               0                50               0                
26.1                           0.494330744172021 2.19462772395265 0.819181295014768 93.2771056183918 0.819181295014767 93.2771056183919 0.494268588243245 2.21744100755792 
! Gamma         0                0                0                0                
! Port Impedance         50               0                50               0                
26.2                           0.493928473191406 1.36422752133847 0.819383310556126 92.3911384531647 0.819383310556125 92.3911384531648 0.493865496290703 1.38768508814951 
! Gamma         0                0                0                0                
! Port Impedance         50               0                50               0                
26.3                           0.493401917103999 0.533423499640557 0.819651085279677 91.5044192157013 0.819651085279677 91.5044192157014 0.493338122010329 0.557533236978994 
! Gamma         0                0                0                0                
! Port Impedance         50               0                50               0                
26.4                           0.492750796798086 -0.297893487670171 0.819984370421332 90.6168023024269 0.819984370421331 90.616802302427  0.492686186478005 -0.273123183962528 
! Gamma         0                0                0                0                
! Port Impedance         50               0                50               0                
26.5                           0.491974785656785 -1.1298314904377 0.820382876537474 89.7281424300068 0.820382876537474 89.7281424300069 0.491909363285599 -1.10439169988859 
! Gamma         0                0                0                0                
! Port Impedance         50               0                50               0                
26.6                           0.491073510211222 -1.96249729943306 0.820846272832925 88.8382946923825 0.820846272832925 88.8382946923826 0.491007279195223 -1.93637855928885 
! Gamma         0                0                0                0                
! Port Impedance         50               0                50               0                
26.7                           0.490046550908721 -2.79599627694028 0.821374186388736 87.9471146202478 0.821374186388736 87.9471146202479 0.489979514908589 -2.76918856288787 
! Gamma         0                0                0                0                
! Port Impedance         50               0                50               0                
26.8                           0.488893442999836 -3.63043217929685 0.821966201291608 87.0544582433025 0.821966201291608 87.0544582433027 0.488825605955269 -3.60292488446006 
! Gamma         0                0                0                0                
! Port Impedance         50               0                50               0                
26.9                           0.487613677548534 -4.46590697031979 0.822621857666997 86.1601821556192 0.822621857666997 86.1601821556194 0.487545043704222 -4.43768888242088 
! Gamma         0                0                0                0                
! Port Impedance         50               0                50               0                
27                             0.486206702570329 -5.30252062449118 0.82334065061828 85.2641435844534 0.82334065061828 85.2641435844535 0.486137276503336 -5.27357990105719 
! Gamma         0                0                0                0                
! Port Impedance         50               0                50               0                
27.1                           0.484671924303587 -6.14037091871351 0.824122029074716 84.3662004628303 0.824122029074716 84.3662004628305 0.484601710952256 -6.1106950601908 
! Gamma         0                0                0                0                
! Port Impedance         50               0                50               0                
27.2                           0.483008708619675 -6.97955321136707 0.824965394551279 83.4662115062358 0.824965394551279 83.4662115062359 0.482937713314169 -6.94912903199517 
! Gamma         0                0                0                0                
! Port Impedance         50               0                50               0                
27.3                           0.481216382578058 -7.82016020731784 0.825870099823862 82.5640362937348 0.825870099823863 82.5640362937349 0.481144611072626 -7.78897380359632 
! Gamma         0                0                0                0                
! Port Impedance         50               0                50               0                
27.4                           0.479294236132803 -8.66228170742864 0.826835447523792 81.6595353538392 0.826835447523793 81.6595353538393 0.479221694639926 -8.63031842399206 
! Gamma         0                0                0                0                
! Port Impedance         50               0                50               0                
27.5                           0.477241523997373 -9.50600434101103 0.827860688656056 80.7525702554387 0.827860688656057 80.7525702554388 0.477168219223914 -9.47324873370756 
! Gamma         0                0                0                0                
! Port Impedance         50               0                50               0                
27.6                           0.475057467674904 -10.3514112795332 0.828945021046178 79.8430037041025 0.828945021046178 79.8430037041026 0.4749834068604  -10.3178470754803 
! Gamma         0                0                0                0                
! Port Impedance         50               0                50               0                
27.7                           0.472741257661474 -11.1985819297546 0.830087587721222 78.930699644052  0.830087587721223 78.9306996440521 0.472666448618736 -11.1641919841195 
! Gamma         0                0                0                0                
! Port Impedance         50               0                50               0                
27.8                           0.470292055830142 -12.047591604293 0.831287475231025 78.0155233660958 0.831287475231027 78.0155233660959 0.470216506988351 -12.0123578535189 
! Gamma         0                0                0                0                
! Port Impedance         50               0                50               0                
27.9                           0.467708998003792 -12.8985111674464 0.832543711916381 77.0973416218036 0.832543711916383 77.0973416218036 0.467632718454255 -12.862414578613 
! Gamma         0                0                0                0                
! Port Impedance         50               0                50               0                
28                             0.464991196724951 -13.7514066538744 0.833855266131605 76.1760227441867 0.833855266131606 76.1760227441867 0.464914196269754 -13.7144271698476 
! Gamma         0                0                0                0                
! Port Impedance         50               0                50               0                
28.1                           0.462137744230954 -14.606338857506 0.835221044429648 75.2514367751348 0.83522104442965 75.2514367751349 0.46206003343472 -14.5684553374928 
! Gamma         0                0                0                0                
! Port Impedance         50               0                50               0                
28.2                           0.459147715642794 -15.4633628877569 0.836639889718701 74.3234555998414 0.836639889718703 74.3234555998415 0.459069305887811 -15.4245530428353 
! Gamma         0                0                0                0                
! Port Impedance         50               0                50               0                
28.3                           0.456020172376135 -16.3225276898217 0.838110579400054 73.3919530884287 0.838110579400056 73.3919530884287 0.455941075921132 -16.2827680129672 
! Gamma         0                0                0                0                
! Port Impedance         50               0                50               0                
28.4                           0.452754165782788 -17.1838755254349 0.839631823497849 72.456805244963  0.839631823497851 72.4568052449631 0.452674395825667 -17.1431412155093 
! Gamma         0                0                0                0                
! Port Impedance         50               0                50               0                
28.5                           0.449348741030891 -18.0474414100707 0.841202262792287 71.5178903640211 0.841202262792289 71.5178903640212 0.449268311775754 -18.0057062891755 
! Gamma         0                0                0                0                
! Port Impedance         50               0                50               0                
28.6                           0.445802941231744 -18.9132525020591 0.842820466968752 70.5750891949418 0.842820466968754 70.5750891949419 0.445721867960625 -18.8704889255789 
! Gamma         0                0                0                0                
! Port Impedance         50               0                50               0                
28.7                           0.442115811821053 -19.7813274385242 0.844484932796352 69.6282851138615 0.844484932796353 69.6282851138616 0.442034110970733 -19.7375061971097 
! Gamma         0                0                0                0                
! Port Impedance         50               0                50               0                
28.8                           0.438286405201788 -20.6516756123844 0.846194082350317 68.6773643035981 0.846194082350319 68.6773643035982 0.438204094446229 -20.6067658250268 
! Gamma         0                0                0                0                
! Port Impedance         50               0                50               0                
28.9                           0.434313785655511 -21.5242963838865 0.847946261293795 67.7222159414048 0.847946261293797 67.7222159414049 0.434230883994401 -21.4782653811268 
! Gamma         0                0                0                0                
! Port Impedance         50               0                50               0                
29                             0.430197034528334 -22.3991782192378 0.849739737235543 66.7627323945719 0.849739737235545 66.7627323945719 0.430113562382368 -22.3519914154347 
! Gamma         0                0                0                0                
! Port Impedance         50               0                50               0                
29.1                           0.425935255697013 -23.2762977478404 0.851572698181125 65.7988094238049 0.851572698181127 65.7988094238049 0.425851235010612 -23.2279185012754 
! Gamma         0                0                0                0                
! Port Impedance         50               0                50               0                
29.2                           0.421527581319919 -24.1556187283917 0.853443251096222 64.8303463942549 0.853443251096224 64.830346394255  0.421443035672112 -24.1060081878296 
! Gamma         0                0                0                0                
! Port Impedance         50               0                50               0                
29.3                           0.416973177876634 -25.0370909126448 0.855349420601707 63.8572464940174 0.855349420601709 63.8572464940174 0.416888132601041 -24.9862078487798 
! Gamma         0                0                0                0                
! Port Impedance         50               0                50               0                
29.4                           0.412271252499066 -25.9206487938949 0.85728914782109 62.8794169598541 0.857289147821092 62.8794169598541 0.412185734813939 -25.8684494138939 
! Gamma         0                0                0                0                
! Port Impedance         50               0                50               0                
29.5                           0.407421059595807 -26.8062102252021 0.859260289401916 61.8967693098261 0.859260289401918 61.8967693098261 0.407335098745285 -26.7526479683047 
! Gamma         0                0                0                0                
! Port Impedance         50               0                50               0                
29.6                           0.402421907770393 -27.6936748899232 0.861260616733558 60.909219582453  0.861260616733561 60.909219582453  0.402335535178295 -27.6387002017658 
! Gamma         0                0                0                0                
! Port Impedance         50               0                50               0                
29.7                           0.397273167032886 -28.5829226042135 0.863287815384637 59.9166885819369 0.863287815384639 59.9166885819369 0.397186416470522 -28.5264826871994 
! Gamma         0                0                0                0                
! Port Impedance         50               0                50               0                
29.8                           0.391974276303079 -29.4738114276872 0.865339484783997 58.9191021289103 0.865339484783999 58.9191021289103 0.391887184072842 -29.415849964329 
! Gamma         0                0                0                0                
! Port Impedance         50               0                50               0                
29.9                           0.386524751202412 -30.3661755542407 0.867413138169759 57.916391316082  0.867413138169761 57.916391316082  0.386437356339119 -30.3066323999263 
! Gamma         0                0                0                0                
! Port Impedance         50               0                50               0                
30                             0.380924192130571 -31.2598229500248 0.869506202831353 56.9084927680636 0.869506202831355 56.9084927680636 0.380836536622921 -31.1986337911053 
! Gamma         0                0                0                0                
! Port Impedance         50               0                50               0                
30.1                           0.375172292621847 -32.1545326994725 0.871616020669749 55.8953489045736 0.871616020669751 55.8953489045736 0.375084421656662 -32.0916286719194 
! Gamma         0                0                0                0                
! Port Impedance         50               0                50               0                
30.2                           0.369268847975574 -33.0500520129176 0.873739849101101 54.8769082061136 0.873739849101102 54.8769082061136 0.369180810207994 -32.9853592760207 
! Gamma         0                0                0                0                
! Port Impedance         50               0                50               0                
30.3                           0.363213764154494 -33.9460928403821 0.875874862328933 53.8531254811195 0.875874862328934 53.8531254811195 0.363125612007832 -33.8795320990308 
! Gamma         0                0                0                0                
! Port Impedance         50               0                50               0                
30.4                           0.357007066945065 -34.842328025122 0.87801815300955 52.8239621334901 0.878018153009551 52.8239621334901 0.356918856944644 -34.7738139931257 
! Gamma         0                0                0                0                
! Port Impedance         50               0                50               0                
30.5                           0.350648911374375 -35.7383869170749 0.880166734334708 51.7893864292957 0.880166734334709 51.7893864292957 0.350560704520501 -35.6678277126466 
! Gamma         0                0                0                0                
! Port Impedance         50               0                50               0                
30.6                           0.344139591379795 -36.6338503497512 0.882317542554622 50.7493737613708 0.882317542554623 50.7493737613707 0.344051453565886 -36.5611468126978 
! Gamma         0                0                0                0                
! Port Impedance         50               0                50               0                
30.7                           0.337479549730391 -37.5282448635311 0.884467439963109 49.7039069103972 0.88446743996311 49.7039069103972 0.337391552213506 -37.4532897817788 
! Gamma         0                0                0                0                
! Port Impedance         50               0                50               0                
30.8                           0.330669388203018 -38.4210360327398 0.886613218365049 48.6529763009896 0.886613218365051 48.6529763009896 0.330581608135385 -38.3437132634977 
! Gamma         0                0                0                0                
! Port Impedance         50               0                50               0                
30.9                           0.323709878022441 -39.3116207218386 0.888751603044387 47.5965802512015 0.888751603044388 47.5965802512015 0.32362239905427 -39.2318041898678 
! Gamma         0                0                0                0                
! Port Impedance         50               0                50               0                
31                             0.316601970583335 -40.199318055762 0.890879257248536 46.534725213787  0.890879257248537 46.5347252137869 0.316514883549312 -40.1168706077558 
! Gamma         0                0                0                0                
! Port Impedance         50               0                50               0                
31.1                           0.309346808484051 -41.0833588384398 0.892992787202341 45.4674260074722 0.892992787202343 45.4674260074721 0.309260212188598 -40.9981309282522 
! Gamma         0                0                0                0                
! Port Impedance         50               0                50               0                
31.2                           0.301945736918636 -41.9628730886496 0.895088747661624 44.3947060364198 0.895088747661625 44.3947060364197 0.301859739038025 -41.8747012628382 
! Gamma         0                0                0                0                
! Port Impedance         50               0                50               0                
31.3                           0.294400315495522 -42.8368752791734 0.897163648012817 43.3165974960097 0.897163648012818 43.3165974960096 0.294315033619234 -42.7455804257816 
! Gamma         0                0                0                0                
! Port Impedance         50               0                50               0                
31.4                           0.286712330581122 -43.7042467580633 0.899213958921308 42.2331415630083 0.899213958921308 42.2331415630082 0.286627893419768 -43.6096320733588 
! Gamma         0                0                0                0                
! Port Impedance         50               0                50               0                
31.5                           0.278883808306684 -44.5637146915047 0.901236119526827 41.1443885681652 0.901236119526827 41.1443885681651 0.278800357100247 -44.4655633091387 
! Gamma         0                0                0                0                
! Port Impedance         50               0                50               0                
31.6                           0.270917028429678 -45.4138266856109 0.903226545179554 40.0503981492527 0.903226545179555 40.0503981492527 0.270834718598076 -45.3118988996445 
! Gamma         0                0                0                0                
! Port Impedance         50               0                50               0                
31.7                           0.262814539313035 -46.252920004116 0.905181635705688 38.9512393825621 0.905181635705689 38.951239382562  0.262733542401612 -46.1469500008525 
! Gamma         0                0                0                0                
! Port Impedance         50               0                50               0                
31.8                           0.254579174381962 -47.0790839792764 0.907097784185901 37.8469908908827 0.907097784185902 37.8469908908827 0.254499680367966 -46.9687759716887 
! Gamma         0                0                0                0                
! Port Impedance         50               0                50               0                
31.9                           0.246214070548902 -47.8901137843246 0.908971386224632 36.737740926026  0.908971386224632 36.737740926026  0.246136290593014 -47.7751374156664 
! Gamma         0                0                0                0                
! Port Impedance         50               0                50               0                
32                             0.237722689275929 -48.6834531546245 0.910798849682402 35.6235874240104 0.910798849682402 35.6235874240104 0.237646859026189 -48.5634380025273 
! Gamma         0                0                0                0                
! Port Impedance         50               0                50               0                
32.1                           0.229108841189944 -49.4561228493595 0.912576604837505 34.5046380310996 0.912576604837505 34.5046380310995 0.229035224776467 -49.3306518157164 
! Gamma         0                0                0                0                
! Port Impedance         50               0                50               0                
32.2                           0.220376715508033 -50.2046305455606 0.914301114937484 33.3810100989899 0.914301114937484 33.3810100989899 0.220305610408714 -50.0732318570812 
! Gamma         0                0                0                0                
! Port Impedance         50               0                50               0                
32.3                           0.211530916011676 -50.9248563172314 0.915968887094886 32.2528306475635 0.915968887094886 32.2528306475635 0.211462659025334 -50.7869937816614 
! Gamma         0                0                0                0                
! Port Impedance         50               0                50               0                
32.4                           0.202576505993888 -51.6119056730139 0.917576483475961 31.1202362937717 0.91757648347596 31.1202362937717 0.202511480634465 -51.4669667299222 
! Gamma         0                0                0                0                
! Port Impedance         50               0                50               0                
32.5                           0.193519065592032 -52.2599189996093 0.919120532725342 29.9833731453874 0.919120532725341 29.9833731453873 0.193457711324342 -52.107199962685 
! Gamma         0                0                0                0                
! Port Impedance         50               0                50               0                
32.6                           0.184364766368485 -52.8618217114748 0.920597741564375 28.8423966585552 0.920597741564375 28.8423966585552 0.184307590255657 -52.7005094090069 
! Gamma         0                0                0                0                
! Port Impedance         50               0                50               0                
32.7                           0.175120470158219 -53.4089926972873 0.922004906495794 27.6974714582904 0.922004906495794 27.6974714582903 0.175068061703035 -53.2381414617981 
! Gamma         0                0                0                0                
! Port Impedance         50               0                50               0                
32.8                           0.16579386246995 -53.8908185958347 0.923338925542944 26.5487711213091 0.923338925542944 26.548771121309  0.165746912737551 -53.7093212111018 
! Gamma         0                0                0                0                
! Port Impedance         50               0                50               0                
32.9                           0.156393635771474 -54.2940861072655 0.924596809947818 25.3964779208358 0.924596809947817 25.3964779208357 0.156352962324991 -54.1006368665225 
! Gamma         0                0                0                0                
! Port Impedance         50               0                50               0                
33                             0.146929745934214 -54.602140782916 0.925775695748951 24.2407825333039 0.925775695748951 24.2407825333039 0.146896325771362 -54.3951882227701 
! Gamma         0                0                0                0                
! Port Impedance         50               0                50               0                
33.1                           0.137413777902533 -54.7937032251389 0.926872855157698 23.0818837071544 0.926872855157698 23.0818837071544 0.137388791563312 -54.571389375795 
! Gamma         0                0                0                0                
! Port Impedance         50               0                50               0                
33.2                           0.127859477734412 -54.841173318321 0.927885707649778 21.9199878942382 0.927885707649777 21.9199878942382 0.127844369238382 -54.6012555276659 
! Gamma         0                0                0                0                
! Port Impedance         50               0                50               0                
33.3                           0.118283543788011 -54.7081543929908 0.928811830688251 20.7553088446357 0.928811830688251 20.7553088446357 0.118280103335262 -54.4479052407793 
! Gamma         0                0                0                0                
! Port Impedance         50               0                50               0                
33.4                           0.108706831656441 -54.3457650084768 0.929648969994299 19.5880671660174 0.929648969994298 19.5880671660174 0.108717311517709 -54.0618464420793 
! Gamma         0                0                0                0                
! Port Impedance         50               0                50               0                
33.5                           0.0991562377190667 -53.6870297177611 0.93039504928343 18.4184898489829 0.93039504928343 18.418489848983  0.0991835170415784 -53.3753418855606 
! Gamma         0                0                0                0                
! Port Impedance         50               0                50               0                
33.6                           0.089667728174819 -52.6381748987853 0.931048179387005 17.2468097601248 0.931048179387004 17.2468097601248 0.0897155501584903 -52.2936952602407 
! Gamma         0                0                0                0                
! Port Impedance         50               0                50               0                
33.7                           0.0802913592296114 -51.0648914867027 0.931606666682306 16.073265104861  0.931606666682305 16.0732651048611 0.080364674054685 -50.6815647333158 
! Gamma         0                0                0                0                
! Port Impedance         50               0                50               0                
33.8                           0.0710998539925754 -48.7704839582913 0.932069020758701 14.8980988623708 0.932069020758701 14.8980988623708 0.0712053083243345 -48.3413497624046 
! Gamma         0                0                0                0                
! Port Impedance         50               0                50               0                
33.9                           0.0622036513860522 -45.4616547523162 0.932433961252833 13.7215581952378 0.932433961252832 13.7215581952378 0.0623502477463823 -44.97974496088  
! Gamma         0                0                0                0                
! Port Impedance         50               0                50               0                
34                             0.0537776547847611 -40.6990858362729 0.932700423792019 12.5438938366541 0.932700423792018 12.5438938366541 0.0539774758026513 -40.1605123735714 
! Gamma         0                0                0                0                
! Port Impedance         50               0                50               0                
34.1                           0.0461075316610014 -33.8458897618247 0.932867564992272 11.3653594582648 0.932867564992272 11.3653594582649 0.0463759073661642 -33.2584914154976 
! Gamma         0                0                0                0                
! Port Impedance         50               0                50               0                
34.2                           0.039659127383144 -24.0978034005106 0.932934766465258 10.18621102193   0.932934766465257 10.18621102193   0.0400120858546601 -23.5006857656448 
! Gamma         0                0                0                0                
! Port Impedance         50               0                50               0                
34.3                           0.0351319872268714 -10.8669359018661 0.932901637797181 9.00670611884364 0.932901637797181 9.0067061188437  0.0355764664008987 -10.356154784218 
! Gamma         0                0                0                0                
! Port Impedance         50               0                50               0                
34.4                           0.0333312140714927 5.180054599227   0.93276801847177 7.82710329958436 0.932768018471769 7.82710329958442 0.0338483272333926 5.47182810024248 
! Gamma         0                0                0                0                
! Port Impedance         50               0                50               0                
34.5                           0.0346880008433852 21.4535907211506 0.932533978719155 6.647661398762   0.932533978719155 6.64766139876206 0.0352321825656231 21.4702553792191 
! Gamma         0                0                0                0                
! Port Impedance         50               0                50               0                
34.6                           0.0388693390282245 35.1740321393691 0.932199819282341 5.46863885798526 0.93219981928234 5.46863885798532 0.0393977057956434 34.9862810293073 
! Gamma         0                0                0                0                
! Port Impedance         50               0                50               0                
34.7                           0.0450867801870757 45.4000715943517 0.931766070102992 4.29029305088993 0.931766070102991 4.29029305089    0.0455792292293877 45.111049079888  
! Gamma         0                0                0                0                
! Port Impedance         50               0                50               0                
34.8                           0.0526100768554117 52.6175965191159 0.931233487938281 3.11287961394645 0.93123348793828 3.11287961394651 0.0530636340969488 52.2957785035539 
! Gamma         0                0                0                0                
! Port Impedance         50               0                50               0                
34.9                           0.0609415268803793 57.6370463116376 0.930603052930353 1.93665178670535 0.930603052930353 1.93665178670542 0.0613600949617269 57.3160294377301 
! Gamma         0                0                0                0                
! Port Impedance         50               0                50               0                
35                             0.069774387335798 61.1251928660206 0.929875964159515 0.761859765039117 0.929875964159514 0.761859765039188 0.0701633579890427 60.818915176994  
! Gamma         0                0                0                0                
! Port Impedance         50               0                50               0                
35.1                           0.0789213617306537 63.546863246771  0.929053634221238 -0.411249929194746 0.929053634221237 -0.411249929194677 0.0792857282707037 63.2600072759181 
! Gamma         0                0                0                0                
! Port Impedance         50               0                50               0                
35.2                           0.0882648623472156 65.2128566271149 0.928137682875592 -1.58243505881415 0.928137682875592 -1.58243505881408 0.0886087726146229 64.946070976671  
! Gamma         0                0                0                0                
! Port Impedance         50               0                50               0                
35.3                           0.0977279819586838 66.3312279426711 0.927129929825395 -2.75145825924121 0.927129929825396 -2.75145825924114 0.0980547608708938 66.0835203554733 
! Gamma         0                0                0                0                
! Port Impedance         50               0                50               0                
35.4                           0.107258155944696 67.0436190512007 0.926032386686317 -3.91808760087203 0.926032386686317 -3.91808760087197 0.107570445155123 66.8134199755542 
! Gamma         0                0                0                0                
! Port Impedance         50               0                50               0                
35.5                           0.116817878976682 67.4485984378507 0.924847248218192 -5.08209712331341 0.924847248218192 -5.08209712331335 0.117117781874144 67.2342234004154 
! Gamma         0                0                0                0                
! Port Impedance         50               0                50               0                
35.6                           0.126379293742538 67.6163384952728 0.923576882891838 -6.2432673391847 0.923576882891838 -6.24326733918464 0.126668496713512 67.4161801783587 
! Gamma         0                0                0                0                
! Port Impedance         50               0                50               0                
35.7                           0.13592093989472 67.5978978406064 0.922223822869713 -7.40138570547301 0.922223822869714 -7.40138570547296 0.136200806873354 67.4104967325554 
! Gamma         0                0                0                0                
! Port Impedance         50               0                50               0                
35.8                           0.145425740597735 67.4311869963006 0.920790753481756 -8.55624706073028 0.920790753481757 -8.55624706073022 0.145697384980346 67.255248123121  
! Gamma         0                0                0                0                
! Port Impedance         50               0                50               0                
35.9                           0.154879719175265 67.1448794369438 0.91928050227968 -9.7076540267115 0.919280502279681 -9.70765402671145 0.155144058173658 66.9792660970061 
! Gamma         0                0                0                0                
! Port Impedance         50               0                50               0                
36                             0.164271159104895 66.7610293115717 0.917696027753932 -10.8554173733637 0.917696027753933 -10.8554173733637 0.164528954917285 66.6047480262852 
! Gamma         0                0                0                0                
! Port Impedance         50               0                50               0                
36.1                           0.173590040666736 66.2968593672642 0.916040407797418 -11.999356346389 0.916040407797419 -11.9993563463889 0.173841931860794 66.1490425081473 
! Gamma         0                0                0                0                
! Port Impedance         50               0                50               0                
36.2                           0.182827654607646 65.7660057999791 0.914316827999078 -13.1392989569101 0.914316827999079 -13.1392989569101 0.183074180240678 65.6258947152418 
! Gamma         0                0                0                0                
! Port Impedance         50               0                50               0                
36.3                           0.191976331672573 65.1794006892852 0.912528569848415 -14.2750822330678 0.912528569848416 -14.2750822330677 0.192217949998085 65.0463304429517 
! Gamma         0                0                0                0                
! Port Impedance         50               0                50               0                
36.4                           0.201029249543435 64.5459080323506 0.910678998929367 -15.4065524336632 0.910678998929367 -15.4065524336632 0.201266352654352 64.419294074955  
! Gamma         0                0                0                0                
! Port Impedance         50               0                50               0                
36.5                           0.209980292445179 63.8727892917743 0.908771553178361 -16.5335652242355 0.908771553178362 -16.5335652242354 0.210213217841147 63.7521160274065 
! Gamma         0                0                0                0                
! Port Impedance         50               0                50               0                
36.6                           0.21882394717029 63.1660490351339 0.90680973127729 -17.6559858162133 0.90680973127729 -17.6559858162133 0.219052986976243 63.0508601060766 
! Gamma         0                0                0                0                
! Port Impedance         50               0                50               0                
36.7                           0.227555224648728 62.4306949438202 0.904797081247401 -18.7736890700219 0.904797081247402 -18.7736890700219 0.227780633023692 62.3205850102247 
! Gamma         0                0                0                0                
! Port Impedance         50               0                50               0                
36.8                           0.236169599662121 61.6709357977372 0.90273718930499 -19.8865595632352 0.902737189304991 -19.8865595632352 0.236391598801095 61.5655435913221 
! Gamma         0                0                0                0                
! Port Impedance         50               0                50               0                
36.9                           0.244662963587129 60.8903339397396 0.900633669034238 -20.9944916250588 0.900633669034238 -20.9944916250588 0.244881748619871 60.7893363907659 
! Gamma         0                0                0                0                
! Port Impedance         50               0                50               0                
37                             0.253031586584079 60.0919239214191 0.898490150926807 -22.0973893385974 0.898490150926808 -22.0973893385974 0.253247329601875 59.9950311845101 
! Gamma         0                0                0                0                
! Port Impedance         50               0                50               0                
37.1                           0.26127208669033 59.2783057365038 0.896310272331897 -23.1951665125032 0.896310272331897 -23.1951665125033 0.261484940077844 59.1852569673662 
! Gamma         0                0                0                0                
! Port Impedance         50               0                50               0                
37.2                           0.269381403997843 58.4517187554473 0.894097667854442 -24.2877466237267 0.894097667854443 -24.2877466237268 0.269591503207069 58.362278514663  
! Gamma         0                0                0                0                
! Port Impedance         50               0                50               0                
37.3                           0.27735677860003 57.6141008585132 0.891855960233223 -25.3750627331848 0.891855960233224 -25.3750627331848 0.277564244473112 57.5280560395306 
! Gamma         0                0                0                0                
! Port Impedance         50               0                50               0                
37.4                           0.285195731350871 56.7671361113767 0.889588751724722 -26.4570573762395 0.889588751724722 -26.4570573762396 0.285400672075767 56.6842933075346 
! Gamma         0                0                0                0                
! Port Impedance         50               0                50               0                
37.5                           0.2928960467363  55.9122934948736 0.887299616012894 -27.533682429932 0.887299616012895 -27.5336824299321 0.293098559501488 55.8324767350651 
! Gamma         0                0                0                0                
! Port Impedance         50               0                50               0                
37.6                           0.300455757344513 55.0508585930151 0.884992090659495 -28.6048989589467 0.884992090659496 -28.6048989589467 0.300655929745656 54.9739073877613 
! Gamma         0                0                0                0                
! Port Impedance         50               0                50               0                
37.7                           0.307873129557366 54.1839596957425 0.882669670104395 -29.6706770422949 0.882669670104396 -29.670677042295 0.308071040798504 54.1097273454551 
! Gamma         0                0                0                0                
! Port Impedance         50               0                50               0                
37.8                           0.315146650186066 53.3125894396773 0.880335799220388 -30.7309955827016 0.880335799220388 -30.7309955827017 0.315342372109254 53.2409415651194 
! Gamma         0                0                0                0                
! Port Impedance         50               0                50               0                
37.9                           0.322275013848084 52.4376228599622 0.877993867422453 -31.7858421006527 0.877993867422453 -31.7858421006528 0.322468611819591 52.3684361216019 
! Gamma         0                0                0                0                
! Port Impedance         50               0                50               0                
38                             0.329257110937709 51.5598325368323 0.875647203327217 -32.8352125150285 0.875647203327217 -32.8352125150286 0.329448644613239 51.4929935153439 
! Gamma         0                0                0                0                
! Port Impedance         50               0                50               0                
38.1                           0.336092016084061 50.6799013759178 0.873299069954558 -33.8791109121926 0.873299069954558 -33.8791109121927 0.336281540071819 50.6153055905949 
! Gamma         0                0                0                0                
! Port Impedance         50               0                50               0                
38.2                           0.342778977020713 49.7984334500725 0.870952660459886 -34.9175493053479 0.870952660459886 -34.917549305348 0.342966541457647 49.7359844956602 
! Gamma         0                0                0                0                
! Port Impedance         50               0                50               0                
38.3                           0.349317403814696 48.9159632443137 0.868611094382611 -35.9505473858967 0.868611094382611 -35.9505473858968 0.349503054868675 48.8555720298465 
! Gamma         0                0                0                0                
! Port Impedance         50               0                50               0                
38.4                           0.355706858418826 48.0329635782948 0.8662774143937  -36.9781322684621 0.8662774143937  -36.9781322684622 0.355890638727469 47.9745476540776 
! Gamma         0                0                0                0                
! Port Impedance         50               0                50               0                
38.5                           0.361947044524583 47.1498524279504 0.863954583522976 -38.0003382311427 0.863954583522976 -38.0003382311428 0.362128993579688 47.0933353889279 
! Gamma         0                0                0                0                
! Port Impedance         50               0                50               0                
38.6                           0.368037797701474 46.2669988262821 0.861645482844967 -39.0172064524795 0.861645482844967 -39.0172064524796 0.368217952186499 46.2123097818395 
! Gamma         0                0                0                0                
! Port Impedance         50               0                50               0                
38.7                           0.373979075815225 45.3847279902423 0.85935290960059 -40.0287847465165 0.85935290960059 -40.0287847465166 0.374157469902232 45.3318010918928 
! Gamma         0                0                0                0                
! Port Impedance         50               0                50               0                
38.8                           0.379770949721959 44.5033257941332 0.857079575730792 -41.0351272972433 0.857079575730792 -41.0351272972435 0.379947615333394 44.4520998138474 
! Gamma         0                0                0                0                
! Port Impedance         50               0                50               0                
38.9                           0.385413594238246 43.6230426888442 0.85482810679741 -42.0362943936047 0.85482810679741 -42.0362943936049 0.385588561278137 43.573460641759  
! Gamma         0                0                0                0                
! Port Impedance         50               0                50               0                
39                             0.390907279388734 42.7440971490467 0.852601041265931 -43.032352166163 0.852601041265931 -43.0323521661631 0.391080575947255 42.6961059552003 
! Gamma         0                0                0                0                
! Port Impedance         50               0                50               0                
39.1                           0.396252361934167 41.8666787166731 0.850400830124547 -44.023372326403 0.850400830124546 -44.0233723264031 0.396424014468955 41.8202288971273 
! Gamma         0                0                0                0                
! Port Impedance         50               0                50               0                
39.2                           0.40144927718285 40.9909506976392 0.848229836813797 -45.0094319095708 0.848229836813797 -45.0094319095709 0.40161931067993 40.9459961009959 
! Gamma         0                0                0                0                
! Port Impedance         50               0                50               0                
39.3                           0.406498531088331 40.1170525596054 0.846090337441273 -45.9906130218411 0.846090337441272 -45.9906130218413 0.406666969205156 40.0735501154482 
! Gamma         0                0                0                0                
! Port Impedance         50               0                50               0                
39.4                           0.411400692635758 39.2451020709633 0.843984521256142 -46.9670025925205 0.843984521256141 -46.9670025925207 0.4115675578286  39.2030115671914 
! Gamma         0                0                0                0                
! Port Impedance         50               0                50               0                
39.5                           0.416156386518545 38.3751972149642 0.841914491358786 -47.938692131901 0.841914491358785 -47.9386921319012 0.416321700156061 38.3344810964174 
! Gamma         0                0                0                0                
! Port Impedance         50               0                50               0                
39.6                           0.420766286106113 37.5074179077923 0.839882265621444 -48.9057774952962 0.839882265621443 -48.9057774952964 0.420930068570725 37.4680410938516 
! Gamma         0                0                0                0                
! Port Impedance         50               0                50               0                
39.7                           0.42523110670259 36.6418275450478 0.837889777796506 -49.8683586537129 0.837889777796505 -49.8683586537131 0.425393377481128 36.6037572642146 
! Gamma         0                0                0                0                
! Port Impedance         50               0                50               0                
39.8                           0.429551599095193 35.778474397551  0.835938878789955 -50.8265394715319 0.835938878789954 -50.8265394715321 0.429712376860112 35.741680037233  
! Gamma         0                0                0                0                
! Port Impedance         50               0                50               0                
39.9                           0.433728543390305 34.9173928743946 0.83403133807836 -51.7804274915025 0.834031338078359 -51.7804274915026 0.433887846072481 34.8818458443725 
! Gamma         0                0                0                0                
! Port Impedance         50               0                50               0                
40                             0.437762743134111 34.0586046686536 0.832168845248791 -52.7301337272878 0.83216884524879 -52.7301337272879 0.43792058798822 34.0242782768335 
! Gamma         0                0                0                0                
! Port Impedance         50               0                50               0                
40.1                           0.441655019713761 33.2021197990677 0.830353011642066 -53.6757724637356 0.830353011642065 -53.6757724637357 0.441811423377175 33.1689891383419 
! Gamma         0                0                0                0                
! Port Impedance         50               0                50               0                
40.2                           0.445406207034455 32.3479375592137 0.828585372080751 -54.6174610649905 0.82858537208075 -54.6174610649906 0.445561185580273 32.3159794043575 
! Gamma         0                0                0                0                
! Port Impedance         50               0                50               0                
40.3                           0.449017146466804 31.496047384205  0.826867386664415 -55.5553197905114 0.826867386664414 -55.5553197905116 0.449170715451789 31.4652400978687 
! Gamma         0                0                0                0                
! Port Impedance         50               0                50               0                
40.4                           0.452488682058366 30.6464296436598 0.825200442615685 -56.4894716190094 0.825200442615683 -56.4894716190096 0.452640856566373 30.6167530906249 
! Gamma         0                0                0                0                
! Port Impedance         50               0                50               0                
40.5                           0.455821656002682 29.7990563686061 0.823585856161687 -57.420042080274 0.823585856161686 -57.4200420802742 0.455972450684033 29.7704918375595 
! Gamma         0                0                0                0                
! Port Impedance         50               0                50               0                
40.6                           0.459016904358605 28.9538919190455 0.822024874436522 -58.3471590948185 0.82202487443652 -58.3471590948187 0.459166333465976 28.9264220512231 
! Gamma         0                0                0                0                
! Port Impedance         50               0                50               0                
40.7                           0.462075253012376 28.110893598132  0.820518677391379 -59.2709528212354 0.820518677391378 -59.2709528212356 0.462223330433573 28.0845023222323 
! Gamma         0                0                0                0                
! Port Impedance         50               0                50               0                
40.8                           0.464997513874663 27.2700122182131 0.819068379699923 -60.1915555111221 0.819068379699922 -60.1915555111223 0.465144253162627 27.2446846910778 
! Gamma         0                0                0                0                
! Port Impedance         50               0                50               0                
40.9                           0.467784481304488 26.4311926234213 0.817675032647481 -61.1091013714046 0.81767503264748 -61.1091013714047 0.467929895704952 26.4069151760023 
! Gamma         0                0                0                0                
! Port Impedance         50               0                50               0                
41                             0.470436928751891 25.5943741729847 0.816339625993487 -62.023726433863 0.816339625993485 -62.0237264338632 0.470581031228909 25.5711342611917 
! Gamma         0                0                0                0                
! Port Impedance         50               0                50               0                
41.1                           0.472955605611119 24.7594911889882 0.815063089797488 -62.9355684316382 0.815063089797487 -62.9355684316383 0.473098408870807 24.7372773490462 
! Gamma         0                0                0                0                
! Port Impedance         50               0                50               0                
41.2                           0.475341234276184 23.9264733719625 0.813846296199829 -63.8447666824763 0.813846296199828 -63.8447666824764 0.475482750788847 23.9052751799495 
! Gamma         0                0                0                0                
! Port Impedance         50               0                50               0                
41.3                           0.477594507390595 23.095246187319  0.812690061148895 -64.7514619784526 0.812690061148894 -64.7514619784528 0.477734749411587 23.0750542225929 
! Gamma         0                0                0                0                
! Port Impedance         50               0                50               0                
41.4                           0.479716085283424 22.2657312254021 0.811595146067525 -65.6557964818987 0.811595146067523 -65.6557964818988 0.479855064872786 22.2465370376516 
! Gamma         0                0                0                0                
! Port Impedance         50               0                50               0                
41.5                           0.481706593583805 21.4378465376466 0.810562259451865 -66.5579136272404 0.810562259451864 -66.5579136272405 0.481844322625013 21.4196426173417 
! Gamma         0                0                0                0                
! Port Impedance         50               0                50               0                
41.6                           0.483566621006414 20.6115069511531 0.809592058396575 -67.4579580284475 0.809592058396573 -67.4579580284476 0.483703111224324 20.5942867031833 
! Gamma         0                0                0                0                
! Port Impedance         50               0                50               0                
41.7                           0.485296717300677 19.786624363773  0.808685150040868 -68.3560753917799 0.808685150040866 -68.35607539178  0.485431980278848 19.7703820840969 
! Gamma         0                0                0                0                
! Port Impedance         50               0                50               0                
41.8                           0.486897391356768 18.9631080216626 0.807842092930415 -69.2524124335099 0.807842092930413 -69.25241243351  0.487031438554334 18.9478388768024 
! Gamma         0                0                0                0                
! Port Impedance         50               0                50               0                
41.9                           0.488369109461874 18.1408647810956 0.80706339829063 -70.1471168022896 0.807063398290628 -70.1471168022897 0.488501952230053 18.1265647903461 
! Gamma         0                0                0                0                
! Port Impedance         50               0                50               0                
42                             0.48971229370052 17.3197993562333 0.806349531207321 -71.0403370058283 0.80634953120732 -71.0403370058284 0.48984394329896 17.3064653764596 
! Gamma         0                0                0                0                
! Port Impedance         50               0                50               0                
42.1                           0.490927320493323 16.4998145544218 0.805700911711097 -71.9322223415378 0.805700911711096 -71.932222341538 0.491057788106338 16.4874442673386 
! Gamma         0                0                0                0                
! Port Impedance         50               0                50               0                
42.2                           0.492014519268767 15.6808115004996 0.805117915762312 -72.8229228307968 0.80511791576231 -72.822922830797 0.492143816021609 15.6694034023528 
! Gamma         0                0                0                0                
! Port Impedance         50               0                50               0                
42.3                           0.492974171263267 14.8626898515377 0.804600876133678 -73.7125891564862 0.804600876133677 -73.7125891564863 0.493102308238571 14.8522432451069 
! Gamma         0                0                0                0                
! Port Impedance         50               0                50               0                
42.4                           0.493806508445176 14.0453480033412 0.804150083188002 -74.6013726034364 0.804150083188001 -74.6013726034366 0.493933496699647 14.0358629922098 
! Gamma         0                0                0                0                
! Port Impedance         50               0                50               0                
42.5                           0.494511712558926 13.2286832900137 0.803765785548775 -75.4894250014325 0.803765785548774 -75.4894250014326 0.494637563140389 13.2201607750582 
! Gamma         0                0                0                0                
! Port Impedance         50               0                50               0                
42.6                           0.495089914286004 12.4125921778202 0.803448190661642 -76.3768986704111 0.803448190661641 -76.3768986704113 0.495214638250934 12.4050338558889 
! Gamma         0                0                0                0                
! Port Impedance         50               0                50               0                
42.7                           0.495541192520036 11.5969704545637 0.803197465245006 -77.2639463674891 0.803197465245004 -77.2639463674892 0.495664800951662 11.5903788193247 
! Gamma         0                0                0                0                
! Port Impedance         50               0                50               0                
42.8                           0.495865573753763 10.7817134156537 0.803013735628261 -78.1507212354534 0.80301373562826 -78.1507212354535 0.495988077780848 10.7760917606028 
! Gamma         0                0                0                0                
! Port Impedance         50               0                50               0                
42.9                           0.496063031576291 9.96671604803025 0.802897087976364 -79.0373767523451 0.802897087976363 -79.0373767523452 0.496184442392704 9.96206847166846 
! Gamma         0                0                0                0                
! Port Impedance         50               0                50               0                
43                             0.496133486279551 9.15187321310088 0.802847568399643 -79.9240666817636 0.802847568399641 -79.9240666817637 0.496253815164732 9.14820462629418 
! Gamma         0                0                0                0                
! Port Impedance         50               0                50               0                
43.1                           0.496076804573505 8.33707982983628 0.802865182947976 -80.8109450235181 0.802865182947974 -80.8109450235182 0.496196062913943 8.33439596539157 
! Gamma         0                0                0                0                
! Port Impedance         50               0                50               0                
43.2                           0.495892799410202 7.52223105918635 0.802949897488617 -81.6981659642463 0.802949897488616 -81.6981659642464 0.496010998722028 7.52053848368155 
! Gamma         0                0                0                0                
! Port Impedance         50               0                50               0                
43.3                           0.49558122991742 6.70722249098084 0.803101637467178 -82.585883827624 0.803101637467177 -82.5858838276242 0.495698381870253 6.70652861890842 
! Gamma         0                0                0                0                
! Port Impedance         50               0                50               0                
43.4                           0.495141801443205 5.8919503345103  0.803320287551433 -83.4742530237787 0.803320287551431 -83.4742530237788 0.495257917885367 5.89226344480061 
! Gamma         0                0                0                0                
! Port Impedance         50               0                50               0                
43.5                           0.494574165713264 5.07631161400389 0.803605691157852 -84.3634279975245 0.80360569115785 -84.3634279975246 0.494689258698497 5.07764086901134 
! Gamma         0                0                0                0                
! Port Impedance         50               0                50               0                
43.6                           0.493877921103755 4.26020437026471 0.803957649860931 -85.253563175029 0.80395764986093 -85.2535631750291 0.493992002919588 4.26255983731371 
! Gamma         0                0                0                0                
! Port Impedance         50               0                50               0                
43.7                           0.493052613032657 3.44352786976593 0.804375922685646 -86.1448129085201 0.804375922685645 -86.1448129085202 0.493165696230574 3.44692054537047 
! Gamma         0                0                0                0                
! Port Impedance         50               0                50               0                
43.8                           0.492097734473541 2.62618282257144 0.804860225283573 -87.0373314186392 0.804860225283573 -87.0373314186392 0.492209831901099 2.63062465945674 
! Gamma         0                0                0                0                
! Port Impedance         50               0                50               0                
43.9                           0.491012726596159 1.80807161050962 0.805410228993485 -87.9312727340437 0.805410228993484 -87.9312727340438 0.491123851431248 1.81357554758388 
! Gamma         0                0                0                0                
! Port Impedance         50               0                50               0                
44                             0.489796979538924 0.989098527108141 0.806025559787509 -88.8267906278594 0.806025559787508 -88.8267906278595 0.489907145326344 0.995678522551   
! Gamma         0                0                0                0                
! Port Impedance         50               0                50               0                
44.1                           0.488449833318982 0.169170030889808 0.806705797104245 -89.7240385505799 0.806705797104244 -89.72403855058  0.488559054009539 0.176841098545144 
! Gamma         0                0                0                0                
! Port Impedance         50               0                50               0                
44.2                           0.486970578886175 -0.651804986267968 0.807450472570589 -90.6231695590111 0.807450472570588 -90.6231695590112 0.487078868878519 -0.643026736984029 
! Gamma         0                0                0                0                
! Port Impedance         50               0                50               0                
44.3                           0.48535845932786 -1.47391491388184 0.808259068614359 -91.5243362408524 0.808259068614358 -91.5243362408525 0.4854658335133  -1.46401223432333 
! Gamma         0                0                0                0                
! Port Impedance         50               0                50               0                
44.4                           0.483612671232123 -2.29724511876262 0.809131016970269 -92.427690634512 0.809131016970269 -92.4276906345121 0.483719145042674 -2.28619957338152 
! Gamma         0                0                0                0                
! Port Impedance         50               0                50               0                
44.5                           0.481732366217546 -3.12187761994043 0.810065697082232 -93.3333841437458 0.810065697082231 -93.3333841437459 0.481837955677502 -3.10966953430829 
! Gamma         0                0                0                0                
! Port Impedance         50               0                50               0                
44.6                           0.479716652638293 -3.94789074032237 0.811062434405462 -94.2415674467175 0.811062434405461 -94.2415674467176 0.479821374419618 -3.93449914451824 
! Gamma         0                0                0                0                
! Port Impedance         50               0                50               0                
44.7                           0.477564597473843 -4.77535873257418 0.812120498612451 -95.1523903990738 0.81212049861245 -95.152390399074 0.477668468955725 -4.76076129957509 
! Gamma         0                0                0                0                
! Port Impedance         50               0                50               0                
44.8                           0.47527522841323 -5.60435137649546 0.813239101707435 -96.0660019306346 0.813239101707434 -96.0660019306347 0.475378267746176 -5.58852435516356 
! Gamma         0                0                0                0                
! Port Impedance         50               0                50               0                
44.9                           0.472847536144238 -6.43493354488068 0.814417396054676 -96.9825499353022 0.814417396054675 -96.9825499353023 0.472949762319106 -6.41785168709692 
! Gamma         0                0                0                0                
! Port Impedance         50               0                50               0                
45                             0.470280476858456 -7.26716473456675 0.815654472326576 -97.9021811537994 0.815654472326576 -97.9021811537995 0.470381909780883 -7.24880121600622 
! Gamma         0                0                0                0                
! Port Impedance         50               0                50               0                
45.1                           0.467572974983585 -8.10109855900934 0.81694935737845 -98.8250410488554 0.81694935737845 -98.8250410488556 0.467673635554301 -8.08142489299987 
! Gamma         0                0                0                0                
! Port Impedance         50               0                50               0                
45.2                           0.464723926154804 -8.93678219834063 0.818301012057592 -99.751273672469 0.818301012057592 -99.7512736724691 0.464823836356386 -8.91576814217719 
! Gamma         0                0                0                0                
! Port Impedance         50               0                50               0                
45.3                           0.46173220043743 -9.7742558023995 0.819708328955216 -100.68102152489 0.819708328955216 -100.681021524891 0.461831383428111 -9.75186925541727 
! Gamma         0                0                0                0                
! Port Impedance         50               0                50               0                
45.4                           0.458596645813389 -10.6135518417031 0.821170130110808 -101.614425404983 0.821170130110808 -101.614425404983 0.458695126028579 -10.5897587343275 
! Gamma         0                0                0                0                
! Port Impedance         50               0                50               0                
45.5                           0.455316091944322 -11.454694400714 0.822685164679467 -102.551624251642 0.822685164679466 -102.551624251642 0.455413895206627 -11.429458573615 
! Gamma         0                0                0                0                
! Port Impedance         50               0                50               0                
45.6                           0.451889354224377 -12.2976984070757 0.824252106573936 -103.492754975965 0.824252106573936 -103.492754975965 0.451986507862929 -12.270981479443 
! Gamma         0                0                0                0                
! Port Impedance         50               0                50               0                
45.7                           0.44831523813588 -13.1425687896474 0.825869552094177 -104.437952283919 0.825869552094177 -104.437952283919 0.448411771115927 -13.1143300154954 
! Gamma         0                0                0                0                
! Port Impedance         50               0                50               0                
45.8                           0.444592543921146 -13.9892995572598 0.82753601755859 -105.387348489238 0.82753601755859 -105.387348489238 0.444688486984968 -13.9594956685167 
! Gamma         0                0                0                0                
! Port Impedance         50               0                50               0                
45.9                           0.440720071583713 -14.8378727889869 0.829249936952262 -106.341073316367 0.829249936952262 -106.341073316368 0.440815457404028 -14.806457823985 
! Gamma         0                0                0                0                
! Port Impedance         50               0                50               0                
46                             0.43669662623222 -15.6882575254634 0.831009659608976 -107.299253693278 0.831009659608976 -107.299253693278 0.436791489579437 -15.6551826412583 
! Gamma         0                0                0                0                
! Port Impedance         50               0                50               0                
46.1                           0.432521023779981 -16.5404085492668 0.832813447945096 -108.262013534029 0.832813447945096 -108.262013534029 0.432615401704775 -16.5056218160142 
! Gamma         0                0                0                0                
! Port Impedance         50               0                50               0                
46.2                           0.428192097013108 -17.3942650406188 0.834659475264875 -109.22947351102 0.834659475264875 -109.22947351102 0.428286029046031 -17.3577112160031 
! Gamma         0                0                0                0                
! Port Impedance         50               0                50               0                
46.3                           0.423708702039697 -18.2497490925904 0.836545823658171 -110.201750816909 0.836545823658171 -110.20175081691 0.42380223040976 -18.2113693740291 
! Gamma         0                0                0                0                
! Port Impedance         50               0                50               0                
46.4                           0.419069725132357 -19.106764067512 0.838470482013044 -111.178958916259 0.838470482013044 -111.178958916259 0.41916289500677 -19.066495819552 
! Gamma         0                0                0                0                
! Port Impedance         50               0                50               0                
46.5                           0.414274089975813 -19.9651927734194 0.840431344167146 -112.161207287023 0.840431344167146 -112.161207287023 0.414366949723352 -19.9229692273816 
! Gamma         0                0                0                0                
! Port Impedance         50               0                50               0                
46.6                           0.409320765331115 -20.824895435859 0.842426207223287 -113.148601152081 0.842426207223286 -113.148601152081 0.409413366812028 -20.7806453583691 
! Gamma         0                0                0                0                
! Port Impedance         50               0                50               0                
46.7                           0.404208773127354 -21.6857074362754 0.844452770055948 -114.14124120109 0.844452770055948 -114.14124120109 0.404301172013034 -21.6393547628362 
! Gamma         0                0                0                0                
! Port Impedance         50               0                50               0                
46.8                           0.398937196991839 -22.547436783243 0.846508632036888 -115.139223303035 0.846508632036888 -115.139223303035 0.399029453118013 -22.4989002124435 
! Gamma         0                0                0                0                
! Port Impedance         50               0                50               0                
46.9                           0.393505191229059 -23.4098612768701 0.848591292009242 -116.142638209943 0.848591292009242 -116.142638209943 0.393597368986885 -23.3590538201581 
! Gamma         0                0                0                0                
! Port Impedance         50               0                50               0                
47                             0.387911990259227 -24.272725319543 0.850698147540667 -117.151571252326 0.850698147540667 -117.151571252326 0.388004159029236 -24.219553800731 
! Gamma         0                0                0                0                
! Port Impedance         50               0                50               0                
47.1                           0.382156918527305 -25.1357363175093 0.852826494487143 -118.166102027048 0.852826494487142 -118.166102027048 0.38224915316209 -25.0801008152546 
! Gamma         0                0                0                0                
! Port Impedance         50               0                50               0                
47.2                           0.376239400894357 -25.9985606072901 0.854973526899831 -119.186304078403 0.854973526899831 -119.186304078403 0.376331782256708 -25.9403538327352 
! Gamma         0                0                0                0                
! Port Impedance         50               0                50               0                
47.3                           0.370158973524578 -26.8608188280597 0.857136337308102 -120.212244573328 0.857136337308102 -120.212244573328 0.370251589089006 -26.7999254285531 
! Gamma         0                0                0                0                
! Port Impedance         50               0                50               0                
47.4                           0.363915295283735 -27.7220806454444 0.859311917412205 -121.243983971812 0.859311917412205 -121.243983971812 0.364008239810632 -27.6583764237512 
! Gamma         0                0                0                0                
! Port Impedance         50               0                50               0                
47.5                           0.357508159668357 -28.5818587128611 0.861497159219194 -122.281575693668 0.861497159219194 -122.281575693668 0.357601535961766 -28.5152097494923 
! Gamma         0                0                0                0                
! Port Impedance         50               0                50               0                
47.6                           0.350937507290324 -29.4396017326506 0.863688856655563 -123.325065782995 0.863688856655563 -123.325065782995 0.351031427052056 -29.3698633968089 
! Gamma         0                0                0                0                
! Port Impedance         50               0                50               0                
47.7                           0.344203438948708 -30.2946864496256 0.86588370768946 -124.37449257179 0.86588370768946 -124.37449257179 0.344298023744246 -30.2217022817138 
! Gamma         0                0                0                0                
! Port Impedance         50               0                50               0                
47.8                           0.337306229331071 -31.1464083727406 0.868078316994479 -125.429886344298 0.868078316994479 -125.429886344298 0.337401611685315 -31.0700088182968 
! Gamma         0                0                0                0                
! Port Impedance         50               0                50               0                
47.9                           0.330246341400173 -31.9939709742105 0.870269199185606 -126.491269003855 0.870269199185605 -126.491269003855 0.330342666044796 -31.9139719454653 
! Gamma         0                0                0                0                
! Port Impedance         50               0                50               0                
48                             0.323024441540749 -32.8364730570471 0.872452782656125 -127.558653744089 0.872452782656125 -127.558653744089 0.32312186683929 -32.7526742937996 
! Gamma         0                0                0                0                
! Port Impedance         50               0                50               0                
48.1                           0.315641415566162 -33.6728939078911 0.874625414041946 -128.632044726489 0.874625414041946 -128.632044726489 0.31574011514831 -33.58507710398  
! Gamma         0                0                0                0                
! Port Impedance         50               0                50               0                
48.2                           0.308098385718297 -34.5020757576053 0.876783363336967 -129.711436766502 0.876783363336966 -129.711436766502 0.30819855036155 -34.410002412656 
! Gamma         0                0                0                0                
! Port Impedance         50               0                50               0                
48.3                           0.300396728838546 -35.3227029507904 0.878922829679705 -130.796815030404 0.878922829679704 -130.796815030404 0.300498568643834 -35.226111898852 
! Gamma         0                0                0                0                
! Port Impedance         50               0                50               0                
48.4                           0.292538095947634 -36.1332770688024 0.881039947827448 -131.888154745328 0.881039947827447 -131.888154745328 0.292641842865767 -36.0318816255921 
! Gamma         0                0                0                0                
! Port Impedance         50               0                50               0                
48.5                           0.284524433551064 -36.9320870469038 0.883130795329661 -132.985420924935 0.88313079532966 -132.985420924935 0.284630344330388 -36.8255717052831 
! Gamma         0                0                0                0                
! Port Impedance         50               0                50               0                
48.6                           0.276358007093656 -37.7171730590258 0.885191400407263 -134.088568113267 0.885191400407261 -134.088568113267 0.27646636673573 -37.6051896474092 
! Gamma         0                0                0                0                
! Port Impedance         50               0                50               0                
48.7                           0.268041427129231 -38.4862825905843 0.887217750538692 -135.197540149432 0.887217750538691 -135.197540149432 0.268152552961155 -38.3684457906107 
! Gamma         0                0                0                0                
! Port Impedance         50               0                50               0                
48.8                           0.259577678964886 -39.2368166495849 0.88920580174749 -136.312269955781 0.889205801747488 -136.312269955781 0.259691925464167 -39.112698746792 
! Gamma         0                0                0                0                
! Port Impedance         50               0                50               0                
48.9                           0.250970156801473 -39.9657634346642 0.89115148857935 -137.43267935228 0.891151488579348 -137.43267935228 0.251087921345371 -39.8348881480785 
! Gamma         0                0                0                0                
! Port Impedance         50               0                50               0                
49                             0.242222703752136 -40.6696159224769 0.893050734749424 -138.558678899772 0.893050734749423 -138.558678899772 0.242344433509885 -40.5314511250052 
! Gamma         0                0                0                0                
! Port Impedance         50               0                50               0                
49.1                           0.23333965961843 -41.3442686649013 0.894899464433028 -139.690167774793 0.894899464433027 -139.690167774794 0.233465859866306 -41.1982177650288 
! Gamma         0                0                0                0                
! Port Impedance         50               0                50               0                
49.2                           0.224325918998852 -41.9848874667576 0.896693614164978 -140.827033678555 0.896693614164976 -140.827033678555 0.224457163219208 -41.8302791725069 
! Gamma         0                0                0                0                
! Port Impedance         50               0                50               0                
49.3                           0.215187003286708 -42.5857433516876 0.898429145304597 -141.969152782597 0.898429145304596 -141.969152782597 0.215323945520647 -42.4218194799119 
! Gamma         0                0                0                0                
! Port Impedance         50               0                50               0                
49.4                           0.20592915151782 -43.1399990279069 0.900102057015126 -143.11638971352 0.900102057015125 -143.116389713521 0.206072541587221 -42.9658999574474 
! Gamma         0                0                0                0                
! Port Impedance         50               0                50               0                
49.5                           0.196559437061376 -43.6394315001047 0.901708399697909 -144.268597579004 0.901708399697907 -144.268597579004 0.19671013947347 -43.4541788016097 
! Gamma         0                0                0                0                
! Port Impedance         50               0                50               0                
49.6                           0.187085920131622 -44.0740678750633 0.903244288813506 -145.425618037166 0.903244288813504 -145.425618037166 0.18724493774896 -43.8765435973314 
! Gamma         0                0                0                0                
! Port Impedance         50               0                50               0                
49.7                           0.177517850547442 -44.4317017568322 0.904705919013897 -146.587281411062 0.904705919013895 -146.587281411062 0.177686354475023 -44.220623840175 
! Gamma         0                0                0                0                
! Port Impedance         50               0                50               0                
49.8                           0.167865941904086 -44.697243341552 0.906089578502296 -147.753406849867 0.906089578502293 -147.753406849867 0.168045309553014 -44.4711367285402 
! Gamma         0                0                0                0                
! Port Impedance         50               0                50               0                
49.9                           0.158142748697298 -44.8518349359907 0.907391663530076 -148.923802537976 0.907391663530075 -148.923802537976 0.158334612679933 -44.6089982953875 
! Gamma         0                0                0                0                
! Port Impedance         50               0                50               0                
50                             0.148363194198349 -44.8716312854745 0.908608692933886 -150.098265952949 0.908608692933884 -150.098265952949 0.148569505657192 -44.6101001375188 
! Gamma         0                0                0                0                
! Port Impedance         50               0                50               0                
50.1                           0.138545322815706 -44.7260948332319 0.9097373226105  -151.276584172846 0.909737322610498 -151.276584172846 0.138768434046902 -44.4436038450129 
! Gamma         0                0                0                0                
! Port Impedance         50               0                50               0                
50.2                           0.128711392792694 -44.3755808195629 0.910774359822436 -152.458534233119 0.910774359822434 -152.458534233119 0.128954165613888 -44.0695323362145 
! Gamma         0                0                0                0                
! Port Impedance         50               0                50               0                
50.3                           0.118889494613426 -43.7678732055443 0.911716777223881 -153.643883532835 0.911716777223879 -153.643883532835 0.119155442685873 -43.4353282282432 
! Gamma         0                0                0                0                
! Port Impedance         50               0                50               0                
50.4                           0.109115996813083 -42.8331648084859 0.912561726494337 -154.832390289552 0.912561726494335 -154.832390289552 0.109409471364356 -42.4708919623643 
! Gamma         0                0                0                0                
! Port Impedance         50               0                50               0                
50.5                           0.0994393167969007 -41.476747377485 0.913306551466532 -156.023804041764 0.913306551466529 -156.023804041764 0.0997657436881689 -41.0814061736139 
! Gamma         0                0                0                0                
! Port Impedance         50               0                50               0                
50.6                           0.0899258414386054 -39.5684350893006 0.913948800635783 -157.21786619736 0.91394880063578 -157.21786619736 0.0902920069872435 -39.1370551587559 
! Gamma         0                0                0                0                
! Port Impedance         50               0                50               0                
50.7                           0.0806693456811753 -36.9277338699683 0.914486238940089 -158.414310626136 0.914486238940088 -158.414310626136 0.0810836922739356 -36.458826396789 
! Gamma         0                0                0                0                
! Port Impedance         50               0                50               0                
50.8                           0.0718059876411863 -33.304897785699 0.914916858703873 -159.612864293905 0.914916858703871 -159.612864293905 0.0722787759193397 -32.8008674310928 
! Gamma         0                0                0                0                
! Port Impedance         50               0                50               0                
50.9                           0.0635375294546144 -28.363123175733 0.915238889643484 -160.813247935397 0.915238889643482 -160.813247935397 0.0640804594191586 -27.8351559916775 
! Gamma         0                0                0                0                
! Port Impedance         50               0                50               0                
51                             0.0561639449073109 -21.6835046243059 0.91545080783926 -162.015176762677 0.915450807839258 -162.015176762676 0.0567882667580668 -21.160310432845 
! Gamma         0                0                0                0                
! Port Impedance         50               0                50               0                
51.1                           0.0501166830874676 -12.8530782955694 0.915551343587084 -163.218361205455 0.915551343587081 -163.218361205455 0.0508280890243779 -12.3922982358333 
! Gamma         0                0                0                0                
! Port Impedance         50               0                50               0                
51.2                           0.0459534814266192 -1.73842270528006 0.915539488051882 -164.422507679337 0.915539488051879 -164.422507679337 0.0467428161093103 -1.42863168151636 
! Gamma         0                0                0                0                
! Port Impedance         50               0                50               0                
51.3                           0.0442343167167347 11.0693258866182 0.91541449865623 -165.627319377706 0.915414498656228 -165.627319377706 0.0450694848754426 11.1417451084247 
! Gamma         0                0                0                0                
! Port Impedance         50               0                50               0                
51.4                           0.0452551606177796 24.1187321590794 0.915175903149081 -166.832497082719 0.91517590314908 -166.832497082719 0.0460878081888292 23.9323665970287 
! Gamma         0                0                0                0                
! Port Impedance         50               0                50               0                
51.5                           0.0488527848099452 35.8120451591105 0.914823502312335 -168.037739990643 0.914823502312334 -168.037739990643 0.0496404994978536 35.4272773713211 
! Gamma         0                0                0                0                
! Port Impedance         50               0                50               0                
51.6                           0.0545205436304148 45.2957252251054 0.914357371276437 -169.242746546617 0.914357371276436 -169.242746546617 0.0552417896282801 44.8016626862285 
! Gamma         0                0                0                0                
! Port Impedance         50               0                50               0                
51.7                           0.0616858646495143 52.5441900051614 0.913777859430108 -170.447215283814 0.913777859430107 -170.447215283814 0.0623373324241397 52.0103712361923 
! Gamma         0                0                0                0                
! Port Impedance         50               0                50               0                
51.8                           0.0698806755986291 57.9294767771841 0.913085588923509 -171.650845661919 0.913085588923507 -171.650845661919 0.0704683278545035 57.3961420157828 
! Gamma         0                0                0                0                
! Port Impedance         50               0                50               0                
51.9                           0.0787721143752148 61.8837445407179 0.912281451778385 -172.85333889986 0.912281451778384 -172.85333889986 0.079304771595593 61.3702051166908 
! Gamma         0                0                0                0                
! Port Impedance         50               0                50               0                
52                             0.0881348878832922 64.7695344856083 0.911366605632746 -174.05439879778 0.911366605632745 -174.05439879778 0.0886212497826255 64.2833895459118 
! Gamma         0                0                0                0                
! Port Impedance         50               0                50               0                
52.1                           0.0978171565202459 66.85976199761   0.910342468161186 -175.253732543375 0.910342468161183 -175.253732543375 0.0982647931685669 66.4027783196514 
! Gamma         0                0                0                0                
! Port Impedance         50               0                50               0                
52.2                           0.10771479431017 68.3524624221974 0.909210710224936 -176.451051497894 0.909210710224935 -176.451051497894 0.108129980910434 67.9237337644106 
! Gamma         0                0                0                0                
! Port Impedance         50               0                50               0                
52.3                           0.11775444621328 69.3903542152072 0.90797324781772 -177.646071957319 0.907973247817719 -177.646071957319 0.118142292103828 68.9878803240837 
! Gamma         0                0                0                0                
! Port Impedance         50               0                50               0                
52.4                           0.127882835691227 70.0769539735799 0.906632232884521 -178.838515884537 0.906632232884521 -178.838515884537 0.12824748420121 69.6983979761185 
! Gamma         0                0                0                0                
! Port Impedance         50               0                50               0                
52.5                           0.138060053376876 70.4882691205364 0.905190043100151 179.971888391387 0.90519004310015 179.971888391387 0.138404873268624 70.1313056303309 
! Gamma         0                0                0                0                
! Port Impedance         50               0                50               0                
52.6                           0.148255301149989 70.6809230050296 0.903649270702963 178.785405512359 0.903649270702963 178.785405512359 0.148583047308119 70.343386247706  
! Gamma         0                0                0                0                
! Port Impedance         50               0                50               0                
52.7                           0.158444147317944 70.6977361003202 0.902012710486044 177.602292467957 0.902012710486044 177.602292467958 0.158757088860305 70.3776718906522 
! Gamma         0                0                0                0                
! Port Impedance         50               0                50               0                
52.8                           0.168606721861348 70.5715693280547 0.900283347053715 176.422798014432 0.900283347053714 176.422798014432 0.168906742170111 70.2672420736898 
! Gamma         0                0                0                0                
! Port Impedance         50               0                50               0                
52.9                           0.178726506153256 70.3279947158059 0.89846434145512 175.247162138289 0.89846434145512 175.247162138289 0.179015180455074 70.0378745931859 
! Gamma         0                0                0                0                
! Port Impedance         50               0                50               0                
53                             0.188789505592001 69.9871737059886 0.896559017309071 174.075615566331 0.896559017309071 174.075615566331 0.189068161148125 69.7099162680876 
! Gamma         0                0                0                0                
! Port Impedance         50               0                50               0                
53.1                           0.198783673523337 69.5651958305761 0.894570846535149 172.908379323564 0.894570846535149 172.908379323564 0.199053436519962 69.299619899279  
! Gamma         0                0                0                0                
! Port Impedance         50               0                50               0                
53.2                           0.208698503069598 69.075045769153  0.892503434805501 171.745664339953 0.8925034348055  171.745664339954 0.208960335370081 68.8201122738788 
! Gamma         0                0                0                0                
! Port Impedance         50               0                50               0                
53.3                           0.218524733063233 68.5273112831141 0.890360506829717 170.587671106573 0.890360506829718 170.587671106573 0.218779461218596 68.2821041255274 
! Gamma         0                0                0                0                
! Port Impedance         50               0                50               0                
53.4                           0.228254132738607 67.9307081176583 0.888145891581904 169.434589381262 0.888145891581904 169.434589381262 0.228502471059334 67.6944173722057 
! Gamma         0                0                0                0                
! Port Impedance         50               0                50               0                
53.5                           0.237879341559635 67.2924739494323 0.885863507574594 168.28659794352  0.885863507574594 168.28659794352  0.238121910604381 67.0643813496673 
! Gamma         0                0                0                0                
! Port Impedance         50               0                50               0                
53.6                           0.247393748140252 66.6186674645471 0.883517348278642 167.143864397979 0.883517348278642 167.14386439798  0.24763108964325 66.3981339721806 
! Gamma         0                0                0                0                
! Port Impedance         50               0                50               0                
53.7                           0.256791397198765 65.9143978819777 0.881111467781851 166.006545025442 0.881111467781852 166.006545025442 0.257023986209931 65.7008530850744 
! Gamma         0                0                0                0                
! Port Impedance         50               0                50               0                
53.8                           0.266066916818281 65.1840028989899 0.878649966771984 164.87478468016  0.878649966771984 164.874784680161 0.26629517164598 64.9769359841549 
! Gamma         0                0                0                0                
! Port Impedance         50               0                50               0                
53.9                           0.27521546054654 64.4311879750292 0.876136978922075 163.74871673173  0.876136978922075 163.74871673173  0.275439750955294 64.2301400385409 
! Gamma         0                0                0                0                
! Port Impedance         50               0                50               0                
54                             0.284232660424752 63.6591363397341 0.873576657747866 162.628463049731 0.873576657747866 162.628463049731 0.284453314437529 63.4636938305584 
! Gamma         0                0                0                0                
! Port Impedance         50               0                50               0                
54.1                           0.293114588122203 62.8705966186661 0.870973163998789 161.514134029013 0.87097316399879 161.514134029013 0.293331897699015 62.6803857354259 
! Gamma         0                0                0                0                
! Port Impedance         50               0                50               0                
54.2                           0.301857722120856 62.0679531917807 0.868330653635339 160.405828653345 0.86833065363534 160.405828653345 0.302071947926526 61.8826350829634 
! Gamma         0                0                0                0                
! Port Impedance         50               0                50               0                
54.3                           0.310458919443373 61.2532831167972 0.865653266437223 159.303634595002 0.865653266437223 159.303634595002 0.310670294872431 61.072549757593  
! Gamma         0                0                0                0                
! Port Impedance         50               0                50               0                
54.4                           0.318915390814791 60.4284025147884 0.862945115278209 158.207628347736 0.862945115278209 158.207628347736 0.31912412540663 60.2519731546913 
! Gamma         0                0                0                0                
! Port Impedance         50               0                50               0                
54.5                           0.327224678437133 59.5949046275547 0.860210276095431 157.117875390505 0.860210276095432 157.117875390505 0.327430960787943 59.4225227203694 
! Gamma         0                0                0                0                
! Port Impedance         50               0                50               0                
54.6                           0.335384635769391 58.7541912456337 0.857452778573071 156.034430379273 0.857452778573071 156.034430379273 0.335588636026372 58.5856217881851 
! Gamma         0                0                0                0                
! Port Impedance         50               0                50               0                
54.7                           0.343393408862595 57.9074988232391 0.854676597552868 154.957337364188 0.854676597552868 154.957337364188 0.343595280869597 57.7425260412646 
! Gamma         0                0                0                0                
! Port Impedance         50               0                50               0                
54.8                           0.351249418917317 57.0559203075007 0.851885645176944 153.886630029423 0.851885645176944 153.886630029423 0.35144930206825 56.8943456372955 
! Gamma         0                0                0                0                
! Port Impedance         50               0                50               0                
54.9                           0.358951345818757 56.2004234894129 0.849083763761981 152.822331953021 0.84908376376198 152.822331953021 0.359149366664634 56.0420638121571 
! Gamma         0                0                0                0                
! Port Impedance         50               0                50               0                
55                             0.366498112470302 55.3418665151963 0.846274719397858 151.764456884134 0.846274719397858 151.764456884134 0.366694386117754 55.1865526078019 
! Gamma         0                0                0                0                
! Port Impedance         50               0                50               0                
55.1                           0.373888869796094 54.4810110664862 0.843462196258593 150.713009035089 0.843462196258593 150.713009035089 0.37408350112866 54.328586238531  
! Gamma         0                0                0                0                
! Port Impedance         50               0                50               0                
55.2                           0.381122982320193 53.6185336164084 0.840649791608662 149.667983385849 0.840649791608661 149.667983385849 0.381316067068175 53.4688525074749 
! Gamma         0                0                0                0                
! Port Impedance         50               0                50               0                
55.3                           0.388200014257556 52.7550350893228 0.837841011483681 148.629365998495 0.837841011483681 148.629365998495 0.388391639938123 52.6079626050051 
! Gamma         0                0                0                0                
! Port Impedance         50               0                50               0                
55.4                           0.395119716072654 51.8910491895423 0.835039267020882 147.597134339501 0.83503926702088 147.597134339501 0.3953099628183  51.7464595576768 
! Gamma         0                0                0                0                
! Port Impedance         50               0                50               0                
55.5                           0.401882011476723 51.0270496149176 0.832247871411851 146.571257607684 0.83224787141185 146.571257607684 0.402070952767279 50.8848255463403 
! Gamma         0                0                0                0                
! Port Impedance         50               0                50               0                
55.6                           0.408486984845466 50.163456331773  0.829470037447608 145.551697065842 0.829470037447608 145.551697065842 0.408674688156548 50.0234882721966 
! Gamma         0                0                0                0                
! Port Impedance         50               0                50               0                
55.7                           0.414934869046712 49.3006410561737 0.826708875624151 144.538406374236 0.82670887562415 144.538406374236 0.415121396425554 49.1628265177216 
! Gamma         0                0                0                0                
! Port Impedance         50               0                50               0                
55.8                           0.421226033673044 48.4389320611477 0.823967392775241 143.531331924197 0.823967392775239 143.531331924197 0.421411442250883 48.3031750236959 
! Gamma         0                0                0                0                
! Port Impedance         50               0                50               0                
55.9                           0.427360973677332 47.5786184089909 0.821248491198216 142.530413170308 0.821248491198215 142.530413170308 0.427545316126425 47.4448287828447 
! Gamma         0                0                0                0                
! Port Impedance         50               0                50               0                
56                             0.433340298411577 46.7199536911424 0.818554968238061 141.535582959703 0.81855496823806 141.535582959703 0.433523623353554 46.5880468337368 
! Gamma         0                0                0                0                
! Port Impedance         50               0                50               0                
56.1                           0.43916472107004 45.8631593445636 0.815889516294794 140.54676785722  0.815889516294793 140.54676785722  0.439347073441506 45.7330556248537 
! Gamma         0                0                0                0                
! Port Impedance         50               0                50               0                
56.2                           0.444835048537982 45.008427602427  0.813254723219391 139.563888465233 0.813254723219389 139.563888465233 0.445016469918358 44.8800520074881 
! Gamma         0                0                0                0                
! Port Impedance         50               0                50               0                
56.3                           0.450352171646776 44.1559241278113 0.810653073063886 138.586859737136 0.810653073063884 138.586859737136 0.4505327005528  44.0292059068664 
! Gamma         0                0                0                0                
! Port Impedance         50               0                50               0                
56.4                           0.455717055835377 43.3057903715507 0.808086947152007 137.6155912836   0.808086947152005 137.6155912836   0.455896727986043 43.180662713267  
! Gamma         0                0                0                0                
! Port Impedance         50               0                50               0                
56.5                           0.460930732217183 42.4581456891548 0.805558625437581 136.649987670795 0.805558625437579 136.649987670795 0.461109580772441 42.3345454285707 
! Gamma         0                0                0                0                
! Port Impedance         50               0                50               0                
56.6                           0.465994289049966 41.6130892465304 0.803070288119083 135.689948709935 0.803070288119081 135.689948709935 0.466172344826038 41.490956598428  
! Gamma         0                0                0                0                
! Port Impedance         50               0                50               0                
56.7                           0.470908863605265 40.7707017399105 0.800624017479858 134.735369737575 0.800624017479855 134.735369737575 0.471086155269112 40.6499800558377 
! Gamma         0                0                0                0                
! Port Impedance         50               0                50               0                
56.8                           0.475675634432501 39.9310469517866 0.798221799924987 133.786141886219 0.798221799924984 133.786141886219 0.4758521886777  39.8116824982649 
! Gamma         0                0                0                0                
! Port Impedance         50               0                50               0                
56.9                           0.480295814011591 39.0941731615931 0.795865528187106 132.842152344861 0.795865528187103 132.842152344861 0.480471655717521 38.9761149173443 
! Gamma         0                0                0                0                
! Port Impedance         50               0                50               0                
57                             0.484770641786853 38.2601144273496 0.79355700367506 131.903284609199 0.793557003675057 131.903284609199 0.484945794162947 38.1433138976242 
! Gamma         0                0                0                0                
! Port Impedance         50               0                50               0                
57.1                           0.489101377573738 37.4288917522988 0.791297938940749 130.969418721324 0.791297938940745 130.969418721324 0.489275862290263 37.3133027986108 
! Gamma         0                0                0                0                
! Port Impedance         50               0                50               0                
57.2                           0.493289295329016 36.60051414876   0.78908996024111 130.040431498767 0.789089960241106 130.040431498767 0.493463132635846 36.4860928325168 
! Gamma         0                0                0                0                
! Port Impedance         50               0                50               0                
57.3                           0.497335677274255 35.774979609848  0.786934610173712 129.116196752845 0.786934610173708 129.116196752844 0.49750888610866 35.6616840485486 
! Gamma         0                0                0                0                
! Port Impedance         50               0                50               0                
57.4                           0.501241808361443 34.952275998409  0.784833350365949 128.19658549633  0.784833350365946 128.19658549633  0.50141440644616 34.8400662332058 
! Gamma         0                0                0                0                
! Port Impedance         50               0                50               0                
57.5                           0.505008971069264 34.1323818613698 0.782787564199375 127.281466140492 0.782787564199371 127.281466140491 0.505180975001611 34.0212197349464 
! Gamma         0                0                0                0                
! Port Impedance         50               0                50               0                
57.6                           0.508638440517885 33.3152671767434 0.780798559552105 126.370704681627 0.7807985595521  126.370704681627 0.508809865850851 33.2051162205479 
! Gamma         0                0                0                0                
! Port Impedance         50               0                50               0                
57.7                           0.512131479889744 32.5008940396957 0.778867571543705 125.464164877247 0.7788675715437  125.464164877246 0.51230234120582 32.3917193696851 
! Gamma         0                0                0                0                
! Port Impedance         50               0                50               0                
57.8                           0.51548933614359 31.6892172933618 0.776995765268265 124.56170841209  0.776995765268261 124.561708412089 0.515659647121994 31.5809855134949 
! Gamma         0                0                0                0                
! Port Impedance         50               0                50               0                
57.9                           0.518713236008858 30.8801851094819 0.775184238502684 123.66319505422  0.77518423850268 123.66319505422  0.518883009486733 30.7728642222766 
! Gamma         0                0                0                0                
! Port Impedance         50               0                50               0                
58                             0.521804382247444 30.0737395233839 0.773434024378421 122.76848280144  0.773434024378416 122.76848280144  0.521973630275604 29.967298846925  
! Gamma         0                0                0                0                
! Port Impedance         50               0                50               0                
58.1                           0.524763950169786 29.2698169273842 0.771746094006063 121.877428018314 0.771746094006058 121.877428018314 0.524932684063511 29.1642270182248 
! Gamma         0                0                0                0                
! Port Impedance         50               0                50               0                
58.2                           0.527593084392571 28.4683485262617 0.770121359043228 120.989885564102 0.770121359043223 120.989885564102 0.527761314777841 28.363581107721  
! Gamma         0                0                0                0                
! Port Impedance         50               0                50               0                
58.3                           0.530292895825268 27.6692607581088 0.768560674197228 120.105708911922 0.768560674197223 120.105708911922 0.530460632680888 27.565288653512  
! Gamma         0                0                0                0                
! Port Impedance         50               0                50               0                
58.4                           0.532864458873105 26.8724756835568 0.767064839654922 119.224750259477 0.767064839654916 119.224750259477 0.53303171156901 26.7692727540118 
! Gamma         0                0                0                0                
! Port Impedance         50               0                50               0                
58.5                           0.535308808844346 26.0779113460948 0.765634603433018 118.346860631693 0.765634603433012 118.346860631693 0.535475586176488 25.9754524324311 
! Gamma         0                0                0                0                
! Port Impedance         50               0                50               0                
58.6                           0.537626939550132 25.2854821059665 0.76427066364286 117.471889975628 0.764270663642853 117.471889975627 0.537793249772158 25.1837429745042 
! Gamma         0                0                0                0                
! Port Impedance         50               0                50               0                
58.7                           0.539819801085443 24.4950989499169 0.762973670664493 116.599687248    0.762973670664488 116.599687248    0.539985651937491 24.3940562417568 
! Gamma         0                0                0                0                
! Port Impedance         50               0                50               0                
58.8                           0.541888297780267 23.7066697788764 0.761744229225415 115.730100495731 0.761744229225409 115.730100495731 0.542053696515085 23.6063009624361 
! Gamma         0                0                0                0                
! Port Impedance         50               0                50               0                
58.9                           0.543833286310518 22.9200996755044 0.760582900380021 114.862976929844 0.760582900380015 114.862976929844 0.543998239717125 22.8203830020457 
! Gamma         0                0                0                0                
! Port Impedance         50               0                50               0                
59                             0.545655573958667 22.1352911533704 0.759490203386295 113.998162993115 0.759490203386289 113.998162993115 0.545820088383747 22.0362056152886 
! Gamma         0                0                0                0                
! Port Impedance         50               0                50               0                
59.1                           0.547355917014638 21.352144389428  0.758466617476757 113.135504421843 0.758466617476751 113.135504421843 0.547519998381869 21.2536696810883 
! Gamma         0                0                0                0                
! Port Impedance         50               0                50               0                
59.2                           0.548935019308043 20.5705574413086 0.75751258352107 112.274846302118 0.757512583521063 112.274846302118 0.54909867313547 20.472673922242  
! Gamma         0                0                0                0                
! Port Impedance         50               0                50               0                
59.3                           0.550393530863298 19.7904264508861 0.756628505578118 111.416033120956 0.756628505578112 111.416033120956 0.550556762278962 19.6931151111633 
! Gamma         0                0                0                0                
! Port Impedance         50               0                50               0                
59.4                           0.551732046669905 19.0116458354497 0.755814752335662 110.558908812683 0.755814752335656 110.558908812683 0.551894860425796 18.9148882630736 
! Gamma         0                0                0                0                
! Port Impedance         50               0                50               0                
59.5                           0.552951105560499 18.2341084677664 0.755071658435923 109.703316800936 0.755071658435916 109.703316800936 0.553113506044997 18.1378868179327 
! Gamma         0                0                0                0                
! Port Impedance         50               0                50               0                
59.6                           0.5540511891901  17.4577058462304 0.754399525685738 108.849100036655 0.754399525685731 108.849100036655 0.554213180438989 17.36200281232   
! Gamma         0                0                0                0                
! Port Impedance         50               0                50               0                
59.7                           0.555032721110373 16.6823282562532 0.753798624150066 107.996101032426 0.75379862415006 107.996101032425 0.555194306816534 16.5871270424302 
! Gamma         0                0                0                0                
! Port Impedance         50               0                50               0                
59.8                           0.55589606593348 15.9078649239774 0.753269193127822 107.144161893556 0.753269193127815 107.144161893556 0.556057249455355 15.8131492192763 
! Gamma         0                0                0                0                
! Port Impedance         50               0                50               0                
59.9                           0.556641528580505 15.1342041633793 0.752811442009115 106.293124346236 0.752811442009109 106.293124346236 0.556802312949413 15.0399581171728 
! Gamma         0                0                0                0                
! Port Impedance         50               0                50               0                
60                             0.557269353610202 14.3612335177635 0.752425551013113 105.442829763156 0.752425551013107 105.442829763156 0.557429741536565 14.2674417165151 
! Gamma         0                0                0                0                
! Port Impedance         50               0                50               0                
60.1                           0.557779724624345 13.5888398966372 0.752111671805772 104.593119186935 0.752111671805766 104.593119186935 0.55793971850292 13.4954873418401 
! Gamma         0                0                0                0                
! Port Impedance         50               0                50               0                
60.2                           0.558172763746488 12.8169097089299 0.751869927996789 103.743833351734 0.751869927996783 103.743833351734 0.55833236566064 12.7239817961536 
! Gamma         0                0                0                0                
! Port Impedance         50               0                50               0                
60.3                           0.558448531171712 12.0453289934918 0.751700415515139 102.894812703404 0.751700415515133 102.894812703404 0.558607742896795 11.9528114924517 
! Gamma         0                0                0                0                
! Port Impedance         50               0                50               0                
60.4                           0.558607024785357 11.2739835478121 0.751603202862579 102.045897418535 0.751603202862573 102.045897418535 0.558765847791258 11.1818625833899 
! Gamma         0                0                0                0                
! Port Impedance         50               0                50               0                
60.5                           0.558648179849553 10.5027590558681 0.751578331244547 101.196927422767 0.751578331244542 101.196927422767 0.558806615302428 10.4110210900145 
! Gamma         0                0                0                0                
! Port Impedance         50               0                50               0                
60.6                           0.55857186875676 9.7315412160397  0.751625814577869 100.34774240873  0.751625814577864 100.34774240873  0.558729917520012 9.64017303049563 
! Gamma         0                0                0                0                
! Port Impedance         50               0                50               0                
60.7                           0.558377900850335 8.9602158700108  0.75174563937466 99.4981818539691 0.751745639374655 99.498181853969  0.558535563484887 8.86920454977954 
! Gamma         0                0                0                0                
! Port Impedance         50               0                50               0                
60.8                           0.558066022312677 8.18866913359297 0.751937764501879 98.6480850392324 0.751937764501873 98.6480850392324 0.558223299076542 8.09800205111708 
! Gamma         0                0                0                0                
! Port Impedance         50               0                50               0                
60.9                           0.55763591612216 7.4167875304277  0.752202120815909 97.7972910674862 0.752202120815904 97.7972910674862 0.557792806969368 7.32645233040664 
! Gamma         0                0                0                0                
! Port Impedance         50               0                50               0                
61                             0.557087202080704 6.64445812953778 0.752538610671611 96.945638884032  0.752538610671606 96.945638884032  0.557243706659591 6.55444271434189 
! Gamma         0                0                0                0                
! Port Impedance         50               0                50               0                
61.1                           0.556419436914487 5.87156868773295 0.752947107305249 96.0929672981085 0.752947107305244 96.0929672981084 0.556575554565397 5.78186120336103 
! Gamma         0                0                0                0                
! Port Impedance         50               0                50               0                
61.2                           0.555632114450984 5.09800779789976 0.753427454090773 95.2391150063563 0.753427454090768 95.2391150063563 0.555787844203376 5.00859662043817 
! Gamma         0                0                0                0                
! Port Impedance         50               0                50               0                
61.3                           0.554724665876141 4.32366504425834 0.753979463668913 94.3839206185415 0.753979463668908 94.3839206185414 0.554880006445145 4.23453876679192 
! Gamma         0                0                0                0                
! Port Impedance         50               0                50               0                
61.4                           0.553696460076236 3.54843116569936 0.754602916948658 93.5272226859272 0.754602916948653 93.5272226859271 0.553851409858673 3.45957858563776 
! Gamma         0                0                0                0                
! Port Impedance         50               0                50               0                
61.5                           0.552546804069629 2.77219822838956 0.755297561980713 92.6688597327003 0.755297561980708 92.6688597327002 0.552701361139496 2.68360833516211 
! Gamma         0                0                0                0                
! Port Impedance         50               0                50               0                
61.6                           0.551274943534319 1.99485980887804 0.756063112702678 91.8086702908596 0.756063112702675 91.8086702908596 0.551429105637783 1.90652177196143 
! Gamma         0                0                0                0                
! Port Impedance         50               0                50               0                
61.7                           0.54988006343797 1.21631118902432 0.756899247555799 90.9464929389848 0.756899247555795 90.9464929389848 0.550033827987856 1.12821434626095 
! Gamma         0                0                0                0                
! Port Impedance         50               0                50               0                
61.8                           0.548361288777755 0.436449564136014 0.757805607973279 90.0821663453068 0.757805607973275 90.0821663453068 0.548514652847558 0.348583410306008 
! Gamma         0                0                0                0                
! Port Impedance         50               0                50               0                
61.9                           0.546717685438138 -0.34482573418986 0.758781796740432 89.2155293155159 0.758781796740429 89.2155293155156 0.546870645755565 -0.432471558581556 
! Gamma         0                0                0                0                
! Port Impedance         50               0                50               0                
62                             0.544948261175457 -1.12761299893231 0.759827376227083 88.3464208457446 0.759827376227079 88.3464208457445 0.545100814115512 -1.21504871869236 
! Gamma         0                0                0                0                
! Port Impedance         50               0                50               0                
62.1                           0.543051966738924 -1.91200789051092 0.760941866493011 87.4746801811749 0.760941866493008 87.4746801811748 0.543204108316537 -1.99924360665514 
! Gamma         0                0                0                0                
! Port Impedance         50               0                50               0                
62.2                           0.541027697138422 -2.69810315980109 0.762124743267525 86.600146880724  0.762124743267522 86.600146880724  0.541179423000649 -2.78514886035339 
! Gamma         0                0                0                0                
! Port Impedance         50               0                50               0                
62.3                           0.538874293070277 -3.48598834931801 0.763375435804671 85.7226608882699 0.763375435804667 85.7226608882697 0.539025598488056 -3.57285392004845 
! Gamma         0                0                0                0                
! Port Impedance         50               0                50               0                
62.4                           0.536590542512916 -4.27574947040152 0.76469332461603 84.8420626108885 0.764693324616027 84.8420626108884 0.536741422372401 -4.36244470554617 
! Gamma         0                0                0                0                
! Port Impedance         50               0                50               0                
62.5                           0.534175182505117 -5.06746865406329 0.766077739083602 83.9581930045722 0.7660777390836  83.9581930045721 0.534325631298589 -5.15400326706725 
! Gamma         0                0                0                0                
! Port Impedance         50               0                50               0                
62.6                           0.531626901120336 -5.86122377293173 0.767527954955844 83.0708936679116 0.767527954955841 83.0708936679115 0.531776912936704 -5.94760740725991 
! Gamma         0                0                0                0                
! Port Impedance         50               0                50               0                
62.7                           0.528944339651321 -6.65708803150008 0.769043191730633 82.1800069442185 0.769043191730631 82.1800069442184 0.529093908166206 -6.74333027156242 
! Gamma         0                0                0                0                
! Port Impedance         50               0                50               0                
62.8                           0.526126095020011 -7.45512952160589 0.77062260992966 81.2853760325756 0.770622609929658 81.2853760325753 0.526275213485422 -7.54123990384625 
! Gamma         0                0                0                0                
! Port Impedance         50               0                50               0                
62.9                           0.523170722428383 -8.25541073976793 0.772265308269589 80.3868451082918 0.772265308269588 80.3868451082918 0.523319383661992 -8.34139876396978 
! Gamma         0                0                0                0                
! Port Impedance         50               0                50               0                
63                             0.520076738266673 -9.05798806265774 0.77397032073629 79.484259453244  0.773970320736289 79.4842594532438 0.520224934640679 -9.14386320352301 
! Gamma         0                0                0                0                
! Port Impedance         50               0                50               0                
63.1                           0.516842623296005 -9.8629111765858 0.775736613569408 78.5774655965745 0.775736613569407 78.5774655965744 0.516990346725596 -9.9486828956491 
! Gamma         0                0                0                0                
! Port Impedance         50               0                50               0                
63.2                           0.51346682612311 -10.6702224564372 0.777563082165729 77.6663114662123 0.777563082165728 77.6663114662122 0.51361406805451 -10.7559002143818 
! Gamma         0                0                0                0                
! Port Impedance         50               0                50               0                
63.3                           0.509947766985372 -11.479956288971 0.779448547910944 76.7506465516637 0.779448547910944 76.7506465516635 0.510094518383483 -11.5655495584183 
! Gamma         0                0                0                0                
! Port Impedance         50               0                50               0                
63.4                           0.506283841864971 -12.2921383348116 0.781391754950819 75.8303220785093 0.78139175495082 75.830322078509  0.506430093200581 -12.377656613669 
! Gamma         0                0                0                0                
! Port Impedance         50               0                50               0                
63.5                           0.502473426951293 -13.1067847227891 0.783391366914126 74.9051911950207 0.783391366914126 74.9051911950205 0.502619168187866 -13.1922375482399 
! Gamma         0                0                0                0                
! Port Impedance         50               0                50               0                
63.6                           0.498514883471198 -13.9239011694917 0.785445963601277 73.9751091712802 0.785445963601278 73.9751091712799 0.4986601040512  -14.0092981327294 
! Gamma         0                0                0                0                
! Port Impedance         50               0                50               0                
63.7                           0.494406562906954 -14.7434820160135 0.787554037654227 73.03993361116   0.787554037654228 73.0399336111598 0.494551251737718 -14.8288327778305 
! Gamma         0                0                0                0                
! Port Impedance         50               0                50               0                
63.8                           0.490146812621868 -15.5655091728227 0.789713991224918 72.0995246774788 0.78971399122492 72.0995246774787 0.490290958060969 -15.6508234801768 
! Gamma         0                0                0                0                
! Port Impedance         50               0                50               0                
63.9                           0.485733981913718 -16.3899509624747 0.791924132661406 71.153745330603  0.791924132661408 71.1537453306027 0.485877571753811 -16.4752386661711 
! Gamma         0                0                0                0                
! Port Impedance         50               0                50               0                
64                             0.481166428516043 -17.216760848484 0.794182673232686 70.2024615807173 0.794182673232687 70.2024615807171 0.481309449969132 -17.3020319221318 
! Gamma         0                0                0                0                
! Port Impedance         50               0                50               0                
64.1                           0.476442525567222 -18.0458760370191 0.79648772391528 69.2455427539227 0.796487723915282 69.2455427539226 0.476584965248311 -18.1311405974401 
! Gamma         0                0                0                0                
! Port Impedance         50               0                50               0                
64.2                           0.47156066906704 -18.8772159361607 0.79883729226667 68.2828617722537 0.798837292266672 68.2828617722533 0.471702512977084 -18.9624842654509 
! Gamma         0                0                0                0                
! Port Impedance         50               0                50               0                
64.3                           0.466519285840026 -19.7106804551939 0.801229279412796 67.3142954476312 0.801229279412799 67.3142954476309 0.466660519348118 -19.7959630246718 
! Gamma         0                0                0                0                
! Port Impedance         50               0                50               0                
64.4                           0.461316842024476 -20.54614812373  0.803661477178993 66.339724789683  0.803661477178996 66.3397247896827 0.461457449849158 -20.6314556200318 
! Gamma         0                0                0                0                
! Port Impedance         50               0                50               0                
64.5                           0.455951852105476 -21.3834740072949 0.806131565395905 65.3590353272606 0.806131565395907 65.3590353272602 0.45609181829505 -21.4688173609243 
! Gamma         0                0                0                0                
! Port Impedance         50               0                50               0                
64.6                           0.450422888509722 -22.2224873922795 0.808637109414064 64.3721174433864 0.808637109414067 64.3721174433861 0.45056219642141 -22.3078778089575 
! Gamma         0                0                0                0                
! Port Impedance         50               0                50               0                
64.7                           0.444728591779335 -23.0629892086515 0.811175557862945 63.3788667232412 0.811175557862948 63.3788667232408 0.444867224057121 -23.1484382038728 
! Gamma         0                0                0                0                
! Port Impedance         50               0                50               0                
64.8                           0.438867681341372 -23.9047491535421 0.813744240692338 62.3791843146774 0.81374424069234 62.379184314677  0.439005619892262 -23.9902685908101 
! Gamma         0                0                0                0                
! Port Impedance         50               0                50               0                
64.9                           0.432838966889364 -24.7475024723959 0.816340367535813 61.3729773006093 0.816340367535816 61.372977300609  0.432976192857835 -24.8331046056716 
! Gamma         0                0                0                0                
! Port Impedance         50               0                50               0                
65                             0.426641360393115 -25.5909463467003 0.818961026437851 60.3601590824808 0.818961026437854 60.3601590824805 0.426777854133389 -25.6766438677171 
! Gamma         0                0                0                0                
! Port Impedance         50               0                50               0                
65.1                           0.42027388875327 -26.4347358280518 0.821603182987755 59.3406497738569 0.821603182987758 59.3406497738565 0.42040962979903 -26.520541919228 
! Gamma         0                0                0                0                
! Port Impedance         50               0                50               0                
65.2                           0.41373570711806 -27.2784792470699 0.824263679904821 58.3143766030133 0.824263679904825 58.314376603013  0.413870674149108 -27.3644076409071 
! Gamma         0                0                0                0                
! Port Impedance         50               0                50               0                
65.3                           0.40702611288137 -28.1217330120308 0.826939237120291 57.2812743232322 0.826939237120294 57.2812743232317 0.40716028368664 -28.2077980580312 
! Gamma         0                0                0                0                
! Port Impedance         50               0                50               0                
65.4                           0.400144560384125 -28.9639956954353 0.829626452402249 56.2412856293139 0.829626452402252 56.2412856293134 0.400277911820339 -29.0502124357646 
! Gamma         0                0                0                0                
! Port Impedance         50               0                50               0                
65.5                           0.393090676345542 -29.8047012862821 0.83232180256991 55.1943615786396 0.832321802569914 55.1943615786392 0.393223184290611 -29.8910855416432 
! Gamma         0                0                0                0                
! Port Impedance         50               0                50               0                
65.6                           0.38586427605728 -30.6432114607253 0.835021645343567 54.1404620149095 0.835021645343572 54.1404620149091 0.385995915357446 -30.7297799281821 
! Gamma         0                0                0                0                
! Port Impedance         50               0                50               0                
65.7                           0.378465380382999 -31.4788066926902 0.837722221875628 53.0795559924915 0.837722221875631 53.079555992491  0.378596124792336 -31.5655770575339 
! Gamma         0                0                0                0                
! Port Impedance         50               0                50               0                
65.8                           0.370894233618883 -32.310675987454 0.840419660006922 52.0116221991087 0.840419660006925 52.0116221991082 0.371024055729681 -32.3976670516371 
! Gamma         0                0                0                0                
! Port Impedance         50               0                50               0                
65.9                           0.363151322288591 -33.1379049730699 0.843109978290396 50.9366493743937 0.8431099782904  50.9366493743932 0.363280193450579 -33.2251368032565 
! Gamma         0                0                0                0                
! Port Impedance         50               0                50               0                
66                             0.355237394970546 -33.9594620240739 0.845789090821577 49.8546367216438 0.84578909082158 49.8546367216433 0.355365285196669 -34.046956123002 
! Gamma         0                0                0                0                
! Port Impedance         50               0                50               0                
66.1                           0.347153483287948 -34.7741820158408 0.848452812911778 48.7655943099143 0.848452812911781 48.7655943099138 0.347280361143716 -34.8619615215356 
! Gamma         0                0                0                0                
! Port Impedance         50               0                50               0                
66.2                           0.338900924235725 -35.5807472113758 0.851096867635635 47.6695434634154 0.851096867635638 47.6695434634148 0.339026756708533 -35.6688371297741 
! Gamma         0                0                0                0                
! Port Impedance         50               0                50               0                
66.3                           0.33048138407673 -36.3776646592653 0.853716893279481 46.566517134997  0.853716893279483 46.5665171349964 0.330606136420606 -36.4660921371006 
! Gamma         0                0                0                0                
! Port Impedance         50               0                50               0                
66.4                           0.321896884116683 -37.1632393236009 0.856308451711055 45.4565602603719 0.856308451711058 45.4565602603714 0.322020519666869 -37.2520339700783 
! Gamma         0                0                0                0                
! Port Impedance         50               0                50               0                
66.5                           0.313149828770161 -37.9355419628546 0.858867037684142 44.3397300895806 0.858867037684146 44.33973008958   0.313272308720475 -38.024736230728 
! Gamma         0                0                0                0                
! Port Impedance         50               0                50               0                
66.6                           0.30424303646683 -38.6923705097287 0.86138808908401 43.2160964921107 0.861388089084014 43.2160964921102 0.3043643196008  -38.7820001491498 
! Gamma         0                0                0                0                
! Port Impedance         50               0                50               0                
66.7                           0.295179774129775 -39.4312033573821 0.863866998110888 42.0857422320013 0.863866998110891 42.0857422320007 0.295299816494268 -39.5213079593668 
! Gamma         0                0                0                0                
! Port Impedance         50               0                50               0                
66.8                           0.28596379620301 -40.1491425005121 0.866299123389352 40.9487632092195 0.866299123389354 40.9487632092189 0.286082550709806 -40.2397661514781 
! Gamma         0                0                0                0                
! Port Impedance         50               0                50               0                
66.9                           0.276599389536148 -40.8428438729969 0.868679802981321 39.8052686636013 0.868679802981324 39.8052686636008 0.276716805472753 -40.9340359478259 
! Gamma         0                0                0                0                
! Port Impedance         50               0                50               0                
67                             0.267091425883251 -41.5084314118086 0.871004368269581 38.6553813376728 0.871004368269584 38.6553813376724 0.267207448308606 -41.6002475408184 
! Gamma         0                0                0                0                
! Port Impedance         50               0                50               0                
67.1                           0.2574454243876  -42.1413902813562 0.873268158667399 37.4992375947618 0.873268158667402 37.4992375947613 0.257559993380796 -42.233893537128 
! Gamma         0                0                0                0                
! Port Impedance         50               0                50               0                
67.2                           0.247667627272295 -42.7364332021197 0.87546653709809 36.3369874889298 0.875466537098092 36.3369874889293 0.247780676992204 -42.829695566228 
! Gamma         0                0                0                0                
! Port Impedance         50               0                50               0                
67.3                           0.237765093138617 -43.2873317829899 0.87759490617634 35.1687947834427 0.877594906176342 35.1687947834423 0.237876550638253 -43.3814359717159 
! Gamma         0                0                0                0                
! Port Impedance         50               0                50               0                
67.4                           0.227745813938022 -43.7867019281229 0.879648725011076 33.9948369147214 0.879648725011078 33.994836914721  0.227855597657883 -43.8817436820111 
! Gamma         0                0                0                0                
! Port Impedance         50               0                50               0                
67.5                           0.217618864052021 -44.2257284428094 0.881623526537728 32.8153048990055 0.88162352653773 32.8153048990051 0.217726881889239 -44.3218194200874 
! Gamma         0                0                0                0                
! Port Impedance         50               0                50               0                
67.6                           0.20739459332524 -44.5938084128281 0.883514935276096 31.6304031792992 0.883514935276098 31.6304031792987 0.207500740136732 -44.6910798746846 
! Gamma         0                0                0                0                
! Port Impedance         50               0                50               0                
67.7                           0.19708488087036 -44.878085069559 0.885318685399088 30.4403494105532 0.885318685399089 30.4403494105528 0.197189035212355 -44.9766926110592 
! Gamma         0                0                0                0                
! Port Impedance         50               0                50               0                
67.8                           0.186703473805605 -45.0628326508293 0.887030638987317 29.2453741814874 0.887030638987319 29.245374181487  0.186805493631619 -45.1629623208097 
! Gamma         0                0                0                0                
! Port Impedance         50               0                50               0                
67.9                           0.176266446063967 -45.128636752906 0.888646804335453 28.0457206719308 0.888646804335454 28.0457206719305 0.1763661629853  -45.230513027124 
! Gamma         0                0                0                0                
! Port Impedance         50               0                50               0                
68                             0.165792829032486 -45.051291799917 0.890163354168304 26.8416442451014 0.890163354168306 26.8416442451012 0.165890040572021 -45.1551880305038 
! Gamma         0                0                0                0                
! Port Impedance         50               0                50               0                
68.1                           0.155305491223186 -44.8003048885968 0.891576643618333 25.6334119747976 0.891576643618334 25.6334119747972 0.155399950235443 -44.9065570506535 
! Gamma         0                0                0                0                
! Port Impedance         50               0                50               0                
68.2                           0.144832383490911 -44.3368505254373 0.892883227811605 24.4213021080849 0.892883227811606 24.4213021080847 0.14492378353972 -44.4458752977643 
! Gamma         0                0                0                0                
! Port Impedance         50               0                50               0                
68.3                           0.134408327350812 -43.6109622243722 0.894079878906587 23.2056034646697 0.894079878906588 23.2056034646695 0.13449628227474 -43.7232805951071 
! Gamma         0                0                0                0                
! Port Impedance         50               0                50               0                
68.4                           0.124077618413374 -42.5576799617268 0.895163602429509 21.9866147747907 0.895163602429511 21.9866147747905 0.124161633509227 -42.673947400198 
! Gamma         0                0                0                0                
! Port Impedance         50               0                50               0                
68.5                           0.113897860369741 -41.0918247973684 0.896131652751656 20.7646439580979 0.896131652751657 20.7646439580978 0.113977291564603 -41.2128679394094 
! Gamma         0                0                0                0                
! Port Impedance         50               0                50               0                
68.6                           0.103945651327025 -39.1011353407713 0.896981547557796 19.5400073466155 0.896981547557797 19.5400073466153 0.104019647566799 -39.2279914925753 
! Gamma         0                0                0                0                
! Port Impedance         50               0                50               0                
68.7                           0.0943250014830788 -36.437936440938 0.897711081161178 18.3130288555126 0.897711081161179 18.3130288555126 0.0943924251885443 -36.5718822544042 
! Gamma         0                0                0                0                
! Port Impedance         50               0                50               0                
68.8                           0.0851795463159931 -32.9109887314921 0.898318336528985 17.0840391059865 0.898318336528985 17.0840391059864 0.0852388699540703 -33.0535201880577 
! Gamma         0                0                0                0                
! Port Impedance         50               0                50               0                
68.9                           0.076709254052248 -28.283187476523 0.898801695892896 15.8533745051264 0.898801695892898 15.8533745051263 0.076758445324975 -28.4358617274369 
! Gamma         0                0                0                0                
! Port Impedance         50               0                50               0                
69                             0.0691900105105929 -22.2898110897204 0.89915984983222 14.6213762881279 0.899159849832221 14.6213762881278 0.0692264611118649 -22.4537761390446 
! Gamma         0                0                0                0                
! Port Impedance         50               0                50               0                
69.1                           0.0629871960781783 -14.7064605252355 0.899391804731806 13.3883895286849 0.899391804731807 13.3883895286849 0.0630078397629088 -14.8814516689878 
! Gamma         0                0                0                0                
! Port Impedance         50               0                50               0                
69.2                           0.0585394436290268 -5.49957683342661 0.8994968885335  12.1547621237684 0.899496888533501 12.1547621237685 0.0585413132685391 -5.68245397853703 
! Gamma         0                0                0                0                
! Port Impedance         50               0                50               0                
69.3                           0.0562763894720797 4.96938284452522 0.899474754717738 10.9208437593202 0.899474754717739 10.9208437593204 0.0562577425242578 4.78543961365094 
! Gamma         0                0                0                0                
! Port Impedance         50               0                50               0                
69.4                           0.0564657201752488 15.871971223112  0.899325384471019 9.68698486362406 0.899325384471021 9.68698486362422 0.0564272003146072 15.695687483981  
! Gamma         0                0                0                0                
! Port Impedance         50               0                50               0                
69.5                           0.0590808984205194 26.1849783513862 0.899049087014835 8.45353555527034 0.899049087014838 8.4535355552705  0.0590256128544636 26.0230033358382 
! Gamma         0                0                0                0                
! Port Impedance         50               0                50               0                
69.6                           0.0638150815578102 35.1459100855374 0.898646498091951 7.22084459269809 0.898646498091954 7.22084459269828 0.0637473546144354 35.0003790246929 
! Gamma         0                0                0                0                
! Port Impedance         50               0                50               0                
69.7                           0.0702266887646683 42.467850978292  0.898118576626378 5.98925833227557 0.898118576626382 5.9892583322758  0.0701506335252192 42.3372767124463 
! Gamma         0                0                0                0                
! Port Impedance         50               0                50               0                
69.8                           0.0778843777051018 48.2283529738232 0.897466599593433 4.75911970177615 0.897466599593435 4.75911970177647 0.077803194630752 48.1097677480195 
! Gamma         0                0                0                0                
! Port Impedance         50               0                50               0                
69.9                           0.0864365862204521 52.6659482643916 0.896692155155777 3.53076719590917 0.896692155155781 3.5307671959095  0.0863525154826439 52.5563650659987 
! Gamma         0                0                0                0                
! Port Impedance         50               0                50               0                
70                             0.095620530708607 56.0437656636367 0.895797134139786 2.30453390029574 0.89579713413979 2.30453390029614 0.0955350641709115 55.9407353731341 
! Gamma         0                0                0                0                
! Port Impedance         50               0                50               0                
70.1                           0.105246436427971 58.5920131265917 0.89478371994369 1.08074654992651 0.894783719943694 1.08074654992691 0.105160549636783 58.4936912211821 
! Gamma         0                0                0                0                
! Port Impedance         50               0                50               0                
70.2                           0.115178022791003 60.4945551455975 0.893654376984517 -0.140275372278192 0.893654376984522 -0.140275372277761 0.115092352365576 60.3995997719195 
! Gamma         0                0                0                0                
! Port Impedance         50               0                50               0                
70.3                           0.125316463878067 61.8928203958976 0.892411837804517 -1.358220491667  0.892411837804522 -1.35822049166656 0.125231427348464 61.800265480892  
! Gamma         0                0                0                0                
! Port Impedance         50               0                50               0                
70.4                           0.135588826311866 62.8942114213134 0.891059088969381 -2.57278634820474 0.891059088969386 -2.57278634820425 0.13550469931212 62.8033601451618 
! Gamma         0                0                0                0                
! Port Impedance         50               0                50               0                
70.5                           0.145940142266474 63.5802542696499 0.889599355900043 -3.78368014893286 0.889599355900048 -3.78368014893237 0.14585710755105 63.4905999445288 
! Gamma         0                0                0                0                
! Port Impedance         50               0                50               0                
70.6                           0.156328061468449 64.013193511008  0.888036086787006 -4.99061946311549 0.888036086787013 -4.99061946311492 0.156246240089005 63.9243635650551 
! Gamma         0                0                0                0                
! Port Impedance         50               0                50               0                
70.7                           0.166719242727369 64.2409769047427 0.886372935740973 -6.19333285726088 0.886372935740979 -6.19333285726034 0.166638714051717 64.1526939090736 
! Gamma         0                0                0                0                
! Port Impedance         50               0                50               0                
70.8                           0.177086899262206 64.3009201300892 0.884613745336105 -7.391560467859  0.884613745336112 -7.39156046785844 0.177007713999211 64.2129747620792 
! Gamma         0                0                0                0                
! Port Impedance         50               0                50               0                
70.9                           0.187409108561625 64.2223764856091 0.882762528702544 -8.58505451029647 0.882762528702551 -8.58505451029585 0.187331297360645 64.1346086887673 
! Gamma         0                0                0                0                
! Port Impedance         50               0                50               0                
71                             0.197667632305292 64.0286820049646 0.880823451322919 -9.77357972305475 0.880823451322926 -9.77357972305421 0.197591211519818 63.9409677517611 
! Gamma         0                0                0                0                
! Port Impedance         50               0                50               0                
71.1                           0.207847080210875 63.7385798324818 0.878800812683768 -10.9569137468935 0.878800812683775 -10.9569137468929 0.207772055818935 63.6508217293465 
! Gamma         0                0                0                0                
! Port Impedance         50               0                50               0                
71.2                           0.217934308660429 63.3672712789081 0.87669902792709 -12.1348474393142 0.876699027927097 -12.1348474393136 0.217860678969589 63.2793918251134 
! Gamma         0                0                0                0                
! Port Impedance         50               0                50               0                
71.3                           0.227917981671267 62.9271983791789 0.874522609639943 -13.3071851251429 0.874522609639952 -13.3071851251423 0.227845739210823 62.8391350760371 
! Gamma         0                0                0                0                
! Port Impedance         50               0                50               0                
71.4                           0.237788245562249 62.4286321168308 0.872276149911341 -14.4737447845831 0.872276149911349 -14.4737447845825 0.237717378424314 62.3403338803228 
! Gamma         0                0                0                0                
! Port Impedance         50               0                50               0                
71.5                           0.247536484225609 61.880118866334  0.869964302775823 -15.6343581805569 0.869964302775832 -15.6343581805563 0.247466977027746 61.7915433678196 
! Gamma         0                0                0                0                
! Port Impedance         50               0                50               0                
71.6                           0.257155132211292 61.2888224783867 0.867591767152328 -16.7888709275641 0.867591767152337 -16.7888709275634 0.257086966796186 61.1999341531942 
! Gamma         0                0                0                0                
! Port Impedance         50               0                50               0                
71.7                           0.266637529729692 60.6607888490676 0.865163270375525 -17.9371425046623 0.865163270375534 -17.9371425046616 0.26657068567995 60.5715573907482 
! Gamma         0                0                0                0                
! Port Impedance         50               0                50               0                
71.8                           0.275977808359857 60.001152379615  0.862683552404909 -19.0790462154749 0.862683552404919 -19.0790462154742 0.275912263381383 59.9115515909182 
! Gamma         0                0                0                0                
! Port Impedance         50               0                50               0                
71.9                           0.285170799466423 59.3142984800448 0.860157350784835 -20.2144690984035 0.860157350784844 -20.2144690984029 0.285106529677673 59.224305388437  
! Gamma         0                0                0                0                
! Port Impedance         50               0                50               0                
72                             0.294211959565967 58.6039925297257 0.857589386416532 -21.3433117904205 0.857589386416543 -21.3433117904198 0.294148939718804 58.5135867008818 
! Gamma         0                0                0                0                
! Port Impedance         50               0                50               0                
72.1                           0.303097308456181 57.8734830237296 0.854984350191271 -22.4654883479775 0.854984350191282 -22.4654883479769 0.30303551210686 57.7826460244657 
! Gamma         0                0                0                0                
! Port Impedance         50               0                50               0                
72.2                           0.311823377041512 57.1255846909937 0.852346890522157 -23.5809260286741 0.852346890522167 -23.5809260286734 0.311762776684823 57.0342996659303 
! Gamma         0                0                0                0                
! Port Impedance         50               0                50               0                
72.3                           0.320387162592376 56.3627459522739 0.849681601801028 -24.6895650373841 0.849681601801038 -24.6895650373835 0.320327729768242 56.2709972877061 
! Gamma         0                0                0                0                
! Port Impedance         50               0                50               0                
72.4                           0.328786089758381 55.5871040420298 0.846993013796374 -25.7913582405655 0.846993013796386 -25.7913582405648 0.32872779513787 55.4948770971614 
! Gamma         0                0                0                0                
! Port Impedance         50               0                50               0                
72.5                           0.337017976082703 54.8005303437063 0.844285581998453 -26.8862708524435 0.844285581998464 -26.8862708524429 0.336960789538232 54.7078112342596 
! Gamma         0                0                0                0                
! Port Impedance         50               0                50               0                
72.6                           0.345081001078649 54.00466790829   0.841563678908767 -27.974280096715 0.841563678908777 -27.9742800967144 0.345024891742109 53.9114433311003 
! Gamma         0                0                0                0                
! Port Impedance         50               0                50               0                
72.7                           0.352973678162772 53.200962689059  0.838831586262919 -29.0553748473147 0.83883158626293 -29.0553748473142 0.352918614474149 53.1072197789195 
! Gamma         0                0                0                0                
! Port Impedance         50               0                50               0                
72.8                           0.360694828912502 52.3906896935235 0.836093488168589 -30.1295552516841 0.836093488168602 -30.1295552516836 0.36064077866103 52.2964159055491 
! Gamma         0                0                0                0                
! Port Impedance         50               0                50               0                
72.9                           0.36824355924657 51.5749749996271 0.833353465133945 -31.19683233983  0.833353465133957 -31.1968323398294 0.368190489605772 51.4801580119092 
! Gamma         0                0                0                0                
! Port Impedance         50               0                50               0                
73                             0.375619237224125 50.7548143876715 0.830615488956287 -32.257227622311 0.830615488956297 -32.2572276223105 0.375567114781912 50.6594420201347 
! Gamma         0                0                0                0                
! Port Impedance         50               0                50               0                
73.1                           0.382821472232108 49.9310891877658 0.827883418436097 -33.310772680107 0.827883418436108 -33.3107726801065 0.38277026301664 49.8351493340127 
! Gamma         0                0                0                0                
! Port Impedance         50               0                50               0                
73.2                           0.389850095385916 49.1045798242427 0.825160995877764 -34.3575087491479 0.825160995877773 -34.3575087491474 0.389799764887922 49.0080603938513 
! Gamma         0                0                0                0                
! Port Impedance         50               0                50               0                
73.3                           0.396705141010048 48.2759774456065 0.822451844335271 -35.3974863020782 0.82245184433528 -35.3974863020778 0.396655654201953 48.1788663148516 
! Gamma         0                0                0                0                
! Port Impedance         50               0                50               0                
73.4                           0.40338682909668 47.4458939552214 0.819759465558778 -36.4307646296373 0.819759465558789 -36.4307646296369 0.403338150448928 47.3481789246102 
! Gamma         0                0                0                0                
! Port Impedance         50               0                50               0                
73.5                           0.409895548663649 46.6148706997339 0.817087238596498 -37.4574114238348 0.817087238596506 -37.4574114238345 0.409847642158423 46.5165394570557 
! Gamma         0                0                0                0                
! Port Impedance         50               0                50               0                
73.6                           0.416231841950531 45.7833860257682 0.814438419005126 -38.4775023648951 0.814438419005134 -38.4775023648948 0.416184671093117 45.684426113605  
! Gamma         0                0                0                0                
! Port Impedance         50               0                50               0                
73.7                           0.422396389404482 44.9518618781576 0.811816138621846 -39.4911207137513 0.811816138621856 -39.491120713751 0.422349917232331 44.8522606650075 
! Gamma         0                0                0                0                
! Port Impedance         50               0                50               0                
73.8                           0.428389995416545 44.1206695829603 0.809223405850877 -40.4983569116715 0.809223405850883 -40.4983569116711 0.428344184506225 44.0204142372721 
! Gamma         0                0                0                0                
! Port Impedance         50               0                50               0                
73.9                           0.434213574776173 43.2901349341821 0.806663106418032 -41.4993081884149 0.806663106418042 -41.4993081884146 0.434168387248189 43.1892124007347 
! Gamma         0                0                0                0                
! Port Impedance         50               0                50               0                
74                             0.439868139815891 42.4605426833755 0.80413800454787 -42.4940781801301 0.804138004547874 -42.4940781801298 0.439823537337508 42.3589396615234 
! Gamma         0                0                0                0                
! Port Impedance         50               0                50               0                
74.1                           0.445354788221711 41.632140515119  0.801650744518905 -43.4827765580426 0.801650744518915 -43.4827765580424 0.445310732007795 41.5298434385174 
! Gamma         0                0                0                0                
! Port Impedance         50               0                50               0                
74.2                           0.450674691486652 40.8051425781605 0.799203852554229 -44.4655186688089 0.799203852554235 -44.4655186688086 0.45063114229854 40.7021375956382 
! Gamma         0                0                0                0                
! Port Impedance         50               0                50               0                
74.3                           0.455829083986061 39.9797326311013 0.796799739006232 -45.4424251872645 0.796799739006236 -45.4424251872644 0.455786002128521 39.8760055884074 
! Gamma         0                0                0                0                
! Port Impedance         50               0                50               0                
74.4                           0.460819252654369 39.1560668524895 0.794440700796314 -46.4136217821525 0.79444070079632 -46.4136217821523 0.460776597970624 39.05160327468   
! Gamma         0                0                0                0                
! Port Impedance         50               0                50               0                
74.5                           0.465646527242892 38.3342763577326 0.792128924072261 -47.3792387952805 0.792128924072265 -47.3792387952806 0.465604259107745 38.2290614319969 
! Gamma         0                0                0                0                
! Port Impedance         50               0                50               0                
74.6                           0.470312271138668 37.5144694590113 0.789866487048177 -48.3394109344392 0.789866487048178 -48.3394109344391 0.470270348449741 37.4084880177664 
! Gamma         0                0                0                0                
! Port Impedance         50               0                50               0                
74.7                           0.474817872724103 36.6967336991912 0.787655362993959 -49.2942769802962 0.787655362993961 -49.2942769802961 0.474776253891173 36.5899702032949 
! Gamma         0                0                0                0                
! Port Impedance         50               0                50               0                
74.8                           0.479164737257093 35.8811376863752 0.78549742334349 -50.2439795073862 0.785497423343492 -50.2439795073862 0.479123380189516 35.7735762083261 
! Gamma         0                0                0                0                
! Port Impedance         50               0                50               0                
74.9                           0.483354279251056 35.0677327520843 0.783394440892871 -51.1886646192153 0.78339444089287 -51.1886646192153 0.483313141343316 34.9593569590911 
! Gamma         0                0                0                0                
! Port Impedance         50               0                50               0                
75                             0.48738791533432 34.2565544529602 0.781348093062151 -52.128481697427 0.78134809306215 -52.128481697427 0.487346953449668 34.1473475897761 
! Gamma         0                0                0                0                
! Port Impedance         50               0                50               0                
75.1                           0.491267057568067 33.4476239332859 0.779359965196115 -53.0635831648921 0.779359965196112 -53.0635831648922 0.491226228020222 33.3375688047113 
! Gamma         0                0                0                0                
! Port Impedance         50               0                50               0                
75.2                           0.494993107202087 32.6409491633915 0.777431553881652 -53.99412426253  0.777431553881647 -53.99412426253  0.494952365735032 32.5300281163559 
! Gamma         0                0                0                0                
! Port Impedance         50               0                50               0                
75.3                           0.498567448847688 31.8365260671342 0.775564270261238 -54.9202628396026 0.775564270261235 -54.9202628396028 0.498526750613503 31.724720972275  
! Gamma         0                0                0                0                
! Port Impedance         50               0                50               0                
75.4                           0.501991445047139 31.0343395500329 0.773759443323882 -55.8421591571794 0.773759443323876 -55.8421591571796 0.501950744581883 30.9216317826904 
! Gamma         0                0                0                0                
! Port Impedance         50               0                50               0                
75.5                           0.505266431219469 30.2343644382497 0.772018323156568 -56.7599757044254 0.772018323156563 -56.7599757044255 0.505225682417052 30.1207348588024 
! Gamma         0                0                0                0                
! Port Impedance         50               0                50               0                
75.6                           0.508393710962484 29.436566337443  0.77034208414109 -57.6738770273244 0.770342084141084 -57.6738770273246 0.508352867046521 29.3219952709093 
! Gamma         0                0                0                0                
! Port Impedance         50               0                50               0                
75.7                           0.51137455169153 28.6409024194844 0.768731828082414 -58.5840295694288 0.768731828082407 -58.5840295694288 0.511333565185152 28.5253696343143 
! Gamma         0                0                0                0                
! Port Impedance         50               0                50               0                
75.8                           0.514210180595843 27.8473221441628 0.767188587256472 -59.4906015241857 0.767188587256465 -59.4906015241857 0.514169003289394 27.7308068301485 
! Gamma         0                0                0                0                
! Port Impedance         50               0                50               0                
75.9                           0.516901780893941 27.0557679222357 0.765713327366331 -60.3937626983852 0.76571332736632 -60.3937626983854 0.516860363810552 26.9382486674636 
! Gamma         0                0                0                0                
! Port Impedance         50               0                50               0                
76                             0.519450488370105 26.2661757255316 0.764306950397135 -61.2936843862439 0.764306950397123 -61.2936843862441 0.519408781729056 26.1476304923001 
! Gamma         0                0                0                0                
! Port Impedance         50               0                50               0                
76.1                           0.521857388174638 25.4784756492333 0.762970297361215 -62.1905392536332 0.762970297361201 -62.1905392536334 0.521815341352495 25.3588817488579 
! Gamma         0                0                0                0                
! Port Impedance         50               0                50               0                
76.2                           0.524123511871384 24.6925924309787 0.761704150925782 -63.0845012319484 0.761704150925768 -63.0845012319486 0.524081073360796 24.5719264974019 
! Gamma         0                0                0                0                
! Port Impedance         50               0                50               0                
76.3                           0.526249834716599 23.9084459309797 0.76050923791664 -63.9757454211042 0.760509237916627 -63.9757454211042 0.52620695208274 23.7866838931002 
! Gamma         0                0                0                0                
! Port Impedance         50               0                50               0                
76.4                           0.528237273154239 23.1259515769825 0.759386231692023 -64.8644480011424 0.759386231692009 -64.8644480011425 0.528193892988752 23.0030686296152 
! Gamma         0                0                0                0                
! Port Impedance         50               0                50               0                
76.5                           0.53008668251335 22.3450207775682 0.758335754381593 -65.7507861519285 0.758335754381579 -65.7507861519285 0.530042750385771 22.2209913509389 
! Gamma         0                0                0                0                
! Port Impedance         50               0                50               0                
76.6                           0.531798854894284 21.5655613069965 0.757358378986055 -66.6349379804159 0.757358378986043 -66.6349379804159 0.53175431530079 21.4403590346733 
! Gamma         0                0                0                0                
! Port Impedance         50               0                50               0                
76.7                           0.533374517231155 20.7874776645555 0.756454631333704 -67.5170824549518 0.756454631333688 -67.5170824549519 0.533329313540572 20.6610753497099 
! Gamma         0                0                0                0                
! Port Impedance         50               0                50               0                
76.8                           0.534814329518962 20.0106714111533 0.755624991890355 -68.3973993461083 0.755624991890337 -68.3973993461085 0.534768403915895 19.8830409910373 
! Gamma         0                0                0                0                
! Port Impedance         50               0                50               0                
76.9                           0.53611888319462 19.2350414857049 0.754869897419961 -69.2760691735051 0.754869897419946 -69.2760691735051 0.536072176619576 19.1061539942259 
! Gamma         0                0                0                0                
! Port Impedance         50               0                50               0                
77                             0.537288699662079 18.4604845037003 0.754189742493173 -70.1532731581162 0.754189742493156 -70.153273158116 0.537241151748457 18.3303100319625 
! Gamma         0                0                0                0                
! Port Impedance         50               0                50               0                
77.1                           0.538324228952621 17.6868950402021 0.753584880841688 -71.0291931795305 0.753584880841672 -71.0291931795304 0.538275777960403 17.555402694879  
! Gamma         0                0                0                0                
! Port Impedance         50               0                50               0                
77.2                           0.539225848512334 16.9141658994007 0.753055626556378 -71.9040117376554 0.753055626556359 -71.9040117376552 0.539176431258311 16.7813237587871 
! Gamma         0                0                0                0                
! Port Impedance         50               0                50               0                
77.3                           0.539993862109706 16.1421883727509 0.752602255127368 -72.7779119183431 0.752602255127349 -72.777911918343 0.539943413894064 16.0079634403387 
! Gamma         0                0                0                0                
! Port Impedance         50               0                50               0                
77.4                           0.540628498857213 15.3708524876395 0.752225004324471 -73.6510773624264 0.75222500432445 -73.6510773624263 0.540576953386275 15.2352106430428 
! Gamma         0                0                0                0                
! Port Impedance         50               0                50               0                
77.5                           0.541129912341705 14.600047248459  0.75192407491643 -74.5236922376487 0.751924074916409 -74.5236922376483 0.541077201646616 14.4629531955057 
! Gamma         0                0                0                0                
! Port Impedance         50               0                50               0                
77.6                           0.54149817985936 13.8296608719135 0.751699631227581 -75.3959412129691 0.751699631227558 -75.395941212969 0.54144423421048 13.691078083703  
! Gamma         0                0                0                0                
! Port Impedance         50               0                50               0                
77.7                           0.541733301751926 13.0595810183507 0.751551801530551 -76.2680094347347 0.751551801530528 -76.2680094347344 0.541678049568671 12.9194716790608 
! Gamma         0                0                0                0                
! Port Impedance         50               0                50               0                
77.8                           0.541835200841933 12.2896950208858 0.751480678273708 -77.1400825041901 0.751480678273684 -77.14008250419  0.541778568597788 12.1480199640977 
! Gamma         0                0                0                0                
! Port Impedance         50               0                50               0                
77.9                           0.541803721965528 11.5198901140769 0.751486318142054 -78.0123464558149 0.751486318142031 -78.0123464558146 0.541745634087936 11.3766087573636 
! Gamma         0                0                0                0                
! Port Impedance         50               0                50               0                
78                             0.541638631602606 10.7500536639208 0.751568741950302 -78.8849877359538 0.751568741950275 -78.8849877359534 0.541579010367392 10.605123939426  
! Gamma         0                0                0                0                
! Port Impedance         50               0                50               0                
78.1                           0.541339617604875 9.980073400949   0.751727934366847 -79.7581931812164 0.751727934366821 -79.7581931812161 0.54127838302485 9.83345168165874 
! Gamma         0                0                0                0                
! Port Impedance         50               0                50               0                
78.2                           0.540906289023525 9.20983765824459 0.751963843467444 -80.6321499961078 0.751963843467421 -80.6321499961074 0.540843358730883 9.06147867962805 
! Gamma         0                0                0                0                
! Port Impedance         50               0                50               0                
78.3                           0.540338176039226 8.43923561624392 0.752276380117245 -81.5070457293457 0.752276380117218 -81.5070457293452 0.540273465161297 8.28909239291238 
! Gamma         0                0                0                0                
! Port Impedance         50               0                50               0                
78.4                           0.539634729998218 7.66815755624842 0.752665417180054 -82.3830682483149 0.752665417180028 -82.3830682483145 0.539568151026115 7.51618129324968 
! Gamma         0                0                0                0                
! Port Impedance         50               0                50               0                
78.5                           0.53879532355933 6.89649512465548 0.753130788553594 -83.2604057110963 0.75313078855357 -83.2604057110958 0.538726786208986 6.74263512298633 
! Gamma         0                0                0                0                
! Port Impedance         50               0                50               0                
78.6                           0.537819250957898 6.12414161000443 0.753672288029639 -84.1392465355005 0.75367228802961 -84.1392465355003 0.537748662022921 5.96834516588662 
! Gamma         0                0                0                0                
! Port Impedance         50               0                50               0                
78.7                           0.536705728393657 5.35099223505509 0.754289667977968 -85.0197793645222 0.754289667977944 -85.0197793645217 0.536632991589403 5.19320453247642 
! Gamma         0                0                0                0                
! Port Impedance         50               0                50               0                
78.8                           0.535453894550838 4.57694446623947 0.754982637853295 -85.9021930276197 0.754982637853268 -85.9021930276192 0.535378910349031 4.41710846221904 
! Gamma         0                0                0                0                
! Port Impedance         50               0                50               0                
78.9                           0.534062811259917 3.80189834299273 0.755750862524294 -86.7866764972137 0.755750862524268 -86.7866764972133 0.533985476713077 3.63995464497218 
! Gamma         0                0                0                0                
! Port Impedance         50               0                50               0                
79                             0.532531464311647 3.02575682963629 0.75659396042428 -87.6734188397802 0.756593960424254 -87.6734188397797 0.53245167286652 2.86164356434792 
! Gamma         0                0                0                0                
! Port Impedance         50               0                50               0                
79.1                           0.530858764435272 2.24842619269762 0.75751150152321 -88.5626091609026 0.757511501523183 -88.562609160902 0.530776405734377 2.08207886579127 
! Gamma         0                0                0                0                
! Port Impedance         50               0                50               0                
79.2                           0.529043548454099 1.46981640678018 0.758503005121061 -89.4544365436305 0.758503005121034 -89.4544365436301 0.528958508124407 1.30116775242642 
! Gamma         0                0                0                0                
! Port Impedance         50               0                50               0                
79.3                           0.52708458063292 0.689841592367702 0.759567937463006 -90.3490899794802 0.759567937462985 -90.3490899794796 0.526996740060595 0.518821411969798 
! Gamma         0                0                0                0                
! Port Impedance         50               0                50               0                
79.4                           0.524980554233106 -0.0915795107535318 0.760705709177338 -91.2467582913934 0.760705709177315 -91.2467582913927 0.524889790323105 -0.265044521688474 
! Gamma         0                0                0                0                
! Port Impedance         50               0                50               0                
79.5                           0.522730093292596 -0.874523030422232 0.76191567253759 -92.1476300479591 0.761915672537567 -92.1476300479587 0.52263627821181 -1.05050946830298 
! Gamma         0                0                0                0                
! Port Impedance         50               0                50               0                
79.6                           0.520331754649365 -1.65905940495369 0.763197118550997 -93.0518934681911 0.763197118550974 -93.0518934681904 0.520234755551849 -1.83764735817252 
! Gamma         0                0                0                0                
! Port Impedance         50               0                50               0                
79.7                           0.517784030228423 -2.44525277704097 0.764549273876199 -93.9597363161321 0.764549273876176 -93.9597363161315 0.517683708961079 -2.62652604137027 
! Gamma         0                0                0                0                
! Port Impedance         50               0                50               0                
79.8                           0.515085349613829 -3.23316033331567 0.765971297573974 -94.871345784558 0.765971297573956 -94.8713457845574 0.514981562400743 -3.41720664405067 
! Gamma         0                0                0                0                
! Port Impedance         50               0                50               0                
79.9                           0.512234082928671 -4.02283158359741 0.76746227769575 -95.7869083670325 0.76746227769573 -95.786908367032 0.512126680032095 -4.20974286601408 
! Gamma         0                0                0                0                
! Port Impedance         50               0                50               0                
80                             0.509228544047444 -4.8143075731859 0.769021227715819 -96.7066097175649 0.769021227715804 -96.7066097175643 0.509117369403184 -5.0041802130582 
! Gamma         0                0                0                0                
! Port Impedance         50               0                50               0                
80.1                           0.506066994166771 -5.60762002078241 0.770647082814449 -97.6306344971118 0.770647082814432 -97.6306344971113 0.505951884991472 -5.8005551568949 
! Gamma         0                0                0                0                
! Port Impedance         50               0                50               0                
80.2                           0.502747645761888 -6.40279037374419 0.772338696020456 -98.5591662061729 0.772338696020438 -98.5591662061724 0.502628432129412 -6.59889421455796 
! Gamma         0                0                0                0                
! Port Impedance         50               0                50               0                
80.3                           0.499268666957815 -7.19982877135737 0.774094834223471 -99.4923870027202 0.774094834223453 -99.4923870027201 0.499145171341581 -7.3992129382307 
! Gamma         0                0                0                0                
! Port Impedance         50               0                50               0                
80.4                           0.495628186345634 -7.99873290563882 0.775914174067795 -100.430477504725 0.775914174067782 -100.430477504725 0.495500223123372 -8.20151480528791 
! Gamma         0                0                0                0                
! Port Impedance         50               0                50               0                
80.5                           0.491824298275761 -8.79948676781562 0.777795297741696 -101.373616576546 0.777795297741681 -101.373616576546 0.491691673192712 -9.0057899970155 
! Gamma         0                0                0                0                
! Port Impedance         50               0                50               0                
80.6                           0.487855068661552 -9.60205926705713 0.779736688678083 -102.321981098474 0.77973668867807 -102.321981098473 0.487717578247633 -9.81201405294259 
! Gamma         0                0                0                0                
! Port Impedance         50               0                50               0                
80.7                           0.483718541328052 -10.4064027061875 0.781736727184804 -103.275745718743 0.781736727184795 -103.275745718743 0.483575972263916 -10.6201463859252 
! Gamma         0                0                0                0                
! Port Impedance         50               0                50               0                
80.8                           0.479412744942082 -11.2124510969717 0.783793686025198 -104.235082587384 0.783793686025184 -104.235082587384 0.479264873368332 -11.430128641038 
! Gamma         0                0                0                0                
! Port Impedance         50               0                50               0                
80.9                           0.474935700561304 -12.0201182950439 0.785905725972174 -105.200161071289 0.785905725972171 -105.200161071289 0.474782291324357 -12.2418828788763 
! Gamma         0                0                0                0                
! Port Impedance         50               0                50               0                
81                             0.470285429841271 -12.8292959316067 0.788070891362051 -106.171147449976 0.788070891362044 -106.171147449976 0.470126235668458 -13.0553095610037 
! Gamma         0                0                0                0                
! Port Impedance         50               0                50               0                
81.1                           0.465459963940926 -13.6398511155408 0.790287105677061 -107.148204591557 0.790287105677058 -107.148204591557 0.465294724536397 -13.8702853118816 
! Gamma         0                0                0                0                
! Port Impedance         50               0                50               0                
81.2                           0.460457353168463 -14.451623875461 0.792552167188936 -108.131491608521 0.792552167188934 -108.131491608521 0.460285794220245 -14.686660427609 
! Gamma         0                0                0                0                
! Port Impedance         50               0                50               0                
81.3                           0.455275677410976 -15.2644243063752 0.794863744698898 -109.121163493035 0.794863744698902 -109.121163493035 0.455097509498149 -15.5042560970549 
! Gamma         0                0                0                0                
! Port Impedance         50               0                50               0                
81.4                           0.449913057393089 -16.0780293797962 0.797219373413103 -110.117370731556 0.797219373413105 -110.117370731557 0.449727974780422 -16.3228612952747 
! Gamma         0                0                0                0                
! Port Impedance         50               0                50               0                
81.5                           0.444367666811625 -16.8921793692308 0.799616450995758 -111.120258898703 0.79961645099576 -111.120258898704 0.444175346117053 -17.1422293023625 
! Gamma         0                0                0                0                
! Port Impedance         50               0                50               0                
81.6                           0.43863774539568 -17.7065738346584 0.802052233845966 -112.129968230437 0.802052233845969 -112.129968230438 0.438437844113848 -17.9620737927447 
! Gamma         0                0                0                0                
! Port Impedance         50               0                50               0                
81.7                           0.432721612944251 -18.5208670996311 0.804523833647737 -113.146633176797 0.804523833647744 -113.146633176797 0.432513767806647 -18.7820644301701 
! Gamma         0                0                0                0                
! Port Impedance         50               0                50               0                
81.8                           0.426617684397111 -19.3346631425518 0.807028214246105 -114.170381934582 0.807028214246116 -114.170381934582 0.426401509546215 -19.6018218918383 
! Gamma         0                0                0                0                
! Port Impedance         50               0                50               0                
81.9                           0.420324485999082 -20.1475098090937 0.809562188905934 -115.201335960585 0.809562188905943 -115.201335960586 0.420099570950317 -20.420912230796 
! Gamma         0                0                0                0                
! Port Impedance         50               0                50               0                
82                             0.413840672623855 -20.9588922349266 0.812122418013084 -116.239609466187 0.812122418013099 -116.239609466188 0.413606579984705 -21.2388404683019 
! Gamma         0                0                0                0                
! Port Impedance         50               0                50               0                
82.1                           0.407165046331159 -21.7682253462227 0.814705407280821 -117.285308894355 0.814705407280834 -117.285308894356 0.406921309241667 -22.0550432865618 
! Gamma         0                0                0                0                
! Port Impedance         50               0                50               0                
82.2                           0.400296576241528 -22.5748452787574 0.817307506527019 -118.338532380336 0.817307506527034 -118.338532380337 0.400042695494116 -22.8688806660711 
! Gamma         0                0                0                0                
! Port Impedance         50               0                50               0                
82.3                           0.393234419826365 -23.3779995236472 0.819924909090232 -119.399369197622 0.819924909090253 -119.399369197623 0.392969860615491 -23.679626279571 
! Gamma         0                0                0                0                
! Port Impedance         50               0                50               0                
82.4                           0.385977945729224 -24.1768355671706 0.822553651954424 -120.467899191028 0.822553651954441 -120.46789919103 0.385702133972457 -24.4864564146622 
! Gamma         0                0                0                0                
! Port Impedance         50               0                50               0                
82.5                           0.378526758258228 -24.9703877416576 0.825189616653615 -121.544192199036 0.825189616653631 -121.544192199038 0.378239076419352 -25.2884371474459 
! Gamma         0                0                0                0                
! Port Impedance         50               0                50               0                
82.6                           0.370880723721113 -25.7575619414987 0.827828531028197 -122.628307467886 0.827828531028218 -122.628307467888 0.370580506052887 -26.0845094274042 
! Gamma         0                0                0                0                
! Port Impedance         50               0                50               0                
82.7                           0.363039998816734 -26.5371177792105 0.830465971904508 -123.720293060207 0.830465971904527 -123.720293060209 0.362726525924746 -26.8734716556506 
! Gamma         0                0                0                0                
! Port Impedance         50               0                50               0                
82.8                           0.35500506135217 -27.3076476568448 0.833097368768106 -124.820185261321 0.833097368768129 -124.820185261323 0.354677553961853 -27.6539592400126 
! Gamma         0                0                0                0                
! Port Impedance         50               0                50               0                
82.9                           0.346776743628514 -28.0675521015282 0.835718008498974 -125.928007986706 0.835718008498998 -125.928007986709 0.346434355413175 -28.4244204851249 
! Gamma         0                0                0                0                
! Port Impedance         50               0                50               0                
83                             0.338356268935587 -28.8150105527469 0.838323041233587 -127.043772194433 0.838323041233611 -127.043772194436 0.33799807823388 -29.183088015617 
! Gamma         0                0                0                0                
! Port Impedance         50               0                50               0                
83.1                           0.329745291725331 -29.5479465821949 0.840907487414127 -128.167475306736 0.840907487414147 -128.16747530674 0.329370291939881 -29.9279447248301 
! Gamma         0                0                0                0                
! Port Impedance         50               0                50               0                
83.2                           0.320945942205427 -30.2639862603196 0.843466246079104 -129.299100645195 0.84346624607913 -129.299100645198 0.320553030628918 -30.6566829755728 
! Gamma         0                0                0                0                
! Port Impedance         50               0                50               0                
83.3                           0.311960876323603 -30.9604080375967 0.845994104442471 -130.438616884334 0.845994104442494 -130.438616884338 0.311548841081853 -31.3666554335501 
! Gamma         0                0                0                0                
! Port Impedance         50               0                50               0                
83.4                           0.302793332420078 -31.6340820565289 0.848485748798969 -131.585977528722 0.848485748798996 -131.585977528726 0.30236083715072 -32.0548154610591 
! Gamma         0                0                0                0                
! Port Impedance         50               0                50               0                
83.5                           0.293447196237514 -32.2813962163902 0.850935776783448 -132.7411204189  0.850935776783476 -132.741120418904 0.292992762033659 -32.7176444014595 
! Gamma         0                0                0                0                
! Port Impedance         50               0                50               0                
83.6                           0.283927076535969 -32.8981655269637 0.853338710999528 -133.903967271716 0.853338710999559 -133.90396727172 0.283449060572027 -33.3510622922227 
! Gamma         0                0                0                0                
! Port Impedance         50               0                50               0                
83.7                           0.274238394318759 -33.4795202415263 0.855689014019611 -135.07442326079 0.85568901401964 -135.074423260794 0.273734964433743 -33.9503174849831 
! Gamma         0                0                0                0                
! Port Impedance         50               0                50               0                
83.8                           0.264387489715335 -34.0197668579215 0.857981104743094 -136.252376642961 0.857981104743118 -136.252376642966 0.263856594050189 -34.5098492250796 
! Gamma         0                0                0                0                
! Port Impedance         50               0                50               0                
83.9                           0.254381752003826 -34.5122141874437 0.860209376083335 -137.437698436632 0.860209376083363 -137.437698436637 0.253821082563338 -35.0231153107514 
! Gamma         0                0                0                0                
! Port Impedance         50               0                50               0                
84                             0.244229780256022 -34.948954130657 0.86236821393617 -138.630242157907 0.862368213936196 -138.630242157912 0.243636728982359 -35.4823743165285 
! Gamma         0                0                0                0                
! Port Impedance         50               0                50               0                
84.1                           0.233941584898811 -35.3205833116249 0.864452017364156 -139.829843620316 0.86445201736418 -139.829843620321 0.233313190490394 -35.878408248859 
! Gamma         0                0                0                0                
! Port Impedance         50               0                50               0                
84.2                           0.223528844471817 -35.6158469561968 0.866455219911288 -141.036320803781 0.866455219911317 -141.036320803787 0.222861727748234 -36.2001665157461 
! Gamma         0                0                0                0                
! Port Impedance         50               0                50               0                
84.3                           0.213005237564472 -35.8211798807336 0.868372311942789 -142.24947379817 0.868372311942814 -142.249473798176 0.212295522664067 -36.4343051955221 
! Gamma         0                0                0                0                
! Port Impedance         50               0                50               0                
84.4                           0.202386878152698 -35.9201105642207 0.870197863884576 -143.469084826465 0.870197863884601 -143.469084826471 0.201630096271937 -36.5645860492233 
! Gamma         0                0                0                0                
! Port Impedance         50               0                50               0                
84.5                           0.191692894546054 -35.8924822544716 0.871926550216923 -144.694918352098 0.871926550216952 -144.694918352104 0.190883866359207 -36.5710865839901 
! Gamma         0                0                0                0                
! Port Impedance         50               0                50               0                
84.6                           0.180946209729424 -35.713429134436 0.873553174057572 -145.926721274476 0.873553174057587 -145.926721274482 0.180078902239656 -36.4291546226897 
! Gamma         0                0                0                0                
! Port Impedance         50               0                50               0                
84.7                           0.170174606735059 -35.3520253497318 0.875072692150984 -147.164223216053 0.875072692151006 -147.164223216059 0.169241960515698 -36.1080172669617 
! Gamma         0                0                0                0                
! Port Impedance         50               0                50               0                
84.8                           0.159412200661007 -34.7695012475529 0.876480240064079 -148.407136903593 0.876480240064104 -148.407136903599 0.158405925144055 -35.5689248949751 
! Gamma         0                0                0                0                
! Port Impedance         50               0                50               0                
84.9                           0.14870149416892 -33.9168998327772 0.877771157373343 -149.65515864543 0.87777115737336 -149.655158645437 0.147611833724203 -34.7626795191987 
! Gamma         0                0                0                0                
! Port Impedance         50               0                50               0                
85                             0.138096271370302 -32.7320435250828 0.878941012616202 -150.907968905646 0.878941012616224 -150.907968905652 0.13691175730477 -33.6263771117222 
! Gamma         0                0                0                0                
! Port Impedance         50               0                50               0                
85.1                           0.127665688508743 -31.1357396348203 0.87998562776984 -152.165232975107 0.879985627769856 -152.165232975114 0.12637291965285 -32.0792249314495 
! Gamma         0                0                0                0                
! Port Impedance         50               0                50               0                
85.2                           0.117500036615436 -29.0273758049253 0.88090110201402 -153.426601738305 0.880901102014032 -153.426601738312 0.116083588914847 -30.0174794799733 
! Gamma         0                0                0                0                
! Port Impedance         50               0                50               0                
85.3                           0.107718721742512 -26.2806743007489 0.881683834532163 -154.691712533852 0.881683834532171 -154.691712533859 0.106161401669429 -27.309130778673 
! Gamma         0                0                0                0                
! Port Impedance         50               0                50               0                
85.4                           0.0984808441392848 -22.7418458634998 0.882330546105496 -155.960190105438 0.882330546105508 -155.960190105444 0.0967647090856804 -23.790454285753 
! Gamma         0                0                0                0                
! Port Impedance         50               0                50               0                
85.5                           0.0899978732123462 -18.2354338856578 0.882838299260671 -157.231647638951 0.882838299260679 -157.231647638957 0.0881067634714113 -19.2698845504928 
! Gamma         0                0                0                0                
! Port Impedance         50               0                50               0                
85.6                           0.0825453036966546 -12.5881995972859 0.88320451674011 -158.505687880406 0.883204516740111 -158.505687880412 0.0804699389719296 -13.5507272629368 
! Gamma         0                0                0                0                
! Port Impedance         50               0                50               0                
85.7                           0.0764645176567687 -5.68593894448705 0.883426998078162 -159.781904328281 0.883426998078167 -159.781904328287 0.0742109075945238 -6.49100122870874 
! Gamma         0                0                0                0                
! Port Impedance         50               0                50               0                
85.8                           0.0721381092489553 2.42945827926104 0.883503934083417 -161.059882492904 0.883503934083422 -161.059882492909 0.0697377521977805 1.88678432708502 
! Gamma         0                0                0                0                
! Port Impedance         50               0                50               0                
85.9                           0.0699209074938353 11.4558034095796 0.883433919048819 -162.33920121463 0.883433919048815 -162.339201214636 0.0674363008853657 11.2688002527529 
! Gamma         0                0                0                0                
! Port Impedance         50               0                50               0                
86                             0.0700340874049714 20.8156283172326 0.88321596053641 -163.619434031742 0.883215960536405 -163.619434031747 0.0675502474864315 21.0214097350489 
! Gamma         0                0                0                0                
! Port Impedance         50               0                50               0                
86.1                           0.0724789191639925 29.8123055634011 0.882849486611038 -164.900150588322 0.882849486611038 -164.900150588327 0.0700804366508906 30.3699965530797 
! Gamma         0                0                0                0                
! Port Impedance         50               0                50               0                
86.2                           0.0770379205452871 37.8780407508312 0.882334350428365 -166.180918071793 0.882334350428353 -166.180918071798 0.0747863549950311 38.6925506422701 
! Gamma         0                0                0                0                
! Port Impedance         50               0                50               0                
86.3                           0.0833620813201612 44.7229653706837 0.881670832114655 -167.461302669388 0.881670832114654 -167.461302669393 0.0812880805926726 45.6896084544455 
! Gamma         0                0                0                0                
! Port Impedance         50               0                50               0                
86.4                           0.0910756644451533 50.3140884505193 0.880859637910183 -168.740871032569 0.880859637910175 -168.740871032574 0.0891847768405347 51.3485289338427 
! Gamma         0                0                0                0                
! Port Impedance         50               0                50               0                
86.5                           0.0998436012876788 54.7698296188249 0.879901896582074 -170.019191738265 0.879901896582059 -170.01919173827 0.0981264447670229 55.8155822954049 
! Gamma         0                0                0                0                
! Port Impedance         50               0                50               0                
86.6                           0.109395291728598 58.2644154123846 0.8787991531475  -171.295836735887 0.878799153147498 -171.29583673589 0.107835820964314 59.2881676787427 
! Gamma         0                0                0                0                
! Port Impedance         50               0                50               0                
86.7                           0.119522608849931 60.9727336410105 0.877553359981394 -172.57038276925 0.877553359981386 -172.570382769253 0.118103090022221 61.9569656482605 
! Gamma         0                0                0                0                
! Port Impedance         50               0                50               0                
86.8                           0.13006847081503 63.0474928398354 0.876166865415172 -173.84241276292 0.876166865415168 -173.842412762923 0.128771942212412 63.9843761044134 
! Gamma         0                0                0                0                
! Port Impedance         50               0                50               0                
86.9                           0.140914474393621 64.6138694521577 0.874642399963333 -175.111517162978 0.874642399963324 -175.111517162981 0.139725733150995 65.5011430938888 
! Gamma         0                0                0                0                
! Port Impedance         50               0                50               0                
87                             0.151970586519208 65.7715330870466 0.872983060341754 -176.377295222852 0.872983060341746 -176.377295222855 0.150876429552886 66.6099624578906 
! Gamma         0                0                0                0                
! Port Impedance         50               0                50               0                
87.1                           0.163167370079387 66.5989291957604 0.871192291466102 -177.639356225622 0.871192291466091 -177.639356225624 0.162156501340558 67.3908144143986 
! Gamma         0                0                0                0                
! Port Impedance         50               0                50               0                
87.2                           0.174450369598728 67.157666648475  0.869273866639078 -178.897320635058 0.869273866639068 -178.897320635059 0.173513182513918 67.9059939336058 
! Gamma         0                0                0                0                
! Port Impedance         50               0                50               0                
87.3                           0.185776125758065 67.4962803697592 0.867231866151946 179.849178831406 0.86723186615194 179.849178831405 0.184904458425953 68.2042519582207 
! Gamma         0                0                0                0                
! Port Impedance         50               0                50               0                
87.4                           0.1971093566486  67.6532329022703 0.865070654538306 178.60049621353  0.865070654538305 178.60049621353  0.196296261222982 68.3240154563294 
! Gamma         0                0                0                0                
! Port Impedance         50               0                50               0                
87.5                           0.208420957045467 67.6592312250492 0.862794856726233 177.356971407705 0.862794856726238 177.356971407705 0.207660497966792 68.2958287102472 
! Gamma         0                0                0                0                
! Port Impedance         50               0                50               0                
87.6                           0.219686567442235 67.5389894178001 0.860409333339189 176.118929358587 0.860409333339192 176.118929358588 0.218973651137492 68.1441860148871 
! Gamma         0                0                0                0                
! Port Impedance         50               0                50               0                
87.7                           0.230885540421171 67.3125634675386 0.857919155395718 174.886679345519 0.85791915539573 174.88667934552  0.230215774146102 67.888905200692  
! Gamma         0                0                0                0                
! Port Impedance         50               0                50               0                
87.8                           0.242000185620303 66.996362864425  0.85532957865453 173.660514365205 0.855329578654545 173.660514365206 0.241369761467771 67.546159996139  
! Gamma         0                0                0                0                
! Port Impedance         50               0                50               0                
87.9                           0.25301521153037 66.6039202557826 0.852646017843599 172.440710611108 0.852646017843612 172.44071061111  0.252420811430052 67.1292602085803 
! Gamma         0                0                0                0                
! Port Impedance         50               0                50               0                
88                             0.263917307552007 66.146480378038  0.84987402100151 171.227527049027 0.849874021001532 171.22752704903  0.263356025467233 66.6492453918269 
! Gamma         0                0                0                0                
! Port Impedance         50               0                50               0                
88.1                           0.274694826894384 65.6334537386518 0.847019244145663 170.021205087393 0.847019244145683 170.021205087396 0.274164104982528 66.115340042393  
! Gamma         0                0                0                0                
! Port Impedance         50               0                50               0                
88.2                           0.285337542618037 65.0727686455469 0.844087426465961 168.821968339952 0.844087426465991 168.821968339955 0.284835118685889 65.5353054058077 
! Gamma         0                0                0                0                
! Port Impedance         50               0                50               0                
88.3                           0.295836457185466 64.471146402192  0.841084366224947 167.630022477767 0.841084366224987 167.630022477771 0.295360321276479 64.9157135651412 
! Gamma         0                0                0                0                
! Port Impedance         50               0                50               0                
88.4                           0.306183651477005 63.8343180521717 0.838015897526007 166.445555166747 0.838015897526049 166.445555166752 0.30573200985168 64.2621626825248 
! Gamma         0                0                0                0                
! Port Impedance         50               0                50               0                
88.5                           0.316372163144374 63.1671963532486 0.834887868091041 165.268736086346 0.834887868091094 165.268736086351 0.315943408262085 63.5794473465579 
! Gamma         0                0                0                0                
! Port Impedance         50               0                50               0                
88.6                           0.326395886940195 62.4740132183841 0.831706118168418 164.099717024589 0.83170611816847 164.099717024595 0.325988572329633 62.8716944108876 
! Gamma         0                0                0                0                
! Port Impedance         50               0                50               0                
88.7                           0.336249491635904 61.7584303329254 0.828476460670975 162.938632044162 0.828476460671033 162.938632044168 0.335862310763047 62.1424721085264 
! Gamma         0                0                0                0                
! Port Impedance         50               0                50               0                
88.8                           0.345928349559537 61.0236287916457 0.825204662623581 161.785597714026 0.825204662623654 161.785597714033 0.345560117978198 61.394878319108  
! Gamma         0                0                0                0                
! Port Impedance         50               0                50               0                
88.9                           0.355428475815759 60.2723822148683 0.821896427979458 160.640713400791 0.821896427979538 160.640713400798 0.355078116025426 60.631612458384  
! Gamma         0                0                0                0                
! Port Impedance         50               0                50               0                
89                             0.36474647500414 59.5071167693046 0.818557381845798 159.504061613964 0.818557381845884 159.504061613972 0.364413003550093 59.85503441282   
! Gamma         0                0                0                0                
! Port Impedance         50               0                50               0                
89.1                           0.373879493806553 58.7299607424966 0.815193056141032 158.375708399138 0.815193056141126 158.375708399146 0.37356201024533 59.0672131589389 
! Gamma         0                0                0                0                
! Port Impedance         50               0                50               0                
89.2                           0.382825178225574 57.9427857324521 0.811808876689737 157.255703773228 0.811808876689838 157.255703773237 0.382522855648601 58.2699671168446 
! Gamma         0                0                0                0                
! Port Impedance         50               0                50               0                
89.3                           0.391581634562092 57.1472410669202 0.808410151745835 156.144082195938 0.808410151745947 156.144082195947 0.391293711426614 57.464897839448  
! Gamma         0                0                0                0                
! Port Impedance         50               0                50               0                
89.4                           0.400147393448627 56.3447827243438 0.805002061921545 155.040863071799 0.805002061921657 155.040863071808 0.399873166509515 56.6534182967952 
! Gamma         0                0                0                0                
! Port Impedance         50               0                50               0                
89.5                           0.408521376426515 55.5366977645607 0.801589651487183 153.946051277333 0.80158965148731 153.946051277343 0.408260194598881 55.8367767518253 
! Gamma         0                0                0                0                
! Port Impedance         50               0                50               0                
89.6                           0.416702864682914 54.7241250726704 0.79817782099708 152.859637708114 0.798177820997209 152.859637708124 0.416454123694916 55.0160770203447 
! Gamma         0                0                0                0                
! Port Impedance         50               0                50               0                
89.7                           0.424691469660527 53.9080730598373 0.7947713211878  151.781599840793 0.794771321187935 151.781599840804 0.42445460737891 54.1922957495898 
! Gamma         0                0                0                0                
! Port Impedance         50               0                50               0                
89.8                           0.43248710532408 53.0894348396073 0.791374748087997 150.711902305444 0.791374748088143 150.711902305454 0.432261597655046 53.3662972256677 
! Gamma         0                0                0                0                
! Port Impedance         50               0                50               0                
89.9                           0.440089961921819 52.2690012995672 0.78799253927352 149.650497463916 0.787992539273672 149.650497463926 0.439875319205131 52.5388461225193 
! Gamma         0                0                0                0                
! Port Impedance         50               0                50               0                
90                             0.4475004811192  51.4474724098797 0.784628971196999 148.597325990202 0.784628971197159 148.597325990212 0.447296244946757 51.7106185277311 
! Gamma         0                0                0                0                
! Port Impedance         50               0                50               0                
90.1                           0.454719332411605 50.625467047888  0.781288157518588 147.55231744918  0.781288157518758 147.552317449191 0.454525072812181 50.8822115190064 
! Gamma         0                0                0                0                
! Port Impedance         50               0                50               0                
90.2                           0.46174739074323 49.8035315680177 0.777974048362258 146.51539087042  0.777974048362436 146.515390870431 0.461562703684494 50.0541515158901 
! Gamma         0                0                0                0                
! Port Impedance         50               0                50               0                
90.3                           0.46858571527479 48.982147306049  0.774690430421828 145.486455314087 0.774690430422008 145.486455314098 0.468410220440431 49.2269015918883 
! Gamma         0                0                0                0                
! Port Impedance         50               0                50               0                
90.4                           0.475235529252536 48.1617371743949 0.771440927840741 144.465410426305 0.771440927840935 144.465410426316 0.475068868059109 48.4008679001474 
! Gamma         0                0                0                0                
! Port Impedance         50               0                50               0                
90.5                           0.481698200938367 47.342671478669  0.768229003790963 143.452146981669 0.768229003791157 143.45214698168  0.481540034761238 47.5764053400862 
! Gamma         0                0                0                0                
! Port Impedance         50               0                50               0                
90.6                           0.487975225564918 46.5252730643944 0.765057962677832 142.446547410887 0.765057962678032 142.446547410898 0.48782523414733 46.7538225712637 
! Gamma         0                0                0                0                
! Port Impedance         50               0                50               0                
90.7                           0.494068208282468 45.7098218851283 0.761930952900271 141.448486311836 0.761930952900474 141.448486311847 0.493926088305104 45.933386463611  
! Gamma         0                0                0                0                
! Port Impedance         50               0                50               0                
90.8                           0.4999788480654  44.8965590688981 0.758850970098293 140.457830942603 0.758850970098504 140.457830942614 0.499844311857223 45.1153260590243 
! Gamma         0                0                0                0                
! Port Impedance         50               0                50               0                
90.9                           0.505708922546686 44.0856905479323 0.755820860823118 139.474441695298 0.755820860823335 139.474441695309 0.505581696920249 44.2998361076912 
! Gamma         0                0                0                0                
! Port Impedance         50               0                50               0                
91                             0.51126027374862 43.277390306852  0.752843326568498 138.498172549724 0.752843326568719 138.498172549735 0.511140098945318 43.4870802329104 
! Gamma         0                0                0                0                
! Port Impedance         50               0                50               0                
91.1                           0.516634794677339 42.4718032963411 0.749920928105514 137.528871506153 0.749920928105736 137.528871506164 0.516521423410073 42.6771937702025 
! Gamma         0                0                0                0                
! Port Impedance         50               0                50               0                
91.2                           0.521834416748266 41.6690480524814 0.747056090066955 136.566380996686 0.747056090067183 136.566380996697 0.521727613330491 41.8702863198556 
! Gamma         0                0                0                0                
! Port Impedance         50               0                50               0                
91.3                           0.526861098008653 40.8692190562843 0.744251105731013 135.610538274862 0.74425110573124 135.610538274873 0.52676063756024 41.066444046513  
! Gamma         0                0                0                0                
! Port Impedance         50               0                50               0                
91.4                           0.531716812122906 40.0723888631559 0.741508141958021 134.661175783316 0.741508141958246 134.661175783326 0.531622479844445 40.2657317547442 
! Gamma         0                0                0                0                
! Port Impedance         50               0                50               0                
91.5                           0.536403538085588 39.2786100280375 0.738829244237608 133.718121499463 0.738829244237838 133.718121499472 0.536315128593812 39.4681947656434 
! Gamma         0                0                0                0                
! Port Impedance         50               0                50               0                
91.6                           0.540923250626824 38.4879168485538 0.736216341807361 132.781199259292 0.736216341807594 132.781199259301 0.540840567344631 38.6738606161879 
! Gamma         0                0                0                0                
! Port Impedance         50               0                50               0                
91.7                           0.545277911274321 37.7003269456493 0.733671252807631 131.850229059475 0.733671252807853 131.850229059484 0.545200765869796 37.8827406002919 
! Gamma         0                0                0                0                
! Port Impedance         50               0                50               0                
91.8                           0.549469460036337 36.9158426987297 0.731195689440457 130.925027338093 0.731195689440688 130.925027338101 0.549397671905683 37.0948311681214 
! Gamma         0                0                0                0                
! Port Impedance         50               0                50               0                
91.9                           0.55349980766994 36.1344525502623 0.728791263104073 130.005407234361 0.728791263104299 130.00540723437  0.553433203459927 36.3101151981992 
! Gamma         0                0                0                0                
! Port Impedance         50               0                50               0                
92                             0.557370828499173 35.3561321930051 0.726459489476992 129.091178827815 0.726459489477217 129.091178827823 0.557309241665173 35.5285631551186 
! Gamma         0                0                0                0                
! Port Impedance         50               0                50               0                
92.1                           0.561084353748247 34.580845651497  0.724201793529185 128.182149357464 0.724201793529404 128.182149357471 0.561027624144339 34.7501341441793 
! Gamma         0                0                0                0                
! Port Impedance         50               0                50               0                
92.2                           0.564642165355407 33.8085462681489 0.722019514439946 127.278123421477 0.72201951444016 127.278123421484 0.564590138853465 33.9747768730003 
! Gamma         0                0                0                0                
! Port Impedance         50               0                50               0                
92.3                           0.568045990233937 33.0391776031233 0.719913910404831 126.378903158012 0.719913910405042 126.378903158018 0.56799851836893 33.202430529048  
! Gamma         0                0                0                0                
! Port Impedance         50               0                50               0                
92.4                           0.571297494947498 32.2726742562252 0.717886163316163 125.484288407798 0.717886163316361 125.484288407805 0.571254434586516 32.4330255810919 
! Gamma         0                0                0                0                
! Port Impedance         50               0                50               0                
92.5                           0.574398280768068 31.5089626181723 0.715937383303622 124.594076859151 0.715937383303815 124.594076859157 0.574359493800855 31.6664845117449 
! Gamma         0                0                0                0                
! Port Impedance         50               0                50               0                
92.6                           0.57734987908573 30.7479615578782 0.714068613123438 123.708064176062 0.714068613123627 123.708064176068 0.577315232134727 30.9027224875606 
! Gamma         0                0                0                0                
! Port Impedance         50               0                50               0                
92.7                           0.580153747140648 29.9895830517363 0.712280832386027 122.826044110069 0.712280832386201 122.826044110074 0.580123111288768 30.1416479725102 
! Gamma         0                0                0                0                
! Port Impedance         50               0                50               0                
92.8                           0.582811264048808 29.2337327603416 0.710574961613762 121.947808596561 0.710574961613929 121.947808596565 0.582784514583284 29.3831632901457 
! Gamma         0                0                0                0                
! Port Impedance         50               0                50               0                
92.9                           0.585323727094228 28.4803105575936 0.708951866121548 121.07314783623  0.708951866121701 121.073147836234 0.58530074326509 28.6271651392605 
! Gamma         0                0                0                0                
! Port Impedance         50               0                50               0                
93                             0.58769234826166 27.7292110167022 0.707412359714098 120.201850362334 0.70741235971424 120.201850362337 0.587673013053502 27.8735450674618 
! Gamma         0                0                0                0                
! Port Impedance         50               0                50               0                
93.1                           0.589918250985052 26.9803238572422 0.705957208194699 119.333703094441 0.705957208194825 119.333703094444 0.589902450900834 27.1221899067011 
! Gamma         0                0                0                0                
! Port Impedance         50               0                50               0                
93.2                           0.592002467088268 26.2335343570913 0.704587132681137 118.468491379346 0.704587132681247 118.468491379348 0.591990091944095 26.3729821745009 
! Gamma         0                0                0                0                
! Port Impedance         50               0                50               0                
93.3                           0.593945933895992 25.4887237327892 0.703302812724942 117.60599901979  0.703302812725031 117.605999019792 0.593936876625785 25.6258004443411 
! Gamma         0                0                0                0                
! Port Impedance         50               0                50               0                
93.4                           0.595749491493888 24.7457694916298 0.702104889230731 116.746008291653 0.702104889230806 116.746008291655 0.595743647963022 24.8805196884369 
! Gamma         0                0                0                0                
! Port Impedance         50               0                50               0                
93.5                           0.597413880118505 24.0045457585775 0.700993967172759 115.888299950241 0.700993967172811 115.888299950242 0.597411148945533 24.1370115959336 
! Gamma         0                0                0                0                
! Port Impedance         50               0                50               0                
93.6                           0.598939737658656 23.2649235809283 0.699970618106005 115.032653226304 0.699970618106043 115.032653226304 0.598940020044282 23.3951448693775 
! Gamma         0                0                0                0                
! Port Impedance         50               0                50               0                
93.7                           0.600327597251324 22.5267712134863 0.699035382469331 114.178845812397 0.699035382469347 114.178845812397 0.600330796813861 22.6547855021764 
! Gamma         0                0                0                0                
! Port Impedance         50               0                50               0                
93.8                           0.60157788495644 21.7899543869003 0.698188771678162 113.326653840193 0.698188771678154 113.326653840193 0.601583907573006 21.9157970396421 
! Gamma         0                0                0                0                
! Port Impedance         50               0                50               0                
93.9                           0.60269091749618 21.0543365617144 0.697431270004197 112.475851849342 0.697431270004165 112.475851849341 0.602699671148944 21.1780408261198 
! Gamma         0                0                0                0                
! Port Impedance         50               0                50               0                
94                             0.603666900045737 20.319779170604  0.696763336239397 111.626212748471 0.696763336239335 111.62621274847  0.603678294672536 20.441376240634  
! Gamma         0                0                0                0                
! Port Impedance         50               0                50               0                
94.1                           0.604505924063832 19.5861418512257 0.696185405141262 110.777507768915 0.696185405141171 110.777507768914 0.604519871412508 19.7056609234329 
! Gamma         0                0                0                0                
! Port Impedance         50               0                50               0                
94.2                           0.605207965152584 18.8532826720754 0.695697888656111 109.929506411758 0.695697888656002 109.929506411757 0.605224378638401 18.9707509957888 
! Gamma         0                0                0                0                
! Port Impedance         50               0                50               0                
94.3                           0.605772880937675 18.1210583537413 0.695301176916594 109.081976388772 0.69530117691645 109.081976388771 0.605791675503201 18.2365012754048 
! Gamma         0                0                0                0                
! Port Impedance         50               0                50               0                
94.4                           0.606200408961191 17.3893244879592 0.694995639009232 108.234683557846 0.694995639009057 108.234683557844 0.606221500937998 17.502765489795  
! Gamma         0                0                0                0                
! Port Impedance         50               0                50               0                
94.5                           0.606490164580879 16.6579357569078 0.694781623507241 107.387391853487 0.694781623507035 107.387391853485 0.606513471552455 16.7693964900471 
! Gamma         0                0                0                0                
! Port Impedance         50               0                50               0                
94.6                           0.60664163887111 15.9267461552494 0.694659458763192 106.539863213021 0.69465945876295 106.53986321302  0.606667079536328 16.0362464674343 
! Gamma         0                0                0                0                
! Port Impedance         50               0                50               0                
94.7                           0.606654196522327 15.1956092175017 0.694629452955466 105.691857499087 0.694629452955189 105.691857499086 0.606681690558829 15.3031671754306 
! Gamma         0                0                0                0                
! Port Impedance         50               0                50               0                
94.8                           0.606527073737414 14.4643782534378 0.694691893881711 104.843132419077 0.694691893881401 104.843132419075 0.606556541664234 14.5700101597973 
! Gamma         0                0                0                0                
! Port Impedance         50               0                50               0                
94.9                           0.606259376125109 13.7329065943537 0.694847048491673 103.993443442176 0.694847048491318 103.993443442174 0.606290739163834 13.8366269995403 
! Gamma         0                0                0                0                
! Port Impedance         50               0                50               0                
95                             0.605850076592432 13.001047853202  0.69509516215102 103.142543714695 0.69509516215063 103.142543714694 0.605883256526158 13.1028695617135 
! Gamma         0                0                0                0                
! Port Impedance         50               0                50               0                
95.1                           0.605298013240005 12.268656201801  0.695436457626894 102.290183974406 0.695436457626469 102.290183974405 0.605332932269331 12.3685902732306 
! Gamma         0                0                0                0                
! Port Impedance         50               0                50               0                
95.2                           0.604601887266276 11.5355866685478 0.695871133784954 101.436112464646 0.695871133784488 101.436112464646 0.604638467861475 11.6336424130947 
! Gamma         0                0                0                0                
! Port Impedance         50               0                50               0                
95.3                           0.603760260888855 10.8016954603524 0.696399363986821 100.58007484899  0.696399363986313 100.580074848991 0.603798425637369 10.8978804287136 
! Gamma         0                0                0                0                
! Port Impedance         50               0                50               0                
95.4                           0.60277155529367 10.0668403128132 0.697021294175856 99.7218141273425 0.697021294175301 99.7218141273436 0.602811226741956 10.1611602802873 
! Gamma         0                0                0                0                
! Port Impedance         50               0                50               0                
95.5                           0.601634048625235 9.3308808730205  0.697737040638264 98.8610705543605 0.697737040637667 98.8610705543623 0.601675149113937 9.4233398176178  
! Gamma         0                0                0                0                
! Port Impedance         50               0                50               0                
95.6                           0.600345874034254 8.5936791197896  0.698546687425496 97.9975815611813 0.698546687424857 97.9975815611838 0.600388325525576 8.68427919409451 
! Gamma         0                0                0                0                
! Port Impedance         50               0                50               0                
95.7                           0.598905017801888 7.85509982660489 0.699450283422938 97.1310816814959 0.699450283422249 97.1310816814996 0.598948741697943 7.94384132309341 
! Gamma         0                0                0                0                
! Port Impedance         50               0                50               0                
95.8                           0.59730931756347 7.11501107308521 0.700447839049127 96.261302483098  0.700447839048394 96.2613024831026 0.597354234514279 7.20189238254685 
! Gamma         0                0                0                0                
! Port Impedance         50               0                50               0                
95.9                           0.595556460658198 6.37328481141512 0.701539322568538 95.3879725061119 0.701539322567758 95.387972506118  0.595602490357857 6.45830237408056 
! Gamma         0                0                0                0                
! Port Impedance         50               0                50               0                
96                             0.593643982635443 5.62979749487547 0.702724656000402 94.510817209214  0.702724655999576 94.5108172092215 0.593691043604845 5.71294574378353 
! Gamma         0                0                0                0                
! Port Impedance         50               0                50               0                
96.1                           0.59156926595279 4.88443077642245 0.704003710605072 93.6295589252495 0.704003710604196 93.6295589252581 0.591617275307124 4.96570207250264 
! Gamma         0                0                0                0                
! Port Impedance         50               0                50               0                
96.2                           0.589329538905881 4.13707228617129 0.705376301928853 92.743916827775  0.705376301927927 92.7439168277853 0.589378412104934 4.21645684443599 
! Gamma         0                0                0                0                
! Port Impedance         50               0                50               0                
96.3                           0.586921874835485 3.38761649768588 0.706842184387675 91.8536069101672 0.706842184386701 91.853606910179  0.586971525414549 3.46510230386061 
! Gamma         0                0                0                0                
! Port Impedance         50               0                50               0                
96.4                           0.584343191663094 2.63596569418059 0.708401045369514 90.9583419790774 0.70840104536849 90.9583419790908 0.584393530942089 2.71153841099384 
! Gamma         0                0                0                0                
! Port Impedance         50               0                50               0                
96.5                           0.581590251812808 1.88203104709141 0.710052498835345 90.0578316641457 0.71005249883427 90.0578316641611 0.581641188580888 1.95567390936084 
! Gamma         0                0                0                0                
! Port Impedance         50               0                50               0                
96.6                           0.578659662584246 1.12573382105221 0.711796078398448 89.1517824460461 0.711796078397332 89.1517824460633 0.578711102756919 1.19742751858834 
! Gamma         0                0                0                0                
! Port Impedance         50               0                50               0                
96.7                           0.575547877048859 0.367006721112592 0.71363122986215 88.2398977050834 0.713631229860982 88.2398977051028 0.57559972329429 0.436729268324282 
! Gamma         0                0                0                0                
! Port Impedance         50               0                50               0                
96.8                           0.572251195550423 -0.394204599907747 0.715557303196729 87.3218777927356 0.715557303195513 87.3218777927571 0.572303346881148 -0.326478008935848 
! Gamma         0                0                0                0                
! Port Impedance         50               0                50               0                
96.9                           0.568765767899378 -1.15793985362108 0.717573543937378 86.3974201287078 0.717573543936122 86.3974201287316 0.568818119225333 -1.09223700599871 
! Gamma         0                0                0                0                
! Port Impedance         50               0                50               0                
97                             0.56508759636067 -1.92422222477854 0.719679083986459 85.466219326248  0.719679083985159 85.466219326274  0.565140037998815 -1.86057406720234 
! Gamma         0                0                0                0                
! Port Impedance         50               0                50               0                
97.1                           0.561212539545257 -2.69305625020675 0.721872931805414 84.5279673486563 0.72187293180407 84.5279673486851 0.561264956680622 -2.6314970866682 
! Gamma         0                0                0                0                
! Port Impedance         50               0                50               0                
97.2                           0.557136317327072 -3.46442543797653 0.724153961984311 83.5823537001174 0.724153961982924 83.5823537001484 0.557188589419353 -3.40499314880043 
! Gamma         0                0                0                0                
! Port Impedance         50               0                50               0                
97.3                           0.552854516919623 -4.23828959243974 0.726520904180372 82.6290656541709 0.726520904178946 82.6290656542045 0.552906517048733 -4.18102587693903 
! Gamma         0                0                0                0                
! Port Impedance         50               0                50               0                
97.4                           0.548362600259889 -5.01458180569435 0.728972331420952 81.6677885233384 0.728972331419487 81.6677885233747 0.548414194403117 -4.9595324510146 
! Gamma         0                0                0                0                
! Port Impedance         50               0                50               0                
97.5                           0.543655912861801 -5.79320507000925 0.731506647771415 80.6982059736015 0.731506647769922 80.6982059736404 0.543706959094195 -5.74042024909361 
! Gamma         0                0                0                0                
! Port Impedance         50               0                50               0                
97.6                           0.538729694317214 -6.5740284587277 0.734122075374551 79.7200003876187 0.734122075373021 79.7200003876603 0.53878004192576 -6.52356306071185 
! Gamma         0                0                0                0                
! Port Impedance         50               0                50               0                
97.7                           0.533579090639269 -7.3568828147685 0.736816640875095 78.732853280732  0.736816640873544 78.7328532807767 0.533628579140286 -7.30879681156629 
! Gamma         0                0                0                0                
! Port Impedance         50               0                50               0                
97.8                           0.528199168661578 -8.14155587595719 0.739588161251524 77.7364457739722 0.739588161249947 77.7364457740189 0.52824762670916 -8.09591472931653 
! Gamma         0                0                0                0                
! Port Impedance         50               0                50               0                
97.9                           0.522584932726462 -8.92778675456791 0.742434229086875 76.7304591283985 0.742434229085282 76.7304591284479 0.522632176898308 -8.88466186845811 
! Gamma         0                0                0                0                
! Port Impedance         50               0                50               0                
98                             0.516731343917401 -9.71525967430789 0.745352197321605 75.7145753452181 0.745352197320007 75.7145753452701 0.516777177362406 -9.6747288981774 
! Gamma         0                0                0                0                
! Port Impedance         50               0                50               0                
98.1                           0.51063334211481 -10.5035968509419 0.748339163544255 74.688477836183  0.748339163542641 74.6884778362375 0.510677553044504 -10.4657450401794 
! Gamma         0                0                0                0                
! Port Impedance         50               0                50               0                
98.2                           0.504285871180635 -11.292350382231 0.751391953890087 73.6518521687923 0.75139195388847 73.6518521688489 0.504328231184099 -11.257270023033 
! Gamma         0                0                0                0                
! Port Impedance         50               0                50               0                
98.3                           0.497683907607055 -12.080992987912 0.754507106634229 72.6043868907804 0.75450710663262 72.604386890839  0.497724169765744 -12.0487848948234 
! Gamma         0                0                0                0                
! Port Impedance         50               0                50               0                
98.4                           0.490822492998079 -12.868907410175 0.757680855583589 71.5457744382709 0.757680855581991 71.5457744383315 0.490860389773467 -12.8396815057237 
! Gamma         0                0                0                0                
! Port Impedance         50               0                50               0                
98.5                           0.483696770791484 -13.6553742479582 0.760909113392027 70.4757121317889 0.760909113390449 70.4757121318513 0.483732011654167 -13.6292504351807 
! Gamma         0                0                0                0                
! Port Impedance         50               0                50               0                
98.6                           0.476302027673719 -14.4395579528667 0.764187454944672 69.3939032640506 0.764187454943128 69.3939032641139 0.476334296437506 -14.4166670930738 
! Gamma         0                0                0                0                
! Port Impedance         50               0                50               0                
98.7                           0.46863374019426 -15.2204906582756 0.767511100981075 68.3000582830535 0.767511100979568 68.3000582831173 0.468662692012654 -15.2009756681906 
! Gamma         0                0                0                0                
! Port Impedance         50               0                50               0                
98.8                           0.460687627150888 -15.9970534435322 0.770874902151791 67.1938960735054 0.77087490215033 67.1938960735693 0.460712885126184 -15.9810705279083 
! Gamma         0                0                0                0                
! Port Impedance         50               0                50               0                
98.9                           0.452459708398059 -16.7679545483472 0.774273323729925 66.07514533897   0.774273323728527 66.0751453390342 0.452480859744271 -16.7556745864663 
! Gamma         0                0                0                0                
! Port Impedance         50               0                50               0                
99                             0.443946370831227 -17.5317039439056 0.777700431226793 64.9435460863227 0.777700431225455 64.9435460863853 0.443962962521432 -17.523314050817 
! Gamma         0                0                0                0                
! Port Impedance         50               0                50               0                
99.1                           0.435144442428483 -18.2865835307361 0.78114987718965 63.7988512131501 0.781149877188392 63.7988512132116 0.435155976244085 -18.2822888168229 
! Gamma         0                0                0                0                
! Port Impedance         50               0                50               0                
99.2                           0.426051275396792 -19.0306120609613 0.78461488948845 62.6408281975953 0.78461488948728 62.6408281976544 0.426057202280183 -19.0306376162396 
! Gamma         0                0                0                0                
! Port Impedance         50               0                50               0                
99.3                           0.416664839686245 -19.7615036638638 0.788088261427166 61.4692608888006 0.7880882614261  61.4692608888561 0.416664553278728 -19.766096796252 
! Gamma         0                0                0                0                
! Port Impedance         50               0                50               0                
99.4                           0.406983828420957 -20.4766185748795 0.791562344042913 60.2839513945852 0.791562344041957 60.283951394637  0.406976657643513 -20.4860513342321 
! Gamma         0                0                0                0                
! Port Impedance         50               0                50               0                
99.5                           0.397007777173638 -21.1729043112584 0.795029040981724 59.0847220612531 0.795029040980897 59.0847220612997 0.396992977678357 -21.1874763327111 
! Gamma         0                0                0                0                
! Port Impedance         50               0                50               0                
99.6                           0.38673719951725 -21.8468250786952 0.798479806362342 57.8714175384487 0.798479806361653 57.8714175384889 0.386713943800077 -21.8668667791561 
! Gamma         0                0                0                0                
! Port Impedance         50               0                50               0                
99.7                           0.376173741967979 -22.4942766010181 0.801905646057801 56.6439069198508 0.801905646057266 56.643906919883  0.37614110788785 -22.5201527600007 
! Gamma         0                0                0                0                
! Port Impedance         50               0                50               0                
99.8                           0.365320362354871 -23.1104827978972 0.805297122837159 55.4020859481136 0.805297122836788 55.4020859481365 0.36527731974752 -23.1425965463658 
! Gamma         0                0                0                0                
! Port Impedance         50               0                50               0                
99.9                           0.354181536902731 -23.6898697394903 0.8086443658155  54.1458792699349 0.808644365815308 54.1458792699475 0.354126931907848 -23.7286669643539 
! Gamma         0                0                0                0                
! Port Impedance         50               0                50               0                
100                            0.342763503023452 -24.2259110113286 0.811937084657096 52.8752427244389 0.811937084657096 52.8752427244389 0.342696039658311 -24.2718851531903 
! Gamma         -0               -0               0                0                
! Port Impedance         50               0                50               0                
