! Touchstone file exported from HFSS 2026.1.0
!        File:           C:/ffzhzh/LocalFiles/Ansys_Project_Files/temp_train_TSV_RDL_185_1783654112_33328.aedt
!        Generated:      11:42:47 AM Jul 10, 2026
!        Design:         TSV_RDL
!        Project:        temp_train_TSV_RDL_185_1783654112_33328
!
! Variables:
!        h_bsmrdl = 2.72um
!        h_ox = 20um
!        h_rdl = 5um
!        h_sub = 61.2um
!        h_tmrdl = 2.96um
!        h_tsv = 61.2um
!        h_via = 3um
!        l_bsmrdl = 121.75um
!        l_sub = 3558.81um
!        l_tmrdl = 666.44um
!        m_sub = 200um
!        pitch = 54.93um
!        r_tsv = 6.49um
!        s_tmrdl = 10um
!        w_bsmrdl = 22.84um
!        w_sub = 500um
!        w_tmrdl = 19.76um
!        x_tsv_center1 = 676.32um
!        x_tsv_center2 = 820.91um
!        x_tsv_center3 = 1507.11um
!        x_tsv_center4 = 1651.7um
!        x_tsv_center5 = 2337.9um
!        x_tsv_center6 = 2482.49um
!
# GHz S MA R 50.000000
! Terminal data exported
! Port[1] = TM_RDL1_1_T1
! Port[2] = TM_RDL5_1_T1
0.1                            0.0251417715328608 36.1145421214724 0.979928481462627 -1.35560177273235 0.979928481462626 -1.35560177273234 0.0251417797719449 36.1145805432425 
! Gamma         0                0                0                0                
! Port Impedance         50               0                50               0                
0.2                            0.0365818935212056 53.287608018577  0.979073878134285 -2.69608052184131 0.979073878134284 -2.6960805218413 0.0365819301494924 53.2876554132532 
! Gamma         0                0                0                0                
! Port Impedance         50               0                50               0                
0.3                            0.0496883047204917 60.8866039262903 0.977909786268255 -4.01691999819492 0.977909786268255 -4.01691999819492 0.0496883757273187 60.8866270307151 
! Gamma         0                0                0                0                
! Port Impedance         50               0                50               0                
0.4                            0.0632022929994522 64.6519174473763 0.976588110951208 -5.32176980915867 0.976588110951207 -5.32176980915868 0.0632023790487512 64.6519073581389 
! Gamma         0                0                0                0                
! Port Impedance         50               0                50               0                
0.5                            0.0768113209137048 66.6457611683874 0.975163424570477 -6.61570705761626 0.975163424570476 -6.61570705761628 0.0768113915596757 66.6457261603097 
! Gamma         0                0                0                0                
! Port Impedance         50               0                50               0                
0.6                            0.0904293377019176 67.6837191053466 0.973638170288381 -7.90221915432505 0.973638170288381 -7.90221915432508 0.0904293635667948 67.6836726156539 
! Gamma         0                0                0                0                
! Port Impedance         50               0                50               0                
0.7                            0.104021669635664 68.1416923305459 0.971999076113928 -9.18307992451989 0.971999076113927 -9.18307992451994 0.104021626669943 68.1416469513566 
! Gamma         0                0                0                0                
! Port Impedance         50               0                50               0                
0.8                            0.117564786783219 68.2181089834571 0.970232785573078 -10.4589604088502 0.970232785573077 -10.4589604088502 0.117564656432471 68.218074798999  
! Gamma         0                0                0                0                
! Port Impedance         50               0                50               0                
0.9                            0.131038193757983 68.0292973640553 0.968330173328873 -11.7299420544869 0.968330173328872 -11.7299420544869 0.131037962011036 68.029282006708  
! Gamma         0                0                0                0                
! Port Impedance         50               0                50               0                
1                              0.144423241988793 67.6488796875961 0.966286505151636 -12.9958225889778 0.966286505151634 -12.9958225889778 0.144422898407587 67.6488888220674 
! Gamma         0                0                0                0                
! Port Impedance         50               0                50               0                
1.1                            0.157703080432223 67.1261111667606 0.964100524969181 -14.2562769091464 0.96410052496918 -14.2562769091465 0.157702617392284 67.1261489672484 
! Gamma         0                0                0                0                
! Port Impedance         50               0                50               0                
1.2                            0.17086262188494 66.4953371799577 0.961773496528738 -15.5109366151824 0.961773496528736 -15.5109366151824 0.170862034001117 66.4954067038761 
! Gamma         0                0                0                0                
! Port Impedance         50               0                50               0                
1.3                            0.183888410843148 65.7812878876964 0.959308453162254 -16.7594276195397 0.959308453162252 -16.7594276195398 0.1838876945203  65.7813913513994 
! Gamma         0                0                0                0                
! Port Impedance         50               0                50               0                
1.4                            0.196768443226251 65.0022382385594 0.956709665234891 -18.0013870818122 0.95670966523489 -18.0013870818122 0.196767596292029 65.0023772200187 
! Gamma         0                0                0                0                
! Port Impedance         50               0                50               0                
1.5                            0.209491984301272 64.1719897035456 0.953982276197647 -19.2364705010308 0.953982276197645 -19.2364705010309 0.209491005697698 64.1721652938524 
! Gamma         0                0                0                0                
! Port Impedance         50               0                50               0                
1.6                            0.222049408068282 63.301162217085  0.95113205613723 -20.4643543240945 0.951132056137228 -20.4643543240945 0.222048297590848 63.3013751360452 
! Gamma         0                0                0                0                
! Port Impedance         50               0                50               0                
1.7                            0.234432065393949 62.3980629434246 0.948165233177987 -21.6847366514185 0.948165233177985 -21.6847366514185 0.2344308234725  62.3983136292186 
! Gamma         0                0                0                0                
! Port Impedance         50               0                50               0                
1.8                            0.246632179961267 61.4692855069102 0.945088375041967 -22.8973372355603 0.945088375041965 -22.8973372355603 0.246630807478812 61.4695741863249 
! Gamma         0                0                0                0                
! Port Impedance         50               0                50               0                
1.9                            0.258642767729296 60.5201322258867 0.941908302410307 -24.1018972893599 0.941908302410305 -24.1018972893599 0.258641265875111 60.5204589695266 
! Gamma         0                0                0                0                
! Port Impedance         50               0                50               0                
2                              0.270457574763452 59.5549171484486 0.938632022317038 -25.2981792963094 0.938632022317037 -25.2981792963094 0.270455944916575 59.5552819140776 
! Gamma         0                0                0                0                
! Port Impedance         50               0                50               0                
2.1                            0.282071028635475 58.5771870904756 0.935266674227509 -26.4859668694196 0.935266674227507 -26.4859668694196 0.282069272274454 58.5775897568715 
! Gamma         0                0                0                0                
! Port Impedance         50               0                50               0                
2.2                            0.293478199374819 57.5898852293884 0.931819484329773 -27.6650646454207 0.931819484329771 -27.6650646454206 0.293476318009582 57.5903256225836 
! Gamma         0                0                0                0                
! Port Impedance         50               0                50               0                
2.3                            0.304674766822406 56.5954738095088 0.928297725393895 -28.8352981829134 0.928297725393893 -28.8352981829134 0.304672761944323 56.5959517229331 
! Gamma         0                0                0                0                
! Port Impedance         50               0                50               0                
2.4                            0.31565699203465 55.5960273292844 0.924708680687654 -29.9965138330682 0.924708680687652 -29.9965138330682 0.31565486508121 55.5965425390441 
! Gamma         0                0                0                0                
! Port Impedance         50               0                50               0                
2.5                            0.326421691053055 54.5933041453224 0.921059611122317 -31.1485785583495 0.921059611122316 -31.1485785583495 0.326419443384065 54.5938564216293 
! Gamma         0                0                0                0                
! Port Impedance         50               0                50               0                
2.6                            0.336966209884149 53.5888021097333 0.917357725202376 -32.2913796832   0.917357725202374 -32.2913796832   0.336963842766791 53.5893912253066 
! Gamma         0                0                0                0                
! Port Impedance         50               0                50               0                
2.7                            0.347288399938873 52.5838022669722 0.913610151575558 -33.4248245683745 0.913610151575557 -33.4248245683745 0.347285914539458 52.5844280030828 
! Gamma         0                0                0                0                
! Port Impedance         50               0                50               0                
2.8                            0.357386593480188 51.5794035297385 0.90982391409327 -34.5488402068541 0.909823914093269 -34.5488402068541 0.357383990860838 51.5800656804328 
! Gamma         0                0                0                0                
! Port Impedance         50               0                50               0                
2.9                            0.367259578843553 50.5765504734848 0.906005909340938 -35.6633727438983 0.906005909340937 -35.6633727438983 0.367256859962415 50.5772488484158 
! Gamma         0                0                0                0                
! Port Impedance         50               0                50               0                
3                              0.376906575345942 49.5760558328783 0.902162886610333 -36.768386926979 0.902162886610332 -36.7683869269789 0.376903741059851 49.5767902590846 
! Gamma         0                0                0                0                
! Port Impedance         50               0                50               0                
3.1                            0.38632720790104 48.578618882714  0.898301430278926 -37.8638654933569 0.898301430278925 -37.8638654933569 0.386324258969795 48.5793892056116 
! Gamma         0                0                0                0                
! Port Impedance         50               0                50               0                
3.2                            0.395521481423698 47.584840594056  0.894427944545173 -38.9498085041823 0.894427944545172 -38.9498085041823 0.39551841851532 47.5856466778516 
! Gamma         0                0                0                0                
! Port Impedance         50               0                50               0                
3.3                            0.404489755145543 46.5952362421452 0.890548640449313 -40.026232634459 0.890548640449312 -40.026232634459 0.404486578842062 46.5960779698322 
! Gamma         0                0                0                0                
! Port Impedance         50               0                50               0                
3.4                            0.413232716983349 45.6102459839292 0.886669525090496 -41.0931704282025 0.886669525090495 -41.0931704282024 0.413229427786775 45.6111232569886 
! Gamma         0                0                0                0                
! Port Impedance         50               0                50               0                
3.5                            0.421751358107979 44.6302438045894 0.882796392934434 -42.1506695277898 0.882796392934433 -42.1506695277898 0.421747956446227 44.631156542491  
! Gamma         0                0                0                0                
! Port Impedance         50               0                50               0                
3.6                            0.430046947858643 43.6555451433111 0.8789348190923  -43.1987918859599 0.878934819092299 -43.1987918859598 0.430043434091251 43.6564932828855 
! Gamma         0                0                0                0                
! Port Impedance         50               0                50               0                
3.7                            0.438121009138103 42.6864134410014 0.875090154441444 -44.237612968252 0.875090154441444 -44.2376129682519 0.438117383561636 42.687396935736  
! Gamma         0                0                0                0                
! Port Impedance         50               0                50               0                
3.8                            0.44597529441139 41.7230658011317 0.871267522451606 -45.2672209529378 0.871267522451605 -45.2672209529378 0.445971557264478 41.7240846204304 
! Gamma         0                0                0                0                
! Port Impedance         50               0                50               0                
3.9                            0.453611762415453 40.7656779153104 0.867471817576382 -46.2877159347365 0.867471817576381 -46.2877159347365 0.453607913883419 40.7667320437459 
! Gamma         0                0                0                0                
! Port Impedance         50               0                50               0                
4                              0.46103255567095 39.8143883746131 0.863707705068465 -47.2992091378451 0.863707705068465 -47.2992091378451 0.461028595890039 39.8154778111908 
! Gamma         0                0                0                0                
! Port Impedance         50               0                50               0                
4.1                            0.468239978871122 38.869302463921  0.859979622078143 -48.3018221430797 0.859979622078143 -48.3018221430797 0.468235907932323 38.8704272213712 
! Gamma         0                0                0                0                
! Port Impedance         50               0                50               0                
4.2                            0.475236478206824 37.9304955179332 0.856291779897418 -49.2956861332244 0.856291779897418 -49.2956861332244 0.475232296159307 37.9316556220392 
! Gamma         0                0                0                0                
! Port Impedance         50               0                50               0                
4.3                            0.482024621671779 36.9980159028967 0.852648167216519 -50.2809411600277 0.852648167216519 -50.2809411600277 0.482020328525984 36.9992113918657 
! Gamma         0                0                0                0                
! Port Impedance         50               0                50               0                
4.4                            0.488607080378284 36.0718876765417 0.849052554265155 -51.2577354356821 0.849052554265155 -51.2577354356821 0.48860267610867 36.0731186004218 
! Gamma         0                0                0                0                
! Port Impedance         50               0                50               0                
4.5                            0.494986610900907 35.152112969522  0.845508497717367 -52.2262246510662 0.845508497717367 -52.2262246510662 0.494982095448418 35.1533793896672 
! Gamma         0                0                0                0                
! Port Impedance         50               0                50               0                
4.6                            0.501166038654484 34.2386741243201 0.842019346245977 -53.1865713225287 0.842019346245977 -53.1865713225287 0.501161411928734 34.239976112903  
! Gamma         0                0                0                0                
! Port Impedance         50               0                50               0                
4.7                            0.507148242302718 33.3315356216769 0.838588246620218 -54.1389441685378 0.838588246620217 -54.1389441685377 0.507143504183954 33.3328732612486 
! Gamma         0                0                0                0                
! Port Impedance         50               0                50               0                
4.8                            0.512936139185097 32.4306458198471 0.835218150247934 -55.0835175171208 0.835218150247934 -55.0835175171208 0.512931289525953 32.4320192029427 
! Gamma         0                0                0                0                
! Port Impedance         50               0                50               0                
4.9                            0.518532671742463 31.5359385281141 0.831911820071637 -56.0204707446615 0.831911820071637 -56.0204707446615 0.518527710369536 31.5373477569021 
! Gamma         0                0                0                0                
! Port Impedance         50               0                50               0                
5                              0.523940794915393 30.6473344328462 0.828671837735547 -56.9499877463095 0.828671837735547 -56.9499877463095 0.523935721630673 30.6487796188194 
! Gamma         0                0                0                0                
! Port Impedance         50               0                50               0                
5.1                            0.529163464484511 29.7647423917876 0.825500610948422 -57.8722564379886 0.825500610948422 -57.8722564379886 0.529158279066682 29.7662236554935 
! Gamma         0                0                0                0                
! Port Impedance         50               0                50               0                
5.2                            0.534203626317777 28.8880606101446 0.822400380974423 -58.7874682897561 0.822400380974423 -58.7874682897561 0.534198328523415 28.8895780809523 
! Gamma         0                0                0                0                
! Port Impedance         50               0                50               0                
5.3                            0.539064206486674 28.0171777102563 0.819373230191387 -59.6958178900679 0.819373230191387 -59.6958178900679 0.539058796051366 28.0187315261585 
! Gamma         0                0                0                0                
! Port Impedance         50               0                50               0                
5.4                            0.543748102210936 27.1519737051641 0.816421089662635 -60.5975025403398 0.816421089662635 -60.5975025403398 0.543742578850328 27.1535640126111 
! Gamma         0                0                0                0                
! Port Impedance         50               0                50               0                
5.5                            0.548258173589828 26.2923208851541 0.813545746674824 -61.4927218790554 0.813545746674825 -61.4927218790554 0.548252537000627 26.2939478389182 
! Gamma         0                0                0                0                
! Port Impedance         50               0                50               0                
5.6                            0.552597236077098 25.4380846253025 0.810748852200317 -62.3816775345639 0.810748852200317 -62.3816775345639 0.552591485938041 25.4397483883705 
! Gamma         0                0                0                0                
! Port Impedance         50               0                50               0                
5.7                            0.556768053656307 24.5891241211653 0.808031928248023 -63.2645728056183 0.808031928248023 -63.2645728056183 0.55676218962911 24.5908248646569 
! Gamma         0                0                0                0                
! Port Impedance         50               0                50               0                
5.8                            0.560773332673357 23.7452930589967 0.805396375071826 -64.1416123686422 0.805396375071826 -64.1416123686422 0.560767354403649 23.7470309621077 
! Gamma         0                0                0                0                
! Port Impedance         50               0                50               0                
5.9                            0.564615716283505 22.9064402262287 0.802843478210303 -65.0130020106579 0.802843478210303 -65.0130020106579 0.564609623401771 22.9082154761966 
! Gamma         0                0                0                0                
! Port Impedance         50               0                50               0                
6                              0.568297779471014 22.0724100673823 0.80037441533574 -65.8789483867807 0.800374415335741 -65.8789483867807 0.56829157159354 22.0742228594735 
! Gamma         0                0                0                0                
! Port Impedance         50               0                50               0                
6.1                            0.571822024600687 21.2430431900923 0.797990262894254 -66.73965880116  0.797990262894254 -66.73965880116  0.57181570133053 21.2448937276084 
! Gamma         0                0                0                0                
! Port Impedance         50               0                50               0                
6.2                            0.575190877461865 20.4181768254973 0.795692002522271 -67.5953410102413 0.795692002522272 -67.5953410102414 0.575184438389843 20.420065319801  
! Gamma         0                0                0                0                
! Port Impedance         50               0                50               0                
6.3                            0.578406683767   19.597645246877  0.793480527227734 -68.4462030472256 0.793480527227735 -68.4462030472256 0.578400128472713 19.5995719174343 
! Gamma         0                0                0                0                
! Port Impedance         50               0                50               0                
6.4                            0.581471706068548 18.7812801500801 0.791356647327064 -69.2924530666114 0.791356647327064 -69.2924530666114 0.581465034121441 18.7832452245201 
! Gamma         0                0                0                0                
! Port Impedance         50               0                50               0                
6.5                            0.584388121059695 17.9689109989996 0.789321096131368 -70.1342992077234 0.789321096131368 -70.1342992077234 0.584381332020148 17.9709147131885 
! Gamma         0                0                0                0                
! Port Impedance         50               0                50               0                
6.6                            0.58715801722622 17.1603653390842 0.787374535377439 -70.9719494761541 0.78737453537744 -70.9719494761541 0.587151110646703 17.1624079372146 
! Gamma         0                0                0                0                
! Port Impedance         50               0                50               0                
6.7                            0.589783392818719 16.355469081645  0.785517560400917 -71.8056116420732 0.785517560400917 -71.8056116420732 0.589776368244976 16.3575508163391 
! Gamma         0                0                0                0                
! Port Impedance         50               0                50               0                
6.8                            0.592266154116225 15.5540467615046 0.783750705050521 -72.6354931543895 0.783750705050522 -72.6354931543896 0.592259011088516 15.5561678939303 
! Gamma         0                0                0                0                
! Port Impedance         50               0                50               0                
6.9                            0.594608113954196 14.7559217703475 0.782074446343601 -73.461801069786 0.782074446343602 -73.461801069786 0.594600852008598 14.7580825703474 
! Gamma         0                0                0                0                
! Port Impedance         50               0                50               0                
7                              0.596810990491708 13.9609165679604 0.7804892088643  -74.2847419956832 0.7804892088643  -74.2847419956832 0.596803609161457 13.9631173141931 
! Gamma         0                0                0                0                
! Port Impedance         50               0                50               0                
7.1                            0.598876406194507 13.1688528733981 0.778995368906569 -75.1045220462243 0.77899536890657 -75.1045220462244 0.598868905011412 13.1710938534905 
! Gamma         0                0                0                0                
! Port Impedance         50               0                50               0                
7.2                            0.600805887012417 12.3795518379696 0.777593258364952 -75.9213468104126 0.777593258364952 -75.9213468104126 0.600798265508318 12.3818333486814 
! Gamma         0                0                0                0                
! Port Impedance         50               0                50               0                
7.3                            0.602600861731352 11.5928342018163 0.776283168376612 -76.7354213315689 0.776283168376613 -76.7354213315689 0.602593119439642 11.5951565492152 
! Gamma         0                0                0                0                
! Port Impedance         50               0                50               0                
7.4                            0.604262661481896 10.8085204357377 0.775065352718506 -77.5469500973181 0.775065352718507 -77.5469500973181 0.604254797939107 10.8108839353853 
! Gamma         0                0                0                0                
! Port Impedance         50               0                50               0                
7.5                            0.605792519388106 10.0264308698176 0.773940030963839 -78.3561370393443 0.77394003096384 -78.3561370393444 0.605784534135539 10.0288358469659 
! Gamma         0                0                0                0                
! Port Impedance         50               0                50               0                
7.6                            0.607191570341772 9.24638581031183 0.772907391402142 -79.1631855421975 0.772907391402143 -79.1631855421975 0.607183462927197 9.24883260011071 
! Gamma         0                0                0                0                
! Port Impedance         50               0                50               0                
7.7                            0.608460850888961 8.46820564617277 0.771967593727313 -79.9682984604616 0.771967593727314 -79.9682984604617 0.608452620868373 8.47069459388719 
! Gamma         0                0                0                0                
! Port Impedance         50               0                50               0                
7.8                            0.609601299217171 7.69171094651101 0.771120771497969 -80.7716781436342 0.77112077149797 -80.7716781436342 0.609592946156593 7.69424240774897 
! Gamma         0                0                0                0                
! Port Impedance         50               0                50               0                
7.9                            0.610613755232862 6.91672255022627 0.770367034374291 -81.5735264680921 0.770367034374292 -81.5735264680921 0.610605278710212 6.91929689117706 
! Gamma         0                0                0                0                
! Port Impedance         50               0                50               0                
8                              0.611498960720547 6.14306164897896 0.769706470135383 -82.3740448755526 0.769706470135384 -82.3740448755527 0.611490360327552 6.14567924666184 
! Gamma         0                0                0                0                
! Port Impedance         50               0                50               0                
8.1                            0.612257559575997 5.37054986461934 0.769139146480862 -83.1734344174627 0.769139146480863 -83.1734344174628 0.61224883492016 5.37321110714274 
! Gamma         0                0                0                0                
! Port Impedance         50               0                50               0                
8.2                            0.612890098107394 4.5990093221434  0.768665112620126 -83.9718958047761 0.768665112620126 -83.9718958047761 0.612881248814   4.60171460897485 
! Gamma         0                0                0                0                
! Port Impedance         50               0                50               0                
8.3                            0.613397025399557 3.82826271920275 0.768284400652324 -84.769629462599 0.768284400652325 -84.769629462599 0.613388051113735 3.83101246144978 
! Gamma         0                0                0                0                
! Port Impedance         50               0                50               0                
8.4                            0.613778693737613 3.05813339315912 0.76799702673969 -85.5668355892083 0.767997026739691 -85.5668355892084 0.613769594126425 3.06092801386127 
! Gamma         0                0                0                0                
! Port Impedance         50               0                50               0                
8.5                            0.614035359087642 2.28844538664275 0.767802992076403 -86.3637142189601 0.767802992076404 -86.3637142189602 0.614026133842209 2.2912853210752  
! Gamma         0                0                0                0                
! Port Impedance         50               0                50               0                
8.6                            0.614167181633036 1.51902351254788 0.767702283654676 -87.1604652886241 0.767702283654677 -87.1604652886242 0.614157830470699 1.52190920853695 
! Gamma         0                0                0                0                
! Port Impedance         50               0                50               0                
8.7                            0.614174226366428 0.749693419376672 0.767694874829264 -87.9572887066929 0.767694874829265 -87.957288706693 0.614164749032923 0.752625337627725 
! Gamma         0                0                0                0                
! Port Impedance         50               0                50               0                
8.8                            0.614056463738182 -0.0197183421741107 0.767780725681011 -88.7543844252219 0.767780725681012 -88.7543844252219 0.614046860009837 -0.0167397277358289 
! Gamma         0                0                0                0                
! Port Impedance         50               0                50               0                
8.9                            0.613813770363511 -0.789384250502379 0.767959783179529 -89.5519525137668 0.76795978317953 -89.551952513767 0.613804040049444 -0.786358452377348 
! Gamma         0                0                0                0                
! Port Impedance         50               0                50               0                
9                              0.613445929791402 -1.55947574139343 0.768231981144483 -90.3501932349878 0.768231981144484 -90.3501932349879 0.613436072735724 -1.5564022581392 
! Gamma         0                0                0                0                
! Port Impedance         50               0                50               0                
9.1                            0.612952633339565 -2.33016313244867 0.768597240004395 -91.1493071214904 0.768597240004396 -91.1493071214905 0.612942649423571 -2.32704144829611 
! Gamma         0                0                0                0                
! Port Impedance         50               0                50               0                
9.2                            0.612333481000713 -3.10161554278401 0.769055466351232 -91.9494950534767 0.769055466351234 -91.9494950534768 0.612323370145052 -3.09844512723755 
! Gamma         0                0                0                0                
! Port Impedance         50               0                50               0                
9.3                            0.6115879824265  -3.87400080712963 0.769606552288466 -92.7509583367702 0.769606552288467 -92.7509583367703 0.611577744593303 -3.87078111455043 
! Gamma         0                0                0                0                
! Port Impedance         50               0                50               0                
9.4                            0.610715557996482 -4.64748538345658 0.770250374569616 -93.5538987807748 0.770250374569617 -93.5538987807749 0.61070519319146 -4.64421585262742 
! Gamma         0                0                0                0                
! Port Impedance         50               0                50               0                
9.5                            0.609715539980552 -5.42223425324718 0.770986793523712 -94.3585187759184 0.770986793523712 -94.3585187759185 0.60970504825502 -5.41891430691769 
! Gamma         0                0                0                0                
! Port Impedance         50               0                50               0                
9.6                            0.608587173804239 -6.19841081351327 0.771815651763443 -95.1650213701153 0.771815651763444 -95.1650213701155 0.608576555257071 -6.19503985792399 
! Gamma         0                0                0                0                
! Port Impedance         50               0                50               0                
9.7                            0.60732961942737 -6.97617675965155 0.772736772671152 -95.9736103437683 0.772736772671153 -95.9736103437685 0.607318874206856 -6.97275418403507 
! Gamma         0                0                0                0                
! Port Impedance         50               0                50               0                
9.8                            0.605941952847541 -7.75569195820621 0.773749958657212 -96.7844902828111 0.773749958657212 -96.7844902828111 0.605931081153137 -7.7522171342634 
! Gamma         0                0                0                0                
! Port Impedance         50               0                50               0                
9.9                            0.604423167740875 -8.53711430858808 0.774854989184722 -97.5978666492669 0.774854989184723 -97.5978666492671 0.604412169824824 -8.53358658993711 
! Gamma         0                0                0                0                
! Port Impedance         50               0                50               0                
10                             0.60277217725354 -9.32059959277431 0.776051618553874 -98.4139458487762 0.776051618553875 -98.4139458487762 0.602761053422335 -9.31701831437008 
! Gamma         0                0                0                0                
! Port Impedance         50               0                50               0                
10.1                           0.600988100285999 -10.1073432135227 0.77732982713747 -99.2328126233308 0.77732982713747 -99.2328126233307 0.60097684851709 -10.1037076556981 
! Gamma         0                0                0                0                
! Port Impedance         50               0                50               0                
10.2                           0.599069076211933 -10.896658995729 0.778697208615467 -100.054749050358 0.778697208615474 -100.054749050357 0.599057696447806 -10.8929684076427 
! Gamma         0                0                0                0                
! Port Impedance         50               0                50               0                
10.3                           0.597013656837976 -11.6887192207748 0.780153246038472 -100.879953766281 0.780153246038476 -100.879953766281 0.597002149059552 -11.6849728243511 
! Gamma         0                0                0                0                
! Port Impedance         50               0                50               0                
10.4                           0.594820303318302 -12.4836949864059 0.781697377563906 -101.708625360618 0.781697377563907 -101.708625360618 0.594808667546564 -12.4798919748423 
! Gamma         0                0                0                0                
! Port Impedance         50               0                50               0                
10.5                           0.592487387315813 -13.2817560608918 0.783328993012051 -102.540962335428 0.783328993012047 -102.540962335428 0.592475623613559 -13.277895597051 
! Gamma         0                0                0                0                
! Port Impedance         50               0                50               0                
10.6                           0.590013192328575 -14.0830707191562 0.785047430200597 -103.377163054442 0.785047430200598 -103.377163054442 0.590001300802314 -14.0791519338357 
! Gamma         0                0                0                0                
! Port Impedance         50               0                50               0                
10.7                           0.587395915201649 -14.8878055592038 0.786851971057021 -104.217425681105 0.786851971057017 -104.217425681105 0.587383896003635 -14.8838275492705 
! Gamma         0                0                0                0                
! Port Impedance         50               0                50               0                
10.8                           0.584633667845871 -15.6961252970372 0.788741837508608 -105.061948104755 0.788741837508607 -105.061948104755 0.584621521176284 -15.692087123415 
! Gamma         0                0                0                0                
! Port Impedance         50               0                50               0                
10.9                           0.581724479186597 -16.5081925381141 0.790716187151016 -105.910927854137 0.790716187151011 -105.910927854136 0.581712205295899 -16.504093223612 
! Gamma         0                0                0                0                
! Port Impedance         50               0                50               0                
11                             0.57866629736696 -17.324167523241 0.792774108696777 -106.764561997414 0.792774108696772 -106.764561997414 0.578653896558405 -17.3200060502055 
! Gamma         0                0                0                0                
! Port Impedance         50               0                50               0                
11.1                           0.575456992231603 -18.1442078466175 0.794914617206696 -107.623047027845 0.794914617206695 -107.623047027844 0.57544446486395 -18.1399831543942 
! Gamma         0                0                0                0                
! Port Impedance         50               0                50               0                
11.2                           0.572094358118388 -18.9684681435533 0.797136649108073 -108.486578734231 0.797136649108072 -108.48657873423 0.572081704608786 -18.9641791257377 
! Gamma         0                0                0                0                
! Port Impedance         50               0                50               0                
11.3                           0.568576116986999 -19.7970997451529 0.799439057005348 -109.355352055273 0.79943905700534 -109.355352055272 0.568563337814092 -19.7927452466106 
! Gamma         0                0                0                0                
! Port Impedance         50               0                50               0                
11.4                           0.564899921914801 -20.630250297019 0.801820604290459 -110.229560916926 0.801820604290458 -110.229560916925 0.564887017622039 -20.6258291106522 
! Gamma         0                0                0                0                
! Port Impedance         50               0                50               0                
11.5                           0.561063360991651 -21.468063338742 0.804279959562082 -111.109398051846 0.804279959562077 -111.109398051845 0.561050332190839 -21.4635742019749 
! Gamma         0                0                0                0                
! Port Impedance         50               0                50               0                
11.6                           0.557063961646661 -22.3106778406241 0.80681569086518 -111.995054800023 0.806815690865175 -111.995054800022 0.557050809021745 -22.3061194315805 
! Gamma         0                0                0                0                
! Port Impedance         50               0                50               0                
11.7                           0.552899195441045 -23.1582276937275 0.8094262597647  -112.88672088969 0.809426259764697 -112.886720889689 0.552885919752159 -23.153598627065 
! Gamma         0                0                0                0                
! Port Impedance         50               0                50               0                
11.8                           0.548566483362243 -24.0108411489185 0.812110015269956 -113.784584197619 0.812110015269955 -113.784584197618 0.54855308545003 -24.0061399712849 
! Gamma         0                0                0                0                
! Port Impedance         50               0                50               0                
11.9                           0.544063201655327 -24.8686402001088 0.814865187629263 -114.688830487924 0.814865187629266 -114.688830487923 0.544049682445549 -24.8638653851764 
! Gamma         0                0                0                0                
! Port Impedance         50               0                50               0                
12                             0.539386688228371 -25.7317399063421 0.817689882017543 -115.599643128526 0.81768988201754 -115.599643128525 0.539373048736836 -25.7268898493745 
! Gamma         0                0                0                0                
! Port Impedance         50               0                50               0                
12.1                           0.534534249668832 -26.6002476467447 0.820582072143425 -116.517202784482 0.820582072143427 -116.517202784481 0.53452049100665 -26.5953206586414 
! Gamma         0                0                0                0                
! Port Impedance         50               0                50               0                
12.2                           0.529503168908083 -27.4742623016154 0.823539593805891 -117.441687087418 0.823539593805884 -117.441687087417 0.529489292287265 -27.4692566023733 
! Gamma         0                0                0                0                
! Port Impedance         50               0                50               0                
12.3                           0.52429071357097 -28.3538733520647 0.826560138434879 -118.373270280393 0.826560138434876 -118.373270280393 0.524276720310428 -28.3487870635871 
! Gamma         0                0                0                0                
! Port Impedance         50               0                50               0                
12.4                           0.518894145046653 -29.2391598895977 0.829641246654663 -119.312122837591 0.829641246654657 -119.312122837591 0.518880036578588 -29.233991027771 
! Gamma         0                0                0                0                
! Port Impedance         50               0                50               0                
12.5                           0.513310728315812 -30.1301895258258 0.83278030191332 -120.258411058336 0.832780301913318 -120.258411058336 0.513296506192559 -30.124935991773 
! Gamma         0                0                0                0                
! Port Impedance         50               0                50               0                
12.6                           0.507537742567781 -31.0270171910693 0.835974524226799 -121.212296635065 0.835974524226791 -121.212296635064 0.507523408469119 -31.0216767614757 
! Gamma         0                0                0                0                
! Port Impedance         50               0                50               0                
12.7                           0.501572492638916 -31.9296838089002 0.839220964090853 -122.173936195004 0.839220964090851 -122.173936195004 0.501558048379902 -31.9242541252909 
! Gamma         0                0                0                0                
! Port Impedance         50               0                50               0                
12.8                           0.495412321300776 -32.8382148316335 0.842516496619914 -123.143480815483 0.842516496619909 -123.143480815482 0.495397768840149 -32.8326933884633 
! Gamma         0                0                0                0                
! Port Impedance         50               0                50               0                
12.9                           0.489054622423229 -33.7526186193074 0.845857815976735 -124.121075512975 0.84585781597674 -124.121075512974 0.48903996387243 -33.7470027507025 
! Gamma         0                0                0                0                
! Port Impedance         50               0                50               0                
13                             0.482496855033418 -34.6728846417155 0.849241430162881 -125.106858706201 0.849241430162877 -125.106858706201 0.482482092666298 -34.6671715066794 
! Gamma         0                0                0                0                
! Port Impedance         50               0                50               0                
13.1                           0.475736558286634 -35.5989814794288 0.852663656244755 -126.10096165382 0.852663656244753 -126.10096165382 0.475721694549929 -35.593168045294 
! Gamma         0                0                0                0                
! Port Impedance         50               0                50               0                
13.2                           0.468771367359447 -36.5308545953216 0.856120616096096 -127.103507867532 0.856120616096096 -127.103507867532 0.468756404884092 -36.5249376191931 
! Gamma         0                0                0                0                
! Port Impedance         50               0                50               0                
13.3                           0.461599030268976 -37.4684238426991 0.859608232742246 -128.114612501674 0.859608232742242 -128.114612501674 0.461583971882387 -37.4623998505881 
! Gamma         0                0                0                0                
! Port Impedance         50               0                50               0                
13.4                           0.454217425614942 -38.4115806694383 0.863122227396831 -129.134381720726 0.863122227396834 -129.134381720726 0.454202274354375 -38.4054459327355 
! Gamma         0                0                0                0                
! Port Impedance         50               0                50               0                
13.5                           0.446624581233199 -39.3601849692986 0.866658117285747 -130.16291204647 0.866658117285746 -130.16291204647 0.446609340360332 -39.3539354781674 
! Gamma         0                0                0                0                
! Port Impedance         50               0                50               0                
13.6                           0.438818693740776 -40.3140615212832 0.870211214357029 -131.200289686906 0.870211214357026 -131.200289686906 0.438803366757702 -40.3076929544791 
! Gamma         0                0                0                0                
! Port Impedance         50               0                50               0                
13.7                           0.430798148943361 -41.2729959451061 0.873776624978404 -132.246589849438 0.873776624978405 -132.246589849438 0.430782739610212 -41.2665036356308 
! Gamma         0                0                0                0                
! Port Impedance         50               0                50               0                
13.8                           0.422561543066664 -42.2367300847205 0.877349250726363 -133.301876041228 0.877349250726365 -133.301876041228 0.422546055421107 -42.2301089806005 
! Gamma         0                0                0                0                
! Port Impedance         50               0                50               0                
13.9                           0.414107704763512 -43.2049567115378 0.88092379037164 -134.366199360066 0.880923790371639 -134.366199360066 0.41409214314246 -43.1982013308793 
! Gamma         0                0                0                0                
! Port Impedance         50               0                50               0                
14                             0.405435717839279 -44.1773134132   0.884494743165744 -135.439597779537 0.884494743165744 -135.439597779537 0.405420086903188 -44.1704177924856 
! Gamma         0                0                0                0                
! Port Impedance         50               0                50               0                
14.1                           0.396544944629729 -45.1533755008602 0.888056413531533 -136.522095432725 0.888056413531529 -136.522095432726 0.396529249389962 -45.1463331352361 
! Gamma         0                0                0                0                
! Port Impedance         50               0                50               0                
14.2                           0.387435049958253 -46.1326477256989 0.891602917257353 -137.613701899146 0.89160291725735 -137.613701899146 0.387419295808105 -46.1254514997205 
! Gamma         0                0                0                0                
! Port Impedance         50               0                50               0                
14.3                           0.378106025594669 -47.11455454082  0.895128189289079 -138.714411500072 0.895128189289078 -138.714411500072 0.378090218344781 -47.1071966477699 
! Gamma         0                0                0                0                
! Port Impedance         50               0                50               0                
14.4                           0.368558215136394 -48.0984285736389 0.89862599320727 -139.824202607852 0.898625993207265 -139.824202607853 0.368542361055457 -48.0909004210893 
! Gamma         0                0                0                0                
! Port Impedance         50               0                50               0                
14.5                           0.358792339236331 -49.0834968807725 0.902089932467028 -140.943036975248 0.902089932467025 -140.943036975248 0.358776445098237 -49.0757889794849 
! Gamma         0                0                0                0                
! Port Impedance         50               0                50               0                
14.6                           0.348809521112521 -50.0688644343949 0.905513463466706 -142.070859091228 0.905513463466706 -142.070859091228 0.348793594251389 -50.0609662669194 
! Gamma         0                0                0                0                
! Port Impedance         50               0                50               0                
14.7                           0.338611312295037 -51.053494125072 0.908889910497341 -143.207595570023 0.90888991049734 -143.207595570024 0.338595360669938 -51.0453939894443 
! Gamma         0                0                0                0                
! Port Impedance         50               0                50               0                
14.8                           0.328199718599889 -52.0361823456   0.912212482608219 -144.353154580544 0.912212482608218 -144.353154580545 0.328183750871626 -52.0278671682781 
! Gamma         0                0                0                0                
! Port Impedance         50               0                50               0                
14.9                           0.317577226373211 -53.0155289209619 0.915474292405122 -145.507425323535 0.915474292405116 -145.507425323536 0.317561251996135 -53.006984031485 
! Gamma         0                0                0                0                
! Port Impedance         50               0                50               0                
15                             0.30674682912945 -53.9898997386583 0.918668376776191 -146.670277564017 0.918668376776191 -146.670277564018 0.306730858462252 -53.9811085962785 
! Gamma         0                0                0                0                
! Port Impedance         50               0                50               0                
15.1                           0.295712054826018 -54.9573798634558 0.92178771951715 -147.841561226669 0.921787719517142 -147.841561226669 0.295696099266607 -54.9483237229992 
! Gamma         0                0                0                0                
! Port Impedance         50               0                50               0                
15.2                           0.284476994190499 -55.9157141195699 0.924825275801456 -149.021106061796 0.924825275801449 -149.021106061796 0.28446106634177 -55.9063716196756 
! Gamma         0                0                0                0                
! Port Impedance         50               0                50               0                
15.3                           0.273046330769906 -56.8622309831363 0.92777399841405 -150.208721389456 0.927773998414045 -150.208721389456 0.273030444645486 -56.8525776343542 
! Gamma         0                0                0                0                
! Port Impedance         50               0                50               0                
15.4                           0.261425373743059 -57.7937439817231 0.930626865638022 -151.404195929064 0.93062686563802 -151.404195929064 0.261409545025362 -57.7837515240096 
! Gamma         0                0                0                0                
! Port Impedance         50               0                50               0                
15.5                           0.249620095086676 -58.7064223841987 0.933376910653986 -152.607297721485 0.93337691065398 -152.607297721485 0.249604341454172 -58.6960579720663 
! Gamma         0                0                0                0                
! Port Impedance         50               0                50               0                
15.6                           0.237637173508916 -59.5956193659932 0.93601725228139 -153.817774150144 0.936017252281384 -153.817774150144 0.237621515056187 -59.5848445232955 
! Gamma         0                0                0                0                
! Port Impedance         50               0                50               0                
15.7                           0.225484048817048 -60.4556403711004 0.93854112686096 -155.035352067085 0.938541126860951 -155.035352067085 0.225468508600944 -60.4444096335793 
! Gamma         0                0                0                0                
! Port Impedance         50               0                50               0                
15.8                           0.21316899233004 -61.2794259284619 0.940941921047743 -156.259738029165 0.940941921047737 -156.259738029165 0.213153597089924 -61.2676850565615 
! Gamma         0                0                0                0                
! Port Impedance         50               0                50               0                
15.9                           0.200701202030529 -62.0581097784979 0.943213205256479 -157.490618648716 0.943213205256471 -157.490618648716 0.200685983152987 -62.0457933687456 
! Gamma         0                0                0                0                
! Port Impedance         50               0                50               0                
16                             0.188090936165855 -62.7803914247352 0.945348767474966 -158.727661061995 0.945348767474961 -158.727661061995 0.188075930999458 -62.767419663721 
! Gamma         0                0                0                0                
! Port Impedance         50               0                50               0                
16.1                           0.175349707396215 -63.4316260005168 0.947342647138339 -159.970513517639 0.947342647138331 -159.970513517639 0.175334961078354 -63.4179001714734 
! Gamma         0                0                0                0                
! Port Impedance         50               0                50               0                
16.2                           0.162490574065862 -63.9924721606358 0.94918916873785 -161.218806086115 0.949189168737844 -161.218806086115 0.162476142117181 -63.9778682941089 
! Gamma         0                0                0                0                
! Port Impedance         50               0                50               0                
16.3                           0.149528591057906 -64.4368283777001 0.950882974822995 -162.472151489837 0.950882974822989 -162.472151489837 0.149514543159459 -64.4211880719577 
! Gamma         0                0                0                0                
! Port Impedance         50               0                50               0                
16.4                           0.136481530848508 -64.7285848593922 0.952419058045839 -163.730146052254 0.952419058045832 -163.730146052254 0.136467956499192 -64.7117016664668 
! Gamma         0                0                0                0                
! Port Impedance         50               0                50               0                
16.5                           0.123371079096806 -64.8163283104342 0.95379279189223 -164.992370762763 0.953792791892225 -164.992370762763 0.12335809636879 -64.7979269689836 
! Gamma         0                0                0                0                
! Port Impedance         50               0                50               0                
16.6                           0.110224901150532 -64.6243524696761 0.954999959746257 -166.258392452845 0.954999959746251 -166.258392452845 0.110212670761959 -64.604056243258 
! Gamma         0                0                0                0                
! Port Impedance         50               0                50               0                
16.7                           0.0970803933361343 -64.0366665343868 0.956036781942283 -167.527765077394 0.956036781942277 -167.527765077394 0.0970691422857733 -64.013944194271 
! Gamma         0                0                0                0                
! Port Impedance         50               0                50               0                
16.8                           0.083991904277201 -62.8669752102851 0.956899940473477 -168.80003109375 0.956899940473472 -168.80003109375 0.0839819675991312 -62.8410525146263 
! Gamma         0                0                0                0                
! Port Impedance         50               0                50               0                
16.9                           0.0710456528936972 -60.7988068658532 0.957586601046548 -170.07472292962 0.957586601046543 -170.07472292962 0.0710375517286839 -60.7685171314832 
! Gamma         0                0                0                0                
! Port Impedance         50               0                50               0                
17                             0.0583932415882015 -57.2583459210034 0.958094432199634 -171.351364529783 0.95809443219963 -171.351364529784 0.0583878377677178 -57.2218919384419 
! Gamma         0                0                0                0                
! Port Impedance         50               0                50               0                
17.1                           0.046334317357672 -51.1318398150459 0.958421621233253 -172.629472970353 0.958421621233248 -172.629472970353 0.0463331297843868 -51.0865528538609 
! Gamma         0                0                0                0                
! Port Impedance         50               0                50               0                
17.2                           0.0355365651295212 -40.1781376212146 0.958566886742554 -173.908560128329 0.958566886742549 -173.908560128329 0.0355423492388254 -40.1213055427157 
! Gamma         0                0                0                0                
! Port Impedance         50               0                50               0                
17.3                           0.0275760596865976 -20.5970407582421 0.95852948758195 -175.188134393388 0.958529487581946 -175.188134393388 0.0275929458907417 -20.5338655295219 
! Gamma         0                0                0                0                
! Port Impedance         50               0                50               0                
17.4                           0.0253184003045475 8.10779267006493 0.958309228139859 -176.467702408179 0.958309228139855 -176.467702408179 0.0253470289955204 8.14859856177171 
! Gamma         0                0                0                0                
! Port Impedance         50               0                50               0                
17.5                           0.030076691062346 34.0882503839089 0.957906459850515 -177.746770822974 0.957906459850512 -177.746770822974 0.0301093721106509 34.0951247794952 
! Gamma         0                0                0                0                
! Port Impedance         50               0                50               0                
17.6                           0.0393680952468124 49.9285456906638 0.957322078920841 -179.024848050305 0.957322078920838 -179.024848050305 0.0393995819477543 49.920984836764  
! Gamma         0                0                0                0                
! Port Impedance         50               0                50               0                
17.7                           0.0507349995467276 58.6905866402603 0.956557520301766 179.698553994804 0.956557520301764 179.698553994804 0.0507644503635658 58.6798737394682 
! Gamma         0                0                0                0                
! Port Impedance         50               0                50               0                
17.8                           0.0630330159877233 63.6576083504375 0.955614747984251 178.42391818314  0.955614747984249 178.42391818314  0.063060721383707 63.6472198868292 
! Gamma         0                0                0                0                
! Port Impedance         50               0                50               0                
17.9                           0.0757752735807008 66.5530281926047 0.954496241749289 177.151720501886 0.954496241749287 177.151720501886 0.0758016105875186 66.5438415418076 
! Gamma         0                0                0                0                
! Port Impedance         50               0                50               0                
18                             0.0887336936051819 68.2372182598466 0.95320498054741 175.882428440528 0.953204980547409 175.882428440528 0.0887589584880409 68.2293518323437 
! Gamma         0                0                0                0                
! Port Impedance         50               0                50               0                
18.1                           0.101787680668882 69.1646755715958 0.951744422725582 174.616499444352 0.951744422725581 174.616499444353 0.101812089044077 69.158035952598  
! Gamma         0                0                0                0                
! Port Impedance         50               0                50               0                
18.2                           0.114865981689224 69.5925482642656 0.95011848335714 173.354379446763 0.950118483357139 173.354379446763 0.11488968975168 69.5869952354558 
! Gamma         0                0                0                0                
! Port Impedance         50               0                50               0                
18.3                           0.127922257065068 69.675616264724  0.948331508962723 172.096501490507 0.948331508962724 172.096501490507 0.127945379553808 69.6710127030459 
! Gamma         0                0                0                0                
! Port Impedance         50               0                50               0                
18.4                           0.140923837292781 69.5120686891098 0.946388249936645 170.843284446645 0.946388249936645 170.843284446645 0.140946460069617 69.5082940752869 
! Gamma         0                0                0                0                
! Port Impedance         50               0                50               0                
18.5                           0.153846122539768 69.1670040506335 0.944293831013197 169.595131838718 0.944293831013198 169.595131838718 0.153868311073022 69.1639562611142 
! Gamma         0                0                0                0                
! Port Impedance         50               0                50               0                
18.6                           0.166669602086779 68.6852168869446 0.942053720121188 168.352430778176 0.942053720121189 168.352430778177 0.166691407182963 68.6828104214521 
! Gamma         0                0                0                0                
! Port Impedance         50               0                50               0                
18.7                           0.179378177861316 68.0985196910887 0.939673695982099 167.115551015639 0.9396736959821  167.115551015639 0.179399639593425 68.0966830942573 
! Gamma         0                0                0                0                
! Port Impedance         50               0                50               0                
18.8                           0.191958176378508 67.4301255159576 0.93715981480827 165.884844111141 0.937159814808271 165.884844111141 0.19197932682794 67.4287988997883 
! Gamma         0                0                0                0                
! Port Impedance         50               0                50               0                
18.9                           0.20439774245102 66.6973738866437 0.934518376452387 164.660642725062 0.934518376452388 164.660642725062 0.204418607657916 66.6965068083691 
! Gamma         0                0                0                0                
! Port Impedance         50               0                50               0                
19                             0.216686453538281 65.9134838851821 0.931755890348996 163.443260030056 0.931755890348998 163.443260030056 0.216707054914235 65.9130336084807 
! Gamma         0                0                0                0                
! Port Impedance         50               0                50               0                
19.1                           0.228815066067982 65.0887150642572 0.92887904157322 162.232989242992 0.928879041573223 162.232989242992 0.228835421436863 65.0886451599491 
! Gamma         0                0                0                0                
! Port Impedance         50               0                50               0                
19.2                           0.240775342958317 64.2311563002287 0.925894657321997 161.030103274687 0.925894657322   161.030103274687 0.240795467335114 64.2314355269173 
! Gamma         0                0                0                0                
! Port Impedance         50               0                50               0                
19.3                           0.252559932255886 63.3472742344727 0.92280967409971 159.834854494112 0.922809674099714 159.834854494112 0.252579838437826 63.3478756431498 
! Gamma         0                0                0                0                
! Port Impedance         50               0                50               0                
19.4                           0.264162278532333 62.4423024461186 0.91963110586376 158.647474602725 0.919631105863763 158.647474602725 0.264181977553297 62.4432026616899 
! Gamma         0                0                0                0                
! Port Impedance         50               0                50               0                
19.5                           0.275576555558762 61.5205227318174 0.916366013357255 157.468174613765 0.916366013357259 157.468174613765 0.275596057042685 61.521701373836  
! Gamma         0                0                0                0                
! Port Impedance         50               0                50               0                
19.6                           0.286797612930395 60.5854718154757 0.913021474826132 156.297144930549 0.913021474826137 156.297144930549 0.286816925368933 60.5869110284852 
! Gamma         0                0                0                0                
! Port Impedance         50               0                50               0                
19.7                           0.297820931890166 59.640095577188  0.909604558287629 155.134555517254 0.909604558287632 155.134555517255 0.297840062862901 59.6417796476446 
! Gamma         0                0                0                0                
! Port Impedance         50               0                50               0                
19.8                           0.30864258723587 58.6868657353727 0.906122295486409 153.980556155194 0.906122295486415 153.980556155194 0.308661543586368 58.6887807772782 
! Gamma         0                0                0                0                
! Port Impedance         50               0                50               0                
19.9                           0.319259213255822 57.7278692611375 0.90258165764487 152.835276777221 0.902581657644872 152.835276777221 0.319278001233426 57.7300029564919 
! Gamma         0                0                0                0                
! Port Impedance         50               0                50               0                
20                             0.329667972337297 56.7648777164438 0.898989533085027 151.698827872736 0.89898953308503 151.698827872736 0.329686597712031 56.7672190996947 
! Gamma         0                0                0                0                
! Port Impedance         50               0                50               0                
20.1                           0.339866525359925 55.799401623378  0.895352706772198 150.571300955625 0.895352706772201 150.571300955624 0.339884993516135 55.8019409013834 
! Gamma         0                0                0                0                
! Port Impedance         50               0                50               0                
20.2                           0.349853003302646 54.8327335417622 0.891677841804972 149.452769087478 0.891677841804974 149.452769087478 0.349871319315676 54.8354619425941 
! Gamma         0                0                0                0                
! Port Impedance         50               0                50               0                
20.3                           0.359625979708314 53.865982536387  0.887971462852569 148.343287448556 0.887971462852571 148.343287448556 0.359644148407522 53.8688921816909 
! Gamma         0                0                0                0                
! Port Impedance         50               0                50               0                
20.4                           0.369184443796942 52.900102011894  0.884239941519528 147.242893949111 0.884239941519532 147.242893949111 0.369202469817665 52.9031858085985 
! Gamma         0                0                0                0                
! Port Impedance         50               0                50               0                
20.5                           0.37852777411847 51.9359123903877 0.880489483598841 146.151609873977 0.880489483598842 146.151609873977 0.378545661945002 51.9391639383926 
! Gamma         0                0                0                0                
! Port Impedance         50               0                50               0                
20.6                           0.387655712703008 50.974119742884  0.876726118158473 145.069440553613 0.876726118158477 145.069440553613 0.387673466704177 50.9775332560212 
! Gamma         0                0                0                0                
! Port Impedance         50               0                50               0                
20.7                           0.396568339710298 50.015331219411  0.87295568839227 143.996376055176 0.872955688392274 143.996376055176 0.396585964169017 50.0189014574738 
! Gamma         0                0                0                0                
! Port Impedance         50               0                50               0                
20.8                           0.405266048607896 49.0600679257185 0.869183844154868 142.932391887599 0.869183844154873 142.932391887599 0.405283547745652 49.0637901357817 
! Gamma         0                0                0                0                
! Port Impedance         50               0                50               0                
20.9                           0.413749521923326 48.1087757476806 0.865416036091126 141.877449715062 0.865416036091129 141.877449715062 0.413766899920555 48.1126456132388 
! Gamma         0                0                0                0                
! Port Impedance         50               0                50               0                
21                             0.422019707623358 47.1618345138643 0.86165751126358 140.831498073707 0.861657511263582 140.831498073707 0.422036968636323 47.1658481105962 
! Gamma         0                0                0                0                
! Port Impedance         50               0                50               0                
21.1                           0.430077796175371 46.2195658027948 0.857913310176488 139.794473086908 0.857913310176489 139.794473086908 0.430094944350194 46.2237195599502 
! Gamma         0                0                0                0                
! Port Impedance         50               0                50               0                
21.2                           0.437925198343791 45.2822396372002 0.854188265091962 138.766299174855 0.854188265091962 138.766299174855 0.437942237828051 45.2865303037932 
! Gamma         0                0                0                0                
! Port Impedance         50               0                50               0                
21.3                           0.445563523769807 44.3500802580261 0.850486999532144 137.746889754658 0.850486999532146 137.746889754658 0.445580458722146 44.3545048731403 
! Gamma         0                0                0                0                
! Port Impedance         50               0                50               0                
21.4                           0.452994560376139 43.4232711325873 0.846813928861451 136.736147927667 0.846813928861456 136.736147927667 0.453011394974186 43.4278269992213 
! Gamma         0                0                0                0                
! Port Impedance         50               0                50               0                
21.5                           0.460220254631204 42.5019593212296 0.843173261844134 135.733967151056 0.843173261844136 135.733967151056 0.460236993078088 42.5066439831976 
! Gamma         0                0                0                0                
! Port Impedance         50               0                50               0                
21.6                           0.467242692699115 41.5862593032995 0.839569003074713 134.740231891212 0.839569003074714 134.740231891212 0.467259339228825 41.5910705247765 
! Gamma         0                0                0                0                
! Port Impedance         50               0                50               0                
21.7                           0.474064082494007 40.6762563445904 0.836004956182184 133.754818256797 0.836004956182187 133.754818256797 0.474080641375771 40.681192091959  
! Gamma         0                0                0                0                
! Port Impedance         50               0                50               0                
21.8                           0.480686736649451 39.7720094736254 0.83248472771274 132.777594609752 0.832484727712743 132.777594609752 0.480703212191315 39.7770678993268 
! Gamma         0                0                0                0                
! Port Impedance         50               0                50               0                
21.9                           0.487113056406352 38.8735541223162 0.829011731600387 131.808422152825 0.829011731600389 131.808422152825 0.487129452958088 38.8787335504568 
! Gamma         0                0                0                0                
! Port Impedance         50               0                50               0                
22                             0.493345516415999 37.9809044770325 0.825589194139762 130.847155492555 0.825589194139762 130.847155492554 0.493361838371477 37.9862033905289 
! Gamma         0                0                0                0                
! Port Impedance         50               0                50               0                
22.1                           0.499386650448721 37.0940555784628 0.822220159380772 129.893643176874 0.822220159380773 129.893643176874 0.499402902247834 37.0994726075428 
! Gamma         0                0                0                0                
! Port Impedance         50               0                50               0                
22.2                           0.505239037993168 36.2129852024278 0.818907494870099 128.94772820682  0.818907494870101 128.94772820682  0.505255224123404 36.2185191143264 
! Gamma         0                0                0                0                
! Port Impedance         50               0                50               0                
22.3                           0.510905291726444 35.3376555487517 0.815653897670187 128.009248522021 0.815653897670192 128.009248522021 0.510921416724168 35.3433052384669 
! Gamma         0                0                0                0                
! Port Impedance         50               0                50               0                
22.4                           0.516388045831174 34.4680147611574 0.812461900591919 127.078037459853 0.812461900591918 127.078037459853 0.516404114282705 34.4737792431442 
! Gamma         0                0                0                0                
! Port Impedance         50               0                50               0                
22.5                           0.521689945132222 33.603998297742  0.809333878582564 126.153924188372 0.809333878582561 126.153924188372 0.521705961674736 33.6098766984446 
! Gamma         0                0                0                0                
! Port Impedance         50               0                50               0                
22.6                           0.52681363502289 32.7455301687877 0.806272055216067 125.236734113238 0.806272055216069 125.236734113239 0.526829604345202 32.7515217199174 
! Gamma         0                0                0                0                
! Port Impedance         50               0                50               0                
22.7                           0.53176175214828 31.8925240563221 0.803278509237845 124.326289259026 0.803278509237849 124.326289259026 0.531777678991546 31.8986280888047 
! Gamma         0                0                0                0                
! Port Impedance         50               0                50               0                
22.8                           0.536536915811753 31.0448843279119 0.800355181121132 123.422408625427 0.800355181121132 123.422408625427 0.53655280497013 31.0511002664338 
! Gamma         0                0                0                0                
! Port Impedance         50               0                50               0                
22.9                           0.541141720069305 30.2025069555312 0.797503879596791 122.524908518935 0.797503879596789 122.524908518935 0.541157576390583 30.2088343136262 
! Gamma         0                0                0                0                
! Port Impedance         50               0                50               0                
23                             0.545578726475892 29.3652803489956 0.794726288122813 121.633602860711 0.794726288122811 121.633602860711 0.54559455486213 29.3717187246193 
! Gamma         0                0                0                0                
! Port Impedance         50               0                50               0                
23.1                           0.549850457447397 28.5330861122862 0.792023971263869 120.748303471374 0.792023971263871 120.748303471374 0.549866262855589 28.5396351838305 
! Gamma         0                0                0                0                
! Port Impedance         50               0                50               0                
23.2                           0.553959390201949 27.70579973011   0.78939838095523 119.868820333525 0.789398380955226 119.868820333526 0.553975177644717 27.7124592528194 
! Gamma         0                0                0                0                
! Port Impedance         50               0                50               0                
23.3                           0.557907951244575 26.8832911912121 0.786850862628768 118.994961832862 0.78685086262877 118.994961832862 0.557923725790931 26.8900609939628 
! Gamma         0                0                0                0                
! Port Impedance         50               0                50               0                
23.4                           0.561698511359735 26.0654255542276 0.784382661182301 118.126534978747 0.784382661182302 118.126534978747 0.561714278135896 26.0723055366409 
! Gamma         0                0                0                0                
! Port Impedance         50               0                50               0                
23.5                           0.565333381077051 25.2520634612573 0.78199492677613 117.263345605143 0.781994926776131 117.263345605143 0.565349145267331 25.2590535911177 
! Gamma         0                0                0                0                
! Port Impedance         50               0                50               0                
23.6                           0.568814806576485 24.4430616038086 0.779688720443697 116.405198552816 0.779688720443693 116.405198552816 0.568830573424276 24.4501619147614 
! Gamma         0                0                0                0                
! Port Impedance         50               0                50               0                
23.7                           0.572144966000315 23.638273145284  0.777465019505479 115.551897833719 0.777465019505476 115.551897833719 0.572160740809152 23.645483734792  
! Gamma         0                0                0                0                
! Port Impedance         50               0                50               0                
23.8                           0.575325966140472 22.8375481037957 0.775324722777582 114.703246778468 0.775324722777583 114.703246778469 0.575341754275189 22.8448691313351 
! Gamma         0                0                0                0                
! Port Impedance         50               0                50               0                
23.9                           0.578359839471064 22.0407336987294 0.773268655568229 113.859048167819 0.773268655568228 113.859048167819 0.578375646359056 22.0481653842081 
! Gamma         0                0                0                0                
! Port Impedance         50               0                50               0                
24                             0.581248541497323 21.2476746641732 0.771297574457249 113.019104349019 0.771297574457247 113.01910434902  0.581264372629904 21.2552172865559 
! Gamma         0                0                0                0                
! Port Impedance         50               0                50               0                
24.1                           0.583993948393564 20.4582135320479 0.769412171855076 112.183217337924 0.769412171855074 112.183217337923 0.584009809327429 20.4658674281761 
! Gamma         0                0                0                0                
! Port Impedance         50               0                50               0                
24.2                           0.586597854904195 19.6721908875372 0.767613080339028 111.351188907715 0.767613080339024 111.351188907715 0.586613751262995 19.6799564511316 
! Gamma         0                0                0                0                
! Port Impedance         50               0                50               0                
24.3                           0.589061972483286 18.8894455991983 0.765900876765765 110.522820665067 0.765900876765762 110.522820665068 0.589077909959299 18.8973232800332 
! Gamma         0                0                0                0                
! Port Impedance         50               0                50               0                
24.4                           0.591387927649572 18.1098150259409 0.764276086159854 109.697914114558 0.76427608615985 109.697914114558 0.591403912005495 18.1178053291838 
! Gamma         0                0                0                0                
! Port Impedance         50               0                50               0                
24.5                           0.59357726053529 17.3331352028953 0.762739185378951 108.876270712109 0.762739185378949 108.87627071211  0.593593297606122 17.3412386886015 
! Gamma         0                0                0                0                
! Port Impedance         50               0                50               0                
24.6                           0.595631423608555 16.5592410080315 0.761290606556969 108.057691908221 0.761290606556967 108.057691908221 0.595647519303613 16.5674582907895 
! Gamma         0                0                0                0                
! Port Impedance         50               0                50               0                
24.7                           0.597551780550464 15.7879663112612 0.759930740326956 107.241979181723 0.759930740326955 107.241979181723 0.597567940855489 15.7962980599824 
! Gamma         0                0                0                0                
! Port Impedance         50               0                50               0                
24.8                           0.59933960526938 15.0191441076272 0.75865993882583 106.428934064756 0.758659938825825 106.428934064757 0.599355836248757 15.0275910454755 
! Gamma         0                0                0                0                
! Port Impedance         50               0                50               0                
24.9                           0.600996081036213 14.252606636078  0.757478518483443 105.618358159663 0.757478518483441 105.618358159664 0.601012388835305 14.2611695405365 
! Gamma         0                0                0                0                
! Port Impedance         50               0                50               0                
25                             0.602522299725789 13.4881854852284 0.756386762598591 104.810053148441 0.756386762598587 104.810053148442 0.602538690573376 13.496865188299  
! Gamma         0                0                0                0                
! Port Impedance         50               0                50               0                
25.1                           0.60391926115061 12.7257116874166 0.755384923704682 104.003820795397 0.755384923704681 104.003820795397 0.603935741361435 12.7345090759523 
! Gamma         0                0                0                0                
! Port Impedance         50               0                50               0                
25.2                           0.605187872474543 11.9650158022962 0.754473225727824 103.199462943615 0.754473225727819 103.199462943615 0.605204448451967 11.9739318184634 
! Gamma         0                0                0                0                
! Port Impedance         50               0                50               0                
25.3                           0.60632894769511 11.2059279911274 0.753651865940008 102.396781505817 0.753651865940006 102.396781505818 0.606345625933877 11.2149636329987 
! Gamma         0                0                0                0                
! Port Impedance         50               0                50               0                
25.4                           0.607343207184192 10.4482780828768 0.752921016710031 101.595578450209 0.752921016710025 101.59557845021  0.607359994273297 10.4574344051541 
! Gamma         0                0                0                0                
! Port Impedance         50               0                50               0                
25.5                           0.608231277278052 9.69189563318022 0.752280827054493 100.795655781834 0.752280827054487 100.795655781835 0.608248179903716 9.70117374804869 
! Gamma         0                0                0                0                
! Port Impedance         50               0                50               0                
25.6                           0.608993689908617 8.93660997717732 0.751731423991196 99.9968155200045 0.751731423991194 99.9968155200047 0.609010714857376 8.94601105529329 
! Gamma         0                0                0                0                
! Port Impedance         50               0                50               0                
25.7                           0.609630882269039 8.18225027719261 0.751272913696849 99.198859672307  0.751272913696844 99.1988596723074 0.609648036430925 8.19177554880562 
! Gamma         0                0                0                0                
! Port Impedance         50               0                50               0                
25.8                           0.61014319650749 7.42864556620115 0.750905382470757 98.4015902057114 0.750905382470753 98.4015902057116 0.61016048687933 7.43829632241479 
! Gamma         0                0                0                0                
! Port Impedance         50               0                50               0                
25.9                           0.610530879444185 6.67562478799615 0.750628897505948 97.6048090152727 0.750628897505941 97.6048090152736 0.610548313133001 6.68540238217071 
! Gamma         0                0                0                0                
! Port Impedance         50               0                50               0                
26                             0.610794082307574 5.92301683495524 0.750443507468657 96.8083178909256 0.750443507468652 96.8083178909264 0.610811666534086 5.93292268425671 
! Gamma         0                0                0                0                
! Port Impedance         50               0                50               0                
26.1                           0.610932860486572 5.17065058428957 0.750349242886946 96.0119184828489 0.750349242886943 96.0119184828499 0.610950602588812 5.18068617139024 
! Gamma         0                0                0                0                
! Port Impedance         50               0                50               0                
26.2                           0.610947173296677 4.418354933654   0.750346116348731 95.2154122658988 0.750346116348722 95.2154122659005 0.610965080733702 4.42852180859058 
! Gamma         0                0                0                0                
! Port Impedance         50               0                50               0                
26.3                           0.610836883758726 3.66595883699493 0.750434122509069 94.4186005035757 0.750434122509061 94.4186005035769 0.61085496411444 3.67625861919117 
! Gamma         0                0                0                0                
! Port Impedance         50               0                50               0                
26.4                           0.610601758390006 2.91329134151921 0.750613237906354 93.6212842120164 0.750613237906349 93.6212842120172 0.610620019377092 2.92372572198021 
! Gamma         0                0                0                0                
! Port Impedance         50               0                50               0                
26.5                           0.610241467008362 2.16018162667688 0.750883420586444 92.8232641244932 0.750883420586437 92.8232641244942 0.610259916472309 2.17075237036464 
! Gamma         0                0                0                0                
! Port Impedance         50               0                50               0                
26.6                           0.609755582550903 1.40645904607119 0.751244609533507 92.0243406569152 0.751244609533508 92.0243406569162 0.60977422847415 1.41716799447006 
! Gamma         0                0                0                0                
! Port Impedance         50               0                50               0                
26.7                           0.609143580909877 0.651953173229806 0.75169672390594 91.2243138748244 0.751696723905935 91.2243138748253 0.609162431416063 0.662802247112911 
! Gamma         0                0                0                0                
! Port Impedance         50               0                50               0                
26.8                           0.608404840789285 -0.103506147795309 0.752239662075284 90.4229834623867 0.75223966207528 90.4229834623876 0.608423904147601 -0.0925149453862942 
! Gamma         0                0                0                0                
! Port Impedance         50               0                50               0                
26.9                           0.607538643586788 -0.860088745994721 0.752873300465801 89.6201486939245 0.752873300465795 89.6201486939254 0.607557928216447 -0.848953326544602 
! Gamma         0                0                0                0                
! Port Impedance         50               0                50               0                
27                             0.606544173306559 -1.61796406008822 0.75359749219193 88.8156084084902 0.753597492191923 88.8156084084906 0.606563687781369 -1.60668224616235 
! Gamma         0                0                0                0                
! Port Impedance         50               0                50               0                
27.1                           0.605420516509748 -2.37730106722788 0.754412065490579 88.0091609880582 0.754412065490571 88.0091609880589 0.605440269562809 -2.36587058877008 
! Gamma         0                0                0                0                
! Port Impedance         50               0                50               0                
27.2                           0.604166662310413 -3.13826820255647 0.755316821944896 87.200604339893  0.755316821944893 87.2006043398931 0.604186662838915 -3.12668669291339 
! Gamma         0                0                0                0                
! Port Impedance         50               0                50               0                
27.3                           0.602781502425888 -3.90103326839076 0.756311534495949 86.3897358836808 0.756311534495946 86.389735883682  0.602801759496034 -3.8892982600422 
! Gamma         0                0                0                0                
! Port Impedance         50               0                50               0                
27.4                           0.601263831291797 -4.66576333171656 0.757395945238403 85.5763525440552 0.7573959452384  85.5763525440564 0.601284354143851 -4.65387225169261 
! Gamma         0                0                0                0                
! Port Impedance         50               0                50               0                
27.5                           0.599612346253185 -5.43262460860039 0.758569762996387 84.7602507491322 0.75856976299638 84.7602507491332 0.59963314430663 -5.4205747735594 
! Gamma         0                0                0                0                
! Port Impedance         50               0                50               0                
27.6                           0.59782564784455 -6.20178233401471 0.759832660675295 83.9412264357419 0.759832660675288 83.9412264357429 0.597846730703393 -6.18957094495868 
! Gamma         0                0                0                0                
! Port Impedance         50               0                50               0                
27.7                           0.595902240172967 -6.97340061546683 0.761184272385544 83.1190750620371 0.761184272385537 83.1190750620384 0.595923617631165 -6.96102475206399 
! Gamma         0                0                0                0                
! Port Impedance         50               0                50               0                
27.8                           0.593840531419908 -7.74764226869336 0.762624190334145 82.2935916282205 0.762624190334135 82.2935916282212 0.593862213466937 -7.73509888317807 
! Gamma         0                0                0                0                
! Port Impedance         50               0                50               0                
27.9                           0.591638834478884 -8.52466863354374 0.764151961480183 81.4645707061207 0.764151961480183 81.4645707061221 0.591660831305457 -8.51195454415776 
! Gamma         0                0                0                0                
! Port Impedance         50               0                50               0                
28                             0.589295367747613 -9.30463936801339 0.76576708395053 80.6318064784453 0.765767083950524 80.6318064784464 0.589317689751558 -9.29175125195228 
! Gamma         0                0                0                0                
! Port Impedance         50               0                50               0                
28.1                           0.586808256095032 -10.0877122182205 0.767469003212264 79.7950927885027 0.76746900321226 79.7950927885041 0.586830913887327 -10.0746466040409 
! Gamma         0                0                0                0                
! Port Impedance         50               0                50               0                
28.2                           0.584175532025179 -10.874042761916 0.769257107999167 78.9542232012732 0.769257107999167 78.9542232012741 0.584198536436185 -10.8607960213589 
! Gamma         0                0                0                0                
! Port Impedance         50               0                50               0                
28.3                           0.58139513706172 -11.6637841228997 0.771130725989667 78.1089910767158 0.771130725989664 78.1089910767169 0.58141849914759 -11.6503524620777 
! Gamma         0                0                0                0                
! Port Impedance         50               0                50               0                
28.4                           0.578464923378721 -12.4570866534704 0.773089119234954 77.259189656249  0.773089119234953 77.2591896562504 0.578488654428031 -12.4434661033615 
! Gamma         0                0                0                0                
! Port Impedance         50               0                50               0                
28.5                           0.575382655705065 -13.2540975817573 0.77513147933645 76.4046121633604 0.775131479336447 76.4046121633607 0.575406767245686 -13.2402839879416 
! Gamma         0                0                0                0                
! Port Impedance         50               0                50               0                
28.6                           0.572146013531901 -14.0549606204726 0.777256922373234 75.5450519193541 0.777256922373237 75.5450519193546 0.572170517338113 -14.0409496320428 
! Gamma         0                0                0                0                
! Port Impedance         50               0                50               0                
28.7                           0.568752593654347 -14.85981553327  0.779464483581186 74.6803024752572 0.779464483581177 74.6803024752575 0.568777501754253 -14.8456025908361 
! Gamma         0                0                0                0                
! Port Impedance         50               0                50               0                
28.8                           0.565199913080628 -15.6687976544998 0.781753111787129 73.8101577609558 0.781753111787131 73.8101577609573 0.565225237763889 -15.6543779772006 
! Gamma         0                0                0                0                
! Port Impedance         50               0                50               0                
28.9                           0.561485412343838 -16.4820373576949 0.784121663603287 72.9344122526337 0.784121663603286 72.934412252636  0.561511166169768 -16.4674059291192 
! Gamma         0                0                0                0                
! Port Impedance         50               0                50               0                
29                             0.557606459253289 -17.2996594676159 0.78656889738894 72.0528611596244 0.786568897388939 72.0528611596254 0.557632655059362 -17.284811020524 
! Gamma         0                0                0                0                
! Port Impedance         50               0                50               0                
29.1                           0.553560353124412 -18.1217826100859 0.789093466989038 71.1653006317967 0.789093466989037 71.1653006317977 0.553587004035244 -18.1067116098096 
! Gamma         0                0                0                0                
! Port Impedance         50               0                50               0                
29.2                           0.549344329527904 -18.9485184931828 0.791693915261761 70.2715279886191 0.791693915261756 70.271527988619  0.549371448964751 -18.9332191195682 
! Gamma         0                0                0                0                
! Port Impedance         50               0                50               0                
29.3                           0.544955565600508 -19.7799711125739 0.794368667410069 69.3713419710034 0.794368667410065 69.3713419710056 0.544983167291395 -19.7644372403089 
! Gamma         0                0                0                0                
! Port Impedance         50               0                50               0                
29.4                           0.540391185961394 -20.6162358728851 0.797116024135653 68.4645430171015 0.797116024135657 68.464543017103  0.540419283951939 -20.6004610500427 
! Gamma         0                0                0                0                
! Port Impedance         50               0                50               0                
29.5                           0.535648269279496 -21.4573986159521 0.799934154637217 67.5509335631007 0.799934154637215 67.5509335631012 0.535676877944537 -21.4413760405534 
! Gamma         0                0                0                0                
! Port Impedance         50               0                50               0                
29.6                           0.530723855538275 -22.3035345455981 0.802821089478928 66.6303183701627 0.802821089478929 66.6303183701639 0.530752989594444 -22.2872570399705 
! Gamma         0                0                0                0                
! Port Impedance         50               0                50               0                
29.7                           0.525614954045364 -23.1547070371489 0.80577471335956 65.7025048784785 0.80577471335956 65.7025048784809 0.525644628564744 -23.1381670198326 
! Gamma         0                0                0                0                
! Port Impedance         50               0                50               0                
29.8                           0.520318552235035 -24.0109663182353 0.808792757817063 64.7673035894591 0.80879275781706 64.7673035894589 0.520348782660069 -23.9941557731541 
! Gamma         0                0                0                0                
! Port Impedance         50               0                50               0                
29.9                           0.51483162531176 -24.8723480054617 0.811872793908893 63.8245284769038 0.811872793908887 63.8245284769053 0.514862427471616 -24.855258448033 
! Gamma         0                0                0                0                
! Port Impedance         50               0                50               0                
30                             0.509151146782811 -25.7388714791753 0.815012224913478 62.8739974280145 0.815012224913475 62.8739974280156 0.509182536911472 -25.7214939189898 
! Gamma         0                0                0                0                
! Port Impedance         50               0                50               0                
30.1                           0.503274099927362 -26.6105380757818 0.818208279104288 61.9155327148499 0.818208279104289 61.9155327148501 0.503306094683659 -26.5928629754368 
! Gamma         0                0                0                0                
! Port Impedance         50               0                50               0                
30.2                           0.497197490248097 -27.4873290737295 0.821458002653881 60.9489614968127 0.821458002653881 60.9489614968124 0.497230106738083 -27.4693463033278 
! Gamma         0                0                0                0                
! Port Impedance         50               0                50               0                
30.3                           0.490918358949854 -28.3692034452575 0.824758252731748 59.9741163545055 0.82475825273175 59.974116354507  0.490951614751856 -28.3509022320199 
! Gamma         0                0                0                0                
! Port Impedance         50               0                50               0                
30.4                           0.484433797487249 -29.2560953411691 0.828105690866448 58.9908358551255 0.828105690866446 58.9908358551262 0.48446771068009 -29.2374642135229 
! Gamma         0                0                0                0                
! Port Impedance         50               0                50               0                
30.5                           0.477740963220328 -30.1479112700175 0.831496776649185 57.9989651493269 0.83149677664919 57.9989651493286 0.477775552415235 -30.1289379954226 
! Gamma         0                0                0                0                
! Port Impedance         50               0                50               0                
30.6                           0.470837096213602 -31.0445269259309 0.834927761862999 56.9983565992404 0.834927761863001 56.9983565992416 0.470872380590434 -31.0251984415885 
! Gamma         0                0                0                0                
! Port Impedance         50               0                50               0                
30.7                           0.463719537209609 -31.9457836105304 0.838394685128261 55.9888704370232 0.838394685128253 55.9888704370244 0.463755536558166 -31.9260859459892 
! Gamma         0                0                0                0                
! Port Impedance         50               0                50               0                
30.8                           0.456385746803213 -32.8514841836405 0.841893367162355 54.9703754529873 0.841893367162353 54.9703754529895 0.456422481570519 -32.8314023741342 
! Gamma         0                0                0                0                
! Port Impedance         50               0                50               0                
30.9                           0.448833325837754 -33.7613884641339 0.845419406757493 53.9427497120332 0.84541940675749 53.942749712034  0.448870817182347 -33.7409064533124 
! Gamma         0                0                0                0                
! Port Impedance         50               0                50               0                
31                             0.44106003703836 -34.6752079857454 0.848968177586748 52.9058812966199 0.848968177586752 52.9058812966216 0.441098306892869 -34.6543085162074 
! Gamma         0                0                0                0                
! Port Impedance         50               0                50               0                
31.1                           0.433063827892352 -35.5925999920116 0.852534825953989 51.8596690742227 0.852534825953986 51.8596690742236 0.43310289903583 -35.5712644817819 
! Gamma         0                0                0                0                
! Port Impedance         50               0                50               0                
31.2                           0.424842854781275 -36.5131605285902 0.856114269607799 50.8040234865799 0.856114269607802 50.8040234865807 0.424882750923115 -36.4913689313433 
! Gamma         0                0                0                0                
! Port Impedance         50               0                50               0                
31.3                           0.416395508364787 -37.4364164585212 0.859701197743589 49.7388673577081 0.859701197743592 49.7388673577084 0.416436254242323 -37.4141471049453 
! Gamma         0                0                0                0                
! Port Impedance         50               0                50               0                
31.4                           0.40772044021377 -38.3618161844955 0.863290072319975 48.6641367169903 0.863290072319978 48.6641367169912 0.407762061706195 -38.3390456017015 
! Gamma         0                0                0                0                
! Port Impedance         50               0                50               0                
31.5                           0.39881659069    -39.288718809234 0.866875130817094 47.5797816332142 0.866875130817089 47.5797816332163 0.398859114951663 -39.2654215145208 
! Gamma         0                0                0                0                
! Port Impedance         50               0                50               0                
31.6                           0.389683218073107 -40.2163813970537 0.870450390563503 46.4857670547573 0.870450390563504 46.485767054758  0.389726673690104 -40.1925296615876 
! Gamma         0                0                0                0                
! Port Impedance         50               0                50               0                
31.7                           0.38031992894552 -41.1439439116727 0.874009654755793 45.3820736506206 0.874009654755798 45.3820736506216 0.380364346120099 -41.1195074887661 
! Gamma         0                0                0                0                
! Port Impedance         50               0                50               0                
31.8                           0.370726709863454 -42.0704112907145 0.877546520290123 44.2686986463646 0.87754652029013 44.2686986463647 0.370772120631956 -42.0453571022669 
! Gamma         0                0                0                0                
! Port Impedance         50               0                50               0                
31.9                           0.360903960371686 -42.9946319669547 0.881054387517663 43.1456566484436 0.88105438751766 43.1456566484451 0.360950398863111 -42.9689237402441 
! Gamma         0                0                0                0                
! Port Impedance         50               0                50               0                
32                             0.350852527465927 -43.9152719473679 0.884526472025983 42.0129804498688 0.884526472025988 42.0129804498707 0.350900030209689 -43.8888697926928 
! Gamma         0                0                0                0                
! Port Impedance         50               0                50               0                
32.1                           0.340573741675206 -44.8307832956015 0.887955818535429 40.8707218095528 0.887955818535436 40.8707218095542 0.340622347969061 -44.8036432131472 
! Gamma         0                0                0                0                
! Port Impedance         50               0                50               0                
32.2                           0.33006945503828 -45.7393655060951 0.891335316983919 39.7189521972229 0.89133531698392 39.7189521972234 0.330119207390053 -45.7114388077486 
! Gamma         0                0                0                0                
! Port Impedance         50               0                50               0                
32.3                           0.319342081394728 -46.6389177722038 0.89465772085431 38.5577634953427 0.894657720854312 38.5577634953433 0.319393026055138 -46.6101504007386 
! Gamma         0                0                0                0                
! Port Impedance         50               0                50               0                
32.4                           0.308394639622786 -47.5269794833132 0.897915667776716 37.3872686490464 0.897915667776721 37.3872686490478 0.308446827231387 -47.497311207194 
! Gamma         0                0                0                0                
! Port Impedance         50               0                50               0                
32.5                           0.297230800759698 -48.4006553588647 0.901101702412432 36.2076022548734 0.901101702412435 36.2076022548742 0.297284287132463 -48.3700188157411 
! Gamma         0                0                0                0                
! Port Impedance         50               0                50               0                
32.6                           0.285854940378875 -49.2565203241389 0.904208301598228 35.0189210788192 0.904208301598233 35.0189210788203 0.285909787474255 -49.2248398795741 
! Gamma         0                0                0                0                
! Port Impedance         50               0                50               0                
32.7                           0.274272198233118 -50.0904973771983 0.907227901698317 33.8214044942315 0.907227901698321 33.8214044942311 0.27432847534483 -50.0576877571571 
! Gamma         0                0                0                0                
! Port Impedance         50               0                50               0                
32.8                           0.262488548102881 -50.8976990179773 0.910152928077988 32.6152548300094 0.91015292807799 32.61525483001   0.262546333343618 -50.8636636637603 
! Gamma         0                0                0                0                
! Port Impedance         50               0                50               0                
32.9                           0.25051088216516 -51.6722188860643 0.912975826577084 31.400697619924  0.912975826577083 31.400697619923  0.2505702643265  -51.6368479687303 
! Gamma         0                0                0                0                
! Port Impedance         50               0                50               0                
33                             0.238347116265187 -52.4068544109494 0.915689096824311 30.1779817440515 0.915689096824318 30.1779817440521 0.238408197169563 -52.3700224292125 
! Gamma         0                0                0                0                
! Port Impedance         50               0                50               0                
33.1                           0.226006325629547 -53.0927324279016 0.91828532719546 28.9473794540407 0.918285327195467 28.9473794540408 0.226069223132278 -53.0542953005098 
! Gamma         0                0                0                0                
! Port Impedance         50               0                50               0                
33.2                           0.213498925471277 -53.7187960531432 0.920757231180335 27.7091862744256 0.920757231180347 27.7091862744243 0.213563777331328 -53.6785876079652 
! Gamma         0                0                0                0                
! Port Impedance         50               0                50               0                
33.3                           0.200836918745959 -54.2710896010101 0.923097684885791 26.4637207732582 0.923097684885799 26.4637207732589 0.200903887671392 -54.2289173681258 
! Gamma         0                0                0                0                
! Port Impedance         50               0                50               0                
33.4                           0.188034246030237 -54.731743704624 0.925299765366456 25.2113241962685 0.925299765366472 25.2113241962684 0.188103526330915 -54.6873839620278 
! Gamma         0                0                0                0                
! Port Impedance         50               0                50               0                
33.5                           0.175107293737668 -55.0775057593844 0.927356789441631 23.9523599600196 0.927356789441635 23.9523599600194 0.17517912020308 -55.030697908094 
! Gamma         0                0                0                0                
! Port Impedance         50               0                50               0                
33.6                           0.16207565342961 -55.2775644436518 0.929262352627048 22.6872130009583 0.929262352627055 22.6872130009579 0.162150313319151 -55.2280051195578 
! Gamma         0                0                0                0                
! Port Impedance         50               0                50               0                
33.7                           0.148963289864927 -55.2902499276696 0.931010367785623 21.4162889787043 0.931010367785626 21.4162889787044 0.149041139283662 -55.2375880577654 
! Gamma         0                0                0                0                
! Port Impedance         50               0                50               0                
33.8                           0.135800394717012 -55.0578935464555 0.932595103081267 20.140013333684  0.932595103081271 20.1400133336833 0.135881881173092 -55.0017294614493 
! Gamma         0                0                0                0                
! Port Impedance         50               0                50               0                
33.9                           0.12262643057476 -54.4985860620516 0.934011218807533 18.8588302008624 0.934011218807537 18.8588302008633 0.122712124117211 -54.4384823363508 
! Gamma         0                0                0                0                
! Port Impedance         50               0                50               0                
34                             0.109495322097653 -53.4925565744738 0.935253802656494 17.5732011832827 0.935253802656501 17.5732011832826 0.109585957732397 -53.4280793973019 
! Gamma         0                0                0                0                
! Port Impedance         50               0                50               0                
34.1                           0.0964846861141544 -51.8589828288791 0.936318402995526 16.2836039908365 0.936318402995534 16.283603990837  0.0965812186065453 -51.7898206362175 
! Gamma         0                0                0                0                
! Port Impedance         50               0                50               0                
34.2                           0.0837129930606736 -49.3155765548413 0.937201059729447 14.9905309517229 0.937201059729454 14.9905309517236 0.0838166558901036 -49.2418544664556 
! Gamma         0                0                0                0                
! Port Impedance         50               0                50               0                
34.3                           0.0713728920263403 -45.4080417894573 0.937898332344613 13.6944874057139 0.937898332344627 13.694487405714  0.0714852142556365 -45.3311354702918 
! Gamma         0                0                0                0                
! Port Impedance         50               0                50               0                
34.4                           0.059797830079322 -39.3952628511455 0.938407324757817 12.3959899902235 0.938407324757822 12.395989990223  0.0599204273591573 -39.3198534845317 
! Gamma         0                0                0                0                
! Port Impedance         50               0                50               0                
34.5                           0.0495917685962742 -30.1217667430082 0.938725706628242 11.095564831705  0.938725706628246 11.0955648317043 0.0497252917690962 -30.0604954739079 
! Gamma         0                0                0                0                
! Port Impedance         50               0                50               0                
34.6                           0.041829697659904 -16.1916607957903 0.938851730833238 9.79374565644103 0.938851730833243 9.79374565644178 0.0419705071821501 -16.1714816305716 
! Gamma         0                0                0                0                
! Port Impedance         50               0                50               0                
34.7                           0.0380836119266459 2.53498768626312 0.938784246857997 8.49107183600733 0.938784246857995 8.49107183600672 0.0382185393819575 2.48246861543306 
! Gamma         0                0                0                0                
! Port Impedance         50               0                50               0                
34.8                           0.0395368656729421 22.4935046846034 0.938522709904251 7.18808638375812 0.938522709904268 7.18808638375682 0.0396473594615847 22.3760165873758 
! Gamma         0                0                0                0                
! Port Impedance         50               0                50               0                
34.9                           0.0456999549329891 38.7858738381577 0.938067185583214 5.88533391949411 0.938067185583215 5.88533391949255 0.0457782732215403 38.6484907732629 
! Gamma         0                0                0                0                
! Port Impedance         50               0                50               0                
35                             0.0550011731032874 50.033318496284  0.937418350120315 4.58335861995066 0.93741835012032 4.58335861995152 0.0550515378254903 49.9058816038304 
! Gamma         0                0                0                0                
! Port Impedance         50               0                50               0                
35.1                           0.066108624476566 57.3674109254341 0.93657748606496 3.28270217300755 0.936577486064969 3.28270217300711 0.0661380158919446 57.2578073871268 
! Gamma         0                0                0                0                
! Port Impedance         50               0                50               0                
35.2                           0.0782296998499457 62.1226711523027 0.935546473562518 1.98390175343143 0.935546473562523 1.98390175343013 0.0782437561325069 62.0300083682368 
! Gamma         0                0                0                0                
! Port Impedance         50               0                50               0                
35.3                           0.0909284819746216 65.2185379102189 0.934327777310272 0.68748803765251 0.93432777731027 0.687488037652059 0.0909311379578717 65.1399834220357 
! Gamma         0                0                0                0                
! Port Impedance         50               0                50               0                
35.4                           0.103959015298951 67.2235552431873 0.93292442937928 -0.606016725595782 0.932924429379274 -0.606016725595874 0.103952957059559 67.1563820141687 
! Gamma         0                0                0                0                
! Port Impedance         50               0                50               0                
35.5                           0.117174203659584 68.4875659696902 0.931340008141351 -1.89610057286264 0.931340008141355 -1.8961005728628 0.117161292534755 68.4295662268944 
! Gamma         0                0                0                0                
! Port Impedance         50               0                50               0                
35.6                           0.130480196678607 69.2313801300036 0.929578613590862 -3.18226359695508 0.929578613590868 -3.18226359695404 0.130461755853647 69.1808461425838 
! Gamma         0                0                0                0                
! Port Impedance         50               0                50               0                
35.7                           0.143813281770476 69.5990419076049 0.927644839396575 -4.46401961790644 0.92764483939658 -4.46401961790647 0.143790277731671 69.5546627743828 
! Gamma         0                0                0                0                
! Port Impedance         50               0                50               0                
35.8                           0.15712770843992 69.6876679898819 0.925543742055059 -5.74089774200954 0.925543742055061 -5.74089774201074 0.157100865511299 69.6484312969618 
! Gamma         0                0                0                0                
! Port Impedance         50               0                50               0                
35.9                           0.170388979045853 69.5647636022039 0.923280807547377 -7.01244379872492 0.92328080754738 -7.01244379872397 0.170358852917499 69.5298787046312 
! Gamma         0                0                0                0                
! Port Impedance         50               0                50               0                
36                             0.183569989068267 69.2785554546076 0.920861915920923 -8.27822164700672 0.920861915920927 -8.27822164700686 0.183537015103133 69.2473970091644 
! Gamma         0                0                0                0                
! Port Impedance         50               0                50               0                
36.1                           0.19664871772684 68.8643481428397 0.918293304231237 -9.5378143444919 0.918293304231244 -9.53781434449289 0.196613243476898 68.8364151965134 
! Gamma         0                0                0                0                
! Port Impedance         50               0                50               0                
36.2                           0.209606796615257 68.3485520260942 0.915581528282283 -10.7908251747873 0.915581528282289 -10.7908251747874 0.20956910422678 68.3234383532738 
! Gamma         0                0                0                0                
! Port Impedance         50               0                50               0                
36.3                           0.222428593854124 67.7513072273713 0.912733423600115 -12.0368785300634 0.912733423600115 -12.0368785300635 0.222388915846149 67.728679654594  
! Gamma         0                0                0                0                
! Port Impedance         50               0                50               0                
36.4                           0.235100610709251 67.0882369952089 0.909756066063179 -13.27562064781  0.909756066063181 -13.2756206478111 0.235059141309494 67.0678193903418 
! Gamma         0                0                0                0                
! Port Impedance         50               0                50               0                
36.5                           0.247611072913037 66.3716466636453 0.9066567325948  -14.5067202025109 0.906656732594805 -14.5067202025098 0.247567976351541 66.3532079672496 
! Gamma         0                0                0                0                
! Port Impedance         50               0                50               0                
36.6                           0.259949646227246 65.6113608714131 0.903442862298884 -15.7298687544143 0.903442862298891 -15.7298687544133 0.259905062905412 65.5947060407093 
! Gamma         0                0                0                0                
! Port Impedance         50               0                50               0                
36.7                           0.27210723290184 64.8153194189087 0.900122018391678 -16.9447810592271 0.900122018391678 -16.9447810592283 0.272061284050639 64.8002824940306 
! Gamma         0                0                0                0                
! Port Impedance         50               0                50               0                
36.8                           0.284075821706588 63.9900087618393 0.896701851248913 -18.1511952437448 0.896701851248917 -18.1511952437445 0.284028612952443 63.9764474966072 
! Gamma         0                0                0                0                
! Port Impedance         50               0                50               0                
36.9                           0.29584837394359 63.1407794693901 0.893190062852566 -19.3488728536514 0.893190062852567 -19.3488728536523 0.295799998072458 63.1285711288615 
! Gamma         0                0                0                0                
! Port Impedance         50               0                50               0                
37                             0.307418733908792 62.2720832031366 0.889594372882992 -20.5375987807161 0.889594372882997 -20.537598780715 0.307369273033513 62.2611212411195 
! Gamma         0                0                0                0                
! Port Impedance         50               0                50               0                
37.1                           0.318781556130471 61.3876520034864 0.885922486664427 -21.7171810773508 0.885922486664426 -21.7171810773517 0.318731083408274 61.3778434109121 
! Gamma         0                0                0                0                
! Port Impedance         50               0                50               0                
37.2                           0.329932244221363 60.4906356202105 0.882182065132129 -22.887450667215 0.882182065132136 -22.8874506672158 0.329880825228356 60.4818987901816 
! Gamma         0                0                0                0                
! Port Impedance         50               0                50               0                
37.3                           0.340866897841553 59.583707924586  0.878380696952191 -24.0482609608911 0.87838069695219 -24.0482609608908 0.340814591682774 59.5759709192151 
! Gamma         0                0                0                0                
! Port Impedance         50               0                50               0                
37.4                           0.351582265385092 58.6691502564758 0.874525872887602 -25.1994873860712 0.874525872887606 -25.1994873860709 0.351529125598705 58.6623493890525 
! Gamma         0                0                0                0                
! Port Impedance         50               0                50               0                
37.5                           0.362075700763232 57.748917368548  0.870624962470056 -26.3410268417225 0.870624962470057 -26.3410268417232 0.362021776063045 57.7429960352835 
! Gamma         0                0                0                0                
! Port Impedance         50               0                50               0                
37.6                           0.372345123180367 56.8246901003228 0.866685193004061 -27.4727970857822 0.866685193004069 -27.472797085783 0.372290458070206 56.8195978112477 
! Gamma         0                0                0                0                
! Port Impedance         50               0                50               0                
37.7                           0.382388979161133 55.8979178329291 0.862713630901017 -28.5947360657334 0.862713630901018 -28.5947360657332 0.382333614446976 55.893609402917  
! Gamma         0                0                0                0                
! Port Impedance         50               0                50               0                
37.8                           0.392206206339715 54.9698530007312 0.858717165313836 -29.7068012012321 0.858717165313838 -29.7068012012328 0.392150179559537 54.9662878701969 
! Gamma         0                0                0                0                
! Port Impedance         50               0                50               0                
37.9                           0.401796198697934 54.0415793748303 0.854702494019865 -30.8089686275964 0.854702494019869 -30.808968627595 0.40173954448495 54.0387210361412 
! Gamma         0                0                0                0                
! Port Impedance         50               0                50               0                
38                             0.411158773060523 53.1140354225255 0.85067611147948 -31.9012324085523 0.850676111479482 -31.9012324085529 0.411101523452166 53.1118509331599 
! Gamma         0                0                0                0                
! Port Impedance         50               0                50               0                
38.1                           0.420294136739226 52.1880337430175 0.846644298981093 -32.9836037261804 0.846644298981094 -32.9836037261802 0.420236321441598 52.1864933103204 
! Gamma         0                0                0                0                
! Port Impedance         50               0                50               0                
38.2                           0.429202856273457 51.2642773527513 0.842613116769476 -34.0561100554491 0.842613116769472 -34.0561100554508 0.429144502889097 51.2633539781384 
! Gamma         0                0                0                0                
! Port Impedance         50               0                50               0                
38.3                           0.437885827251433 50.3433734230437 0.83858839804353 -35.1187943302263 0.838588398043537 -35.1187943302267 0.437826961476682 50.3430425958092 
! Gamma         0                0                0                0                
! Port Impedance         50               0                50               0                
38.4                           0.446344245218022 49.4258449429147 0.834575744701922 -36.1717141070072 0.83457574470192 -36.1717141070087 0.446284891015008 49.4260843756671 
! Gamma         0                0                0                0                
! Port Impedance         50               0                50               0                
38.5                           0.45457957768761 48.5121406808431 0.83058052470913 -37.2149407320642 0.830580524709137 -37.2149407320646 0.454519757435009 48.5129300800277 
! Gamma         0                0                0                0                
! Port Impedance         50               0                50               0                
38.6                           0.462593537285486 47.6026437426995 0.82660787095218 -38.2485585171242 0.826607870952182 -38.2485585171237 0.462533271911422 47.6039646088344 
! Gamma         0                0                0                0                
! Port Impedance         50               0                50               0                
38.7                           0.470388056041273 46.6976789637571 0.822662681456263 -39.2726639280875 0.822662681456268 -39.272663928087 0.470327365141096 46.6995144169545 
! Gamma         0                0                0                0                
! Port Impedance         50               0                50               0                
38.8                           0.477965260854876 45.7975193263858 0.818749620829419 -40.2873647907542 0.818749620829424 -40.2873647907567 0.477904162796081 45.7998539534633 
! Gamma         0                0                0                0                
! Port Impedance         50               0                50               0                
38.9                           0.485327450150023 44.9023915585884 0.814873122807828 -41.2927795169754 0.814873122807822 -41.2927795169779 0.485265962166242 44.9052112787058 
! Gamma         0                0                0                0                
! Port Impedance         50               0                50               0                
39                             0.492477071724128 44.0124810397956 0.811037393777516 -42.2890363541191 0.811037393777515 -42.2890363541196 0.492415209999705 44.0157729860379 
! Gamma         0                0                0                0                
! Port Impedance         50               0                50               0                
39.1                           0.499416701795906 43.127936117465  0.807246417152802 -43.2762726603004 0.807246417152802 -43.2762726603018 0.499354481542393 43.1316885322114 
! Gamma         0                0                0                0                
! Port Impedance         50               0                50               0                
39.2                           0.506149025245124 42.24887191978   0.803503958497239 -44.2546342073148 0.803503958497247 -44.2546342073152 0.506086460770763 42.253074062025  
! Gamma         0                0                0                0                
! Port Impedance         50               0                50               0                
39.3                           0.512676817031678 41.3753737350612 0.799813571279239 -45.2242745128395 0.799813571279243 -45.2242745128399 0.512613921804831 41.3800157981413 
! Gamma         0                0                0                0                
! Port Impedance         50               0                50               0                
39.4                           0.519002924774865 40.5075000166985 0.796178603161042 -46.1853542030723 0.796178603161048 -46.1853542030716 0.518939711482139 40.5125730551008 
! Gamma         0                0                0                0                
! Port Impedance         50               0                50               0                
39.5                           0.525130252467475 39.6452850627996 0.792602202726676 -47.1380404066103 0.792602202726684 -47.1380404066116 0.525066733067199 39.6507809269369 
! Gamma         0                0                0                0                
! Port Impedance         50               0                50               0                
39.6                           0.531061745294259 38.7887414119545 0.789087326561669 -48.0825061801207 0.789087326561673 -48.0825061801219 0.530997931065891 38.7946526899296 
! Gamma         0                0                0                0                
! Port Impedance         50               0                50               0                
39.7                           0.53680037551963 37.9378619901236 0.785636746604347 -49.0189299659679 0.785636746604347 -49.0189299659692 0.536736277109567 37.944181955664  
! Gamma         0                0                0                0                
! Port Impedance         50               0                50               0                
39.8                           0.542349129405695 37.0926220383886 0.782253057695666 -49.9474950818668 0.78225305769567 -49.947495081867 0.542284756869908 37.0993446042324 
! Gamma         0                0                0                0                
! Port Impedance         50               0                50               0                
39.9                           0.547710995118638 36.2529808469895 0.778938685261327 -50.8683892422498 0.778938685261332 -50.8683892422509 0.547646357962455 36.26010052311   
! Gamma         0                0                0                0                
! Port Impedance         50               0                50               0                
40                             0.552888951578949 35.4188833174594 0.775695893066618 -51.781804111002 0.77569589306662 -51.7818041110032 0.552824058794349 35.4263951735911 
! Gamma         0                0                0                0                
! Port Impedance         50               0                50               0                
40.1                           0.557885958209412 34.5902613716733 0.772526790990805 -52.6879348849525 0.772526790990811 -52.6879348849536 0.55782081831004 34.5981610036812 
! Gamma         0                0                0                0                
! Port Impedance         50               0                50               0                
40.2                           0.56270494553338 33.7670352241354 0.769433342773957 -53.5869799074384 0.76943334277396 -53.5869799074379 0.56263956658756 33.7753187238123 
! Gamma         0                0                0                0                
! Port Impedance         50               0                50               0                
40.3                           0.567348806575391 32.9491145316891 0.766417373694642 -54.4791403111202 0.766417373694653 -54.4791403111202 0.567283196237328 32.9577784596455 
! Gamma         0                0                0                0                
! Port Impedance         50               0                50               0                
40.4                           0.571820389015936 32.1363994330959 0.76348057814253 -55.3646196891538 0.763480578142539 -55.3646196891538 0.571754554555287 32.1454407944207 
! Gamma         0                0                0                0                
! Port Impedance         50               0                50               0                
40.5                           0.57612248805242 31.3287814893807 0.760624527054442 -56.2436237937454 0.760624527054453 -56.2436237937474 0.576056436382401 31.3381977118124 
! Gamma         0                0                0                0                
! Port Impedance         50               0                50               0                
40.6                           0.580257839919032 30.526144534588  0.757850675187425 -57.1163602610607 0.757850675187429 -57.1163602610609 0.580191577623215 30.5359334489573 
! Gamma         0                0                0                0                
! Port Impedance         50               0                50               0                
40.7                           0.584229116019069 29.7283654454625 0.755160368206094 -57.9830383614428 0.755160368206101 -57.9830383614446 0.584162649376982 29.7385252682014 
! Gamma         0                0                0                0                
! Port Impedance         50               0                50               0                
40.8                           0.588038917624495 28.9353148376542 0.752554849565698 -58.8438687738515 0.752554849565697 -58.8438687738517 0.587972252636159 28.9458441551874 
! Gamma         0                0                0                0                
! Port Impedance         50               0                50               0                
40.9                           0.591689771098818 28.1468576951993 0.750035267175341 -59.6990633834133 0.750035267175348 -59.6990633834152 0.591622913508326 28.1577554500629 
! Gamma         0                0                0                0                
! Port Impedance         50               0                50               0                
41                             0.595184123600962 27.3628539393495 0.747602679829268 -60.5488351010097 0.747602679829267 -60.548835101008 0.595117078919201 27.3741194178919 
! Gamma         0                0                0                0                
! Port Impedance         50               0                50               0                
41.1                           0.598524339229424 26.5831589421807 0.745258063396452 -61.3933977037774 0.745258063396458 -61.3933977037775 0.598457112756019 26.5947917637266 
! Gamma         0                0                0                0                
! Port Impedance         50               0                50               0                
41.2                           0.601712695567769 25.8076239898978 0.74300231676149 -62.2329656954971 0.743002316761496 -62.232965695498 0.601645292412364 25.8196240972671 
! Gamma         0                0                0                0                
! Port Impedance         50               0                50               0                
41.3                           0.604751380594337 25.0360967002604 0.740836267511492 -63.0677541857432 0.740836267511502 -63.0677541857449 0.604683805697264 25.0484643515436 
! Gamma         0                0                0                0                
! Port Impedance         50               0                50               0                
41.4                           0.607642489920876 24.2684213981518 0.738760677365927 -63.8979787868189 0.738760677365929 -63.8979787868163 0.607574748073305 24.2811571596649 
! Gamma         0                0                0                0                
! Port Impedance         50               0                50               0                
41.5                           0.610388024326668 23.5044394529413 0.736776247347563 -64.7238555274269 0.73677624734757 -64.7238555274286 0.610320120190308 23.5175441932841 
! Gamma         0                0                0                0                
! Port Impedance         50               0                50               0                
41.6                           0.612989887556573 22.7439895809671 0.734883622694208 -65.545600782159 0.734883622694214 -65.545600782159 0.612921825682989 22.7574644661246 
! Gamma         0                0                0                0                
! Port Impedance         50               0                50               0                
41.7                           0.615449884353273 21.9869081161815 0.733083397511927 -66.3634312157706 0.733083397511931 -66.3634312157698 0.615381669202897 22.0007546056145 
! Gamma         0                0                0                0                
! Port Impedance         50               0                50               0                
41.8                           0.617769718695765 21.2330292517383 0.731376119171328 -67.17756374144  0.731376119171333 -67.1775637414399 0.617701354656653 21.2472490954158 
! Gamma         0                0                0                0                
! Port Impedance         50               0                50               0                
41.9                           0.619950992217946 20.4821852550842 0.729762292449367 -67.9882154920601 0.729762292449371 -67.9882154920609 0.619882483624352 20.4967804914213 
! Gamma         0                0                0                0                
! Port Impedance         50               0                50               0                
42                             0.621995202782807 19.734206658902  0.728242383419376 -68.7956038037697 0.728242383419381 -68.7956038037704 0.621926553933644 19.7491796135707 
! Gamma         0                0                0                0                
! Port Impedance         50               0                50               0                
42.1                           0.623903743189458 18.9889224300841 0.72681682309274 -69.5999462109071 0.72681682309275 -69.5999462109086 0.623834958366693 19.0042757156703 
! Gamma         0                0                0                0                
! Port Impedance         50               0                50               0                
42.2                           0.625677899991734 18.2461601187457 0.72548601081559 -70.4014604516381 0.725486010815593 -70.4014604516372 0.625608983478789 18.2618966352327 
! Gamma         0                0                0                0                
! Port Impedance         50               0                50               0                
42.3                           0.627318852408734 17.5057459891482 0.724250317424292 -71.2003644835009 0.7242503174243  -71.2003644835015 0.62724980850896 17.5218689252135 
! Gamma         0                0                0                0                
! Port Impedance         50               0                50               0                
42.4                           0.628827671309068 16.7675051342772 0.723110088163354 -71.9968765082177 0.723110088163359 -71.9968765082183 0.628758504364345 16.7840179693917 
! Gamma         0                0                0                0                
! Port Impedance         50               0                50               0                
42.5                           0.630205318252015 16.0312615757042 0.722065645369192 -72.7912150050406 0.722065645369199 -72.7912150050412 0.630136032661543 16.0481680830294 
! Gamma         0                0                0                0                
! Port Impedance         50               0                50               0                
42.6                           0.631452644570157 15.2968383502675 0.721117290923357 -73.5835987720593 0.72111729092336 -73.5835987720601 0.631383244809517 15.3141426003524 
! Gamma         0                0                0                0                
! Port Impedance         50               0                50               0                
42.7                           0.632570390479333 14.5640575850189 0.720265308478162 -74.374246974825 0.720265308478169 -74.3742469748256 0.63250088111986 14.5817639503008 
! Gamma         0                0                0                0                
! Port Impedance         50               0                50               0                
42.8                           0.633559184203014 13.8327405618126 0.719509965457565 -75.1633792016999 0.719509965457569 -75.1633792017005 0.63348956993158 13.8508537219317 
! Gamma         0                0                0                0                
! Port Impedance         50               0                50               0                
42.9                           0.634419541099381 13.1027077728464 0.718851514835667 -75.9512155254062 0.718851514835669 -75.9512155254053 0.634349826738637 13.1212327207894 
! Gamma         0                0                0                0                
! Port Impedance         50               0                50               0                
43                             0.635151862780574 12.3737789684209 0.718290196694673 -76.7379765701767 0.718290196694679 -76.7379765701772 0.635082053309728 12.3927210175122 
! Gamma         0                0                0                0                
! Port Impedance         50               0                50               0                
43.1                           0.635756436214646 11.6457731981328 0.717826239563767 -77.5238835840376 0.717826239563769 -77.5238835840367 0.635686536790868 11.6651379898977 
! Gamma         0                0                0                0                
! Port Impedance         50               0                50               0                
43.2                           0.636233432801896 10.9185088466958 0.717459861539554 -78.30915851566  0.717459861539563 -78.3091585156612 0.636163448782413 10.9383023596259 
! Gamma         0                0                0                0                
! Port Impedance         50               0                50               0                
43.3                           0.636582907418286 10.1918036655579 0.717191271188346 -79.0940240953138 0.717191271188349 -79.0940240953145 0.636512844383262 10.2120322248116 
! Gamma         0                0                0                0                
! Port Impedance         50               0                50               0                
43.4                           0.636804797419705 9.46547480147405 0.717020668229692 -79.8787039194115 0.717020668229694 -79.8787039194114 0.636734661195992 9.48614508955297 
! Gamma         0                0                0                0                
! Port Impedance         50               0                50               0                
43.5                           0.636898921601882 8.73933882319341 0.716948243999904 -80.6634225381417 0.716948243999915 -80.6634225381436 0.636828718287731 8.76045789164042 
! Gamma         0                0                0                0                
! Port Impedance         50               0                50               0                
43.6                           0.636864979111794 8.01321174742935 0.716974181693742 -81.4484055457461 0.71697418169375 -81.4484055457465 0.636794715102643 8.03478702959975 
! Gamma         0                0                0                0                
! Port Impedance         50               0                50               0                
43.7                           0.636702548307469 7.28690906530173 0.717098656381233 -82.2338796728718 0.717098656381235 -82.2338796728724 0.636632230322884 7.30894839026594 
! Gamma         0                0                0                0                
! Port Impedance         50               0                50               0                
43.8                           0.636411085564141 6.5602457704716  0.717321834796318 -83.0200728805807 0.717321834796325 -83.0200728805818 0.636340720676045 6.58275737811497 
! Gamma         0                0                0                0                
! Port Impedance         50               0                50               0                
43.9                           0.635989924025818 5.83303639023109 0.717643874892743 -83.807214455446 0.717643874892748 -83.8072144554464 0.635919519688133 5.85602894762359 
! Gamma         0                0                0                0                
! Port Impedance         50               0                50               0                
44                             0.635438272302486 5.10509502086665 0.718064925161942 -84.5955351052306 0.71806492516195 -84.5955351052317 0.635367836382287 5.12857763998419 
! Gamma         0                0                0                0                
! Port Impedance         50               0                50               0                
44.1                           0.634755213114314 4.37623536868142 0.718585123706765 -85.3852670546196 0.718585123706767 -85.3852670546194 0.634684753924665 4.40021762556854 
! Gamma         0                0                0                0                
! Port Impedance         50               0                50               0                
44.2                           0.633939701885525 3.64627079814298 0.71920459706391 -86.1766441403903 0.719204597063918 -86.1766441403913 0.633869228220124 3.6707627536175  
! Gamma         0                0                0                0                
! Port Impedance         50               0                50               0                
44.3                           0.632990565291888 2.91501438872149 0.719923458767129 -86.9699019054945 0.719923458767135 -86.9699019054956 0.632920086461692 2.94002661073227 
! Gamma         0                0                0                0                
! Port Impedance         50               0                50               0                
44.4                           0.63190649976723 2.18227900209299 0.720741807642172 -87.7652776913483 0.720741807642179 -87.7652776913501 0.631836025639219 2.20782258985315 
! Gamma         0                0                0                0                
! Port Impedance         50               0                50               0                
44.5                           0.63068606997584 1.44787736151533 0.721659725823623 -88.5630107277176 0.721659725823624 -88.5630107277174 0.63061561101412 1.47396397154753 
! Gamma         0                0                0                0                
! Port Impedance         50               0                50               0                
44.6                           0.629327707259323 0.711622145333069 0.722677276482812 -89.3633422194606 0.722677276482814 -89.3633422194611 0.62925727456876 0.738264019577773 
! Gamma         0                0                0                0                
! Port Impedance         50               0                50               0                
44.7                           0.627829708068166 -0.0266739032605332 0.723794501254986 -90.1665154293812 0.723794501254989 -90.1665154293816 0.627759313440767 0.00053609289207942 
! Gamma         0                0                0                0                
! Port Impedance         50               0                50               0                
44.8                           0.626190232390213 -0.767197847881764 0.725011417353099 -90.9727757563691 0.725011417353103 -90.9727757563695 0.626119888354503 -0.739406223619158 
! Gamma         0                0                0                0                
! Port Impedance         50               0                50               0                
44.9                           0.624407302190318 -1.51013640948927 0.726328014354511 -91.7823708079553 0.726328014354517 -91.7823708079563 0.624337022063954 -1.4817489670366 
! Gamma         0                0                0                0                
! Port Impedance         50               0                50               0                
45                             0.622478799877657 -2.25567579299431 0.72774425064634 -92.5955504663592 0.727744250646343 -92.5955504663596 0.622408597823571 -2.22667762017638 
! Gamma         0                0                0                0                
! Port Impedance         50               0                50               0                
45.1                           0.620402466819669 -3.00400148686741 0.729260049513935 -93.4125669469763 0.729260049513941 -93.4125669469778 0.620332357906049 -2.97437690809728 
! Gamma         0                0                0                0                
! Port Impedance         50               0                50               0                
45.2                           0.618175901924192 -3.7552980323359 0.730875294856672 -94.2336748482644 0.730875294856679 -94.2336748482653 0.618105902188633 -3.72503056391907 
! Gamma         0                0                0                0                
! Port Impedance         50               0                50               0                
45.3                           0.615796560314313 -4.50974875840163 0.732589826514165 -95.0591311918038 0.732589826514165 -95.0591311918042 0.615726686832503 -4.47882106014855 
! Gamma         0                0                0                0                
! Port Impedance         50               0                50               0                
45.4                           0.613261752123516 -5.26753547849551 0.734403435185766 -95.889195451298 0.734403435185768 -95.8891954512983 0.613192023082871 -5.23592930129472 
! Gamma         0                0                0                0                
! Port Impedance         50               0                50               0                
45.5                           0.61056864144217 -6.02883814411486 0.736315856925525 -96.7241295691216 0.736315856925531 -96.724129569123 0.610499076220865 -5.99653427307866 
! Gamma         0                0                0                0                
! Port Impedance         50               0                50               0                
45.6                           0.60771424545006 -6.79383445025773 0.738326767194622 -97.5641979589554 0.738326767194625 -97.5641979589557 0.607644864701945 -6.76081264300666 
! Gamma         0                0                0                0                
! Port Impedance         50               0                50               0                
45.7                           0.60469543377367 -7.56269938686316 0.740435774453126 -98.4096674929198 0.740435774453126 -98.4096674929196 0.604626259519618 -7.52893830646465 
! Gamma         0                0                0                0                
! Port Impedance         50               0                50               0                
45.8                           0.601508928111211 -8.33560472977932 0.742642413273019 -99.2608074714916 0.742642413273023 -99.2608074714924 0.601439983837495 -8.30108187179648 
! Gamma         0                0                0                0                
! Port Impedance         50               0                50               0                
45.9                           0.598151302173073 -9.11271846399373 0.744946136954888 -100.117889574402 0.74494613695489 -100.117889574402 0.598082612937481 -9.07741007703426 
! Gamma         0                0                0                0                
! Port Impedance         50               0                50               0                
46                             0.594618981990339 -9.89420413096485 0.747346309631115 -100.981187790517 0.74734630963112 -100.981187790519 0.594550574536711 -9.85808513004329 
! Gamma         0                0                0                0                
! Port Impedance         50               0                50               0                
46.1                           0.590908246649337 -10.6802200908656 0.749842197839714 -101.850978324643 0.749842197839715 -101.850978324644 0.590840149531435 -10.6432639628061 
! Gamma         0                0                0                0                
! Port Impedance         50               0                50               0                
46.2                           0.587015229515981 -11.4709186893647 0.752432961554165 -102.727539479007 0.752432961554165 -102.727539479007 0.586947473231565 -11.4330973893709 
! Gamma         0                0                0                0                
! Port Impedance         50               0                50               0                
46.3                           0.582935920019624 -12.2664453172156 0.755117644656485 -103.611151507033 0.755117644656485 -103.611151507033 0.582868537155831 -12.2277291556209 
! Gamma         0                0                0                0                
! Port Impedance         50               0                50               0                
46.4                           0.578666166072704 -13.0669373493423 0.757895164843313 -104.502096436916 0.757895164843316 -104.502096436917 0.578599191463882 -13.0272948674214 
! Gamma         0                0                0                0                
! Port Impedance         50               0                50               0                
46.5                           0.574201677209167 -13.8725229482899 0.760764302957709 -105.400657862315 0.760764302957711 -105.400657862316 0.574135148108521 -13.831920781861 
! Gamma         0                0                0                0                
! Port Impedance         50               0                50               0                
46.6                           0.569538028531847 -14.6833197147764 0.763723691743008 -106.307120697364 0.763723691743007 -106.307120697364 0.569471984798404 -14.6417224441452 
! Gamma         0                0                0                0                
! Port Impedance         50               0                50               0                
46.7                           0.564670665566458 -15.4994331655965 0.766771804019689 -107.221770893081 0.76677180401969 -107.221770893081 0.564605149869056 -15.4568031501954 
! Gamma         0                0                0                0                
! Port Impedance         50               0                50               0                
46.8                           0.559594910127536 -16.3209550162162 0.769906940291317 -108.144895112081 0.769906940291317 -108.144895112081 0.559529968167818 -16.2772522120457 
! Gamma         0                0                0                0                
! Port Impedance         50               0                50               0                
46.9                           0.554305967309792 -17.147961241944 0.773127215792025 -109.076780358442 0.773127215792026 -109.076780358443 0.554241648066424 -17.1031429996553 
! Gamma         0                0                0                0                
! Port Impedance         50               0                50               0                
47                             0.548798933726474 -17.9805098875075 0.776430546995099 -110.017713559399 0.776430546995099 -110.0177135594  0.548735289723136 -17.9345307286353 
! Gamma         0                0                0                0                
! Port Impedance         50               0                50               0                
47.1                           0.543068807124748 -18.8186385900089 0.779814637610785 -110.967981095533 0.779814637610787 -110.967981095534 0.543005894724908 -18.7714499584864 
! Gamma         0                0                0                0                
! Port Impedance         50               0                50               0                
47.2                           0.537110497516621 -19.662361774455 0.78327696411086 -111.927868275995 0.783276964110858 -111.927868275995 0.537048377248428 -19.6139117600929 
! Gamma         0                0                0                0                
! Port Impedance         50               0                50               0                
47.3                           0.530918839972375 -20.5116674740994 0.786814760828457 -112.897658755329 0.786814760828457 -112.89765875533 0.530857576887675 -20.4619005041897 
! Gamma         0                0                0                0                
! Port Impedance         50               0                50               0                
47.4                           0.52448860923202 -21.3665137194624 0.790425004693955 -113.877633888438 0.790425004693952 -113.877633888439 0.524428273304066 -21.3153702140295 
! Gamma         0                0                0                0                
! Port Impedance         50               0                50               0                
47.5                           0.517814536298686 -22.2268244297082 0.794104399681262 -114.868072020293 0.794104399681265 -114.868072020293 0.517755202863913 -22.1742404151984 
! Gamma         0                0                0                0                
! Port Impedance         50               0                50               0                
47.6                           0.510891327186041 -23.0924847276727 0.797849361054153 -115.869247707097 0.797849361054153 -115.869247707097 0.510833077436215 -23.0383914029773 
! Gamma         0                0                0                0                
! Port Impedance         50               0                50               0                
47.7                           0.503713684000134 -23.9633355846233 0.801655999518852 -116.881430865795 0.801655999518849 -116.881430865795 0.503656605532298 -23.9076588322697 
! Gamma         0                0                0                0                
! Port Impedance         50               0                50               0                
47.8                           0.496276328543966 -24.8391676820998 0.80552010540732 -117.904885849015 0.805520105407323 -117.904885849015 0.496220515976902 -24.7818275161678 
! Gamma         0                0                0                0                
! Port Impedance         50               0                50               0                
47.9                           0.488574028641249 -25.7197143549589 0.80943713303525 -118.939870442891 0.809437133035251 -118.939870442892 0.488519584308937 -25.6606242957331 
! Gamma         0                0                0                0                
! Port Impedance         50               0                50               0                
48                             0.480601627384189 -26.6046434507845 0.813402185399702 -119.9866347856  0.813402185399702 -119.9866347856  0.480548662118644 -26.5437098142848 
! Gamma         0                0                0                0                
! Port Impedance         50               0                50               0                
48.1                           0.472354075519147 -27.4935479045118 0.817409999403634 -121.045420204941 0.817409999403634 -121.045420204942 0.472302709537556 -27.4306689927717 
! Gamma         0                0                0                0                
! Port Impedance         50               0                50               0                
48.2                           0.463826467194568 -28.385934781294 0.821454931817549 -122.116457973936 0.821454931817548 -122.116457973937 0.463776831108648 -28.32099995646  
! Gamma         0                0                0                0                
! Port Impedance         50               0                50               0                
48.3                           0.455014079308272 -29.2812124824411 0.825530946212538 -123.199967984137 0.825530946212539 -123.199967984138 0.454966315277602 -29.2141011043633 
! Gamma         0                0                0                0                
! Port Impedance         50               0                50               0                
48.4                           0.445912414708202 -30.1786757349073 0.829631601123071 -124.296157337214 0.829631601123071 -124.296157337215 0.445866677763942 -30.1092559376539 
! Gamma         0                0                0                0                
! Port Impedance         50               0                50               0                
48.5                           0.436517249523504 -31.0774878890992 0.833750039722025 -125.405218856393 0.833750039722022 -125.405218856393 0.436473709094844 -31.0056151666033 
! Gamma         0                0                0                0                
! Port Impedance         50               0                50               0                
48.6                           0.426824684935593 -31.9766599257676 0.837878981313793 -126.527329520479 0.837878981313793 -126.527329520479 0.426783526618783 -31.9021754902785 
! Gamma         0                0                0                0                
! Port Impedance         50               0                50               0                
48.7                           0.416831203745278 -32.8750254108529 0.842010714973287 -127.662648824486 0.842010714973287 -127.662648824486 0.416792631364488 -32.7977542796897 
! Gamma         0                0                0                0                
! Port Impedance         50               0                50               0                
48.8                           0.406533732159965 -33.771210424146 0.84613709567836 -128.811317072348 0.846137095678357 -128.811317072348 0.406497970181395 -33.6909591799365 
! Gamma         0                0                0                0                
! Port Impedance         50               0                50               0                
48.9                           0.395929707323046 -34.6635972051024 0.850249543300028 -129.973453608808 0.850249543300027 -129.973453608809 0.395897003699243 -34.5801513616369 
! Gamma         0                0                0                0                
! Port Impedance         50               0                50               0                
49                             0.38501715125042 -35.5502798811243 0.854339044827349 -131.149154999277 0.854339044827346 -131.149154999277 0.384987780792126 -35.4634007703139 
! Gamma         0                0                0                0                
! Port Impedance         50               0                50               0                
49.1                           0.373794752046576 -36.42901013327  0.858396160211246 -132.338493168372 0.858396160211244 -132.338493168372 0.373769020445706 -36.3384312073992 
! Gamma         0                0                0                0                
! Port Impedance         50               0                50               0                
49.2                           0.362261953573451 -37.2971299585538 0.862411032212627 -133.541513509786 0.862411032212625 -133.541513509786 0.362240202235869 -37.2025523745795 
! Gamma         0                0                0                0                
! Port Impedance         50               0                50               0                
49.3                           0.350419055182805 -38.1514877296603 0.866373400633512 -134.758232982217 0.866373400633511 -134.758232982217 0.350401667075891 -38.0525750468132 
! Gamma         0                0                0                0                
! Port Impedance         50               0                50               0                
49.4                           0.338267323759857 -38.9883324183937 0.870272621294474 -135.988638208218 0.870272621294472 -135.988638208218 0.338254730542278 -38.8847041941889 
! Gamma         0                0                0                0                
! Port Impedance         50               0                50               0                
49.5                           0.325809121257731 -39.8031789690981 0.874097690096179 -137.232683594922 0.874097690096178 -137.232683594922 0.325801812043368 -39.6944029786643 
! Gamma         0                0                0                0                
! Port Impedance         50               0                50               0                
49.6                           0.313048052273754 -40.5906351264689 0.877837272466138 -138.490289497729 0.877837272466136 -138.490289497729 0.313046584497763 -40.4762178514038 
! Gamma         0                0                0                0                
! Port Impedance         50               0                50               0                
49.7                           0.299989138253994 -41.3441761456998 0.881479738442983 -139.761340450021 0.881479738442982 -139.761340450021 0.299994151269634 -41.2235510758289 
! Gamma         0                0                0                0                
! Port Impedance         50               0                50               0                
49.8                           0.286639027964691 -42.0558481300011 0.885013203588914 -141.045683483826 0.885013203588913 -141.045683483826 0.286651260224975 -41.9283612876282 
! Gamma         0                0                0                0                
! Port Impedance         50               0                50               0                
49.9                           0.273006258505074 -42.7158722832242 0.888425575845953 -142.34312656797 0.888425575845952 -142.34312656797 0.273026569502893 -42.580764207464 
! Gamma         0                0                0                0                
! Port Impedance         50               0                50               0                
50                             0.259101588281622 -43.3121095772792 0.891704608363416 -143.653437191582 0.891704608363416 -143.653437191582 0.259130986881302 -43.1684927903201 
! Gamma         0                0                0                0                
! Port Impedance         50               0                50               0                
50.1                           0.24493843456937 -43.8293256700562 0.894837958222755 -144.976341121746 0.894837958222754 -144.976341121746 0.244978116029885 -43.6761563904267 
! Gamma         0                0                0                0                
! Port Impedance         50               0                50               0                
50.2                           0.230533466198406 -44.2481651380343 0.897813250872854 -146.311521364592 0.897813250872853 -146.311521364592 0.230584861169716 -44.0842077349794 
! Gamma         0                0                0                0                
! Port Impedance         50               0                50               0                
50.3                           0.21590743115953 -44.5436950602658 0.9006181499654  -147.658617359032 0.9006181499654  -147.658617359032 0.215972271390367 -44.3674775493419 
! Gamma         0                0                0                0                
! Port Impedance         50               0                50               0                
50.4                           0.201086347839485 -44.6832984671499 0.903240432148307 -149.017224431726 0.903240432148307 -149.017224431726 0.201166755511067 -44.4930574831218 
! Gamma         0                0                0                0                
! Port Impedance         50               0                50               0                
50.5                           0.186103272475602 -44.6235670115783 0.90566806623834 -150.386893540485 0.90566806623834 -150.386893540485 0.186201883324014 -44.4171818174995 
! Gamma         0                0                0                0                
! Port Impedance         50               0                50               0                
50.6                           0.171001003121897 -44.3056230223303 0.907889296055364 -151.767131331299 0.907889296055364 -151.767131331299 0.17112113828213 -44.0805418888108 
! Gamma         0                0                0                0                
! Port Impedance         50               0                50               0                
50.7                           0.155836347563934 -43.6479328269656 0.909892726064284 -153.157400531367 0.909892726064284 -153.157400531367 0.155982255723298 -43.4011057567442 
! Gamma         0                0                0                0                
! Port Impedance         50               0                50               0                
50.8                           0.140687077943431 -42.535062600246 0.911667408841099 -154.557120696954 0.9116674088411  -154.557120696954 0.140864277353007 -42.2629226130838 
! Gamma         0                0                0                0                
! Port Impedance         50               0                50               0                
50.9                           0.125663629943352 -40.7998742911415 0.91320293326161 -155.965669330625 0.913202933261609 -155.965669330624 0.125879384392338 -40.4984828064462 
! Gamma         0                0                0                0                
! Port Impedance         50               0                50               0                
51                             0.110929369276109 -38.1954567279932 0.914489512209979 -157.382383377395 0.914489512209979 -157.382383377395 0.11119331336627 -37.8611164614976 
! Gamma         0                0                0                0                
! Port Impedance         50               0                50               0                
51.1                           0.0967364181518752 -34.3529143798241 0.91551806852476 -158.806561103784 0.91551806852476 -158.806561103784 0.0970612338572919 -33.9840187883838 
! Gamma         0                0                0                0                
! Port Impedance         50               0                50               0                
51.2                           0.0834886231633072 -28.7284912908774 0.916280317846386 -160.237464357599 0.916280317846386 -160.237464357599 0.0838902356831885 -28.3304059356808 
! Gamma         0                0                0                0                
! Port Impedance         50               0                50               0                
51.3                           0.0718437999485617 -20.5831551850445 0.916768847006915 -161.674321199828 0.916768847006916 -161.674321199827 0.0723392459094688 -20.1793172288918 
! Gamma         0                0                0                0                
! Port Impedance         50               0                50               0                
51.4                           0.0628331459919945 -9.16971128083676 0.916977186612862 -163.116328893276 0.916977186612862 -163.116328893276 0.0634317057961601 -8.81913738977942 
! Gamma         0                0                0                0                
! Port Impedance         50               0                50               0                
51.5                           0.057824387166787 5.51890657077719 0.916899876517482 -164.562657225868 0.916899876517484 -164.562657225868 0.0585089387237775 5.72143456188102 
! Gamma         0                0                0                0                
! Port Impedance         50               0                50               0                
51.6                           0.0579619009568925 21.6869203981504 0.916532522960785 -166.012452139872 0.916532522960786 -166.012452139871 0.058678638175839 21.6764591264381 
! Gamma         0                0                0                0                
! Port Impedance         50               0                50               0                
51.7                           0.0632763959116794 36.3580204688022 0.915871846273045 -167.464839632115 0.915871846273047 -167.464839632116 0.0639637508092517 36.1694400788617 
! Gamma         0                0                0                0                
! Port Impedance         50               0                50               0                
51.8                           0.0726752208542306 47.7446834338527 0.914915718188862 -168.918929884515 0.914915718188864 -168.918929884515 0.0732999899899051 47.4638650767717 
! Gamma         0                0                0                0                
! Port Impedance         50               0                50               0                
51.9                           0.0848225457225171 55.8596137239318 0.913663188000026 -170.373821579291 0.913663188000028 -170.373821579291 0.0853796195343595 55.5514579215151 
! Gamma         0                0                0                0                
! Port Impedance         50               0                50               0                
52                             0.0987024686481487 61.4511267150483 0.912114496981972 -171.828606349182 0.912114496981974 -171.828606349182 0.0991991413727246 61.1479400029571 
! Gamma         0                0                0                0                
! Port Impedance         50               0                50               0                
52.1                           0.113662617518401 65.2577142372032 0.910271080754003 -173.28237330997 0.910271080754002 -173.28237330997 0.114108779950491 64.9720867803737 
! Gamma         0                0                0                0                
! Port Impedance         50               0                50               0                
52.2                           0.129299356505959 67.822473497122  0.908135559471058 -174.734213620754 0.908135559471061 -174.734213620754 0.12970397969641 67.5578603043585 
! Gamma         0                0                0                0                
! Port Impedance         50               0                50               0                
52.3                           0.145357925944822 69.5138822692288 0.905711715986501 -176.183225016822 0.905711715986502 -176.183225016822 0.145728303207716 69.2699982059273 
! Gamma         0                0                0                0                
! Port Impedance         50               0                50               0                
52.4                           0.161670630801063 70.5786690189957 0.903004462363792 -177.628516260524 0.903004462363798 -177.628516260523 0.162012492969522 70.35387806586   
! Gamma         0                0                0                0                
! Port Impedance         50               0                50               0                
52.5                           0.178121598864097 71.1839590497022 0.900019795341837 -179.069211457455 0.900019795341838 -179.069211457455 0.178439419925376 70.9762726812153 
! Gamma         0                0                0                0                
! Port Impedance         50               0                50               0                
52.6                           0.194626841118824 71.4452888411239 0.896764741567144 179.495545811786 0.896764741567146 179.495545811786 0.1949241304899  71.2527617618595 
! Gamma         0                0                0                0                
! Port Impedance         50               0                50               0                
52.7                           0.211122760852321 71.4443730091009 0.893247293589617 178.066588589964 0.893247293589618 178.066588589965 0.211402297228493 71.2652435126835 
! Gamma         0                0                0                0                
! Port Impedance         50               0                50               0                
52.8                           0.227559350259841 71.2403241887378 0.889476337771899 176.644722912385 0.889476337771896 176.644722912384 0.227823358214453 71.0730484024714 
! Gamma         0                0                0                0                
! Port Impedance         50               0                50               0                
52.9                           0.243896044305924 70.8768235945098 0.885461575381747 175.230724481957 0.885461575381751 175.230724481958 0.244146325223611 70.7200676137722 
! Gamma         0                0                0                0                
! Port Impedance         50               0                50               0                
53                             0.260099121629633 70.386787835599  0.881213438219509 173.825335678883 0.881213438219515 173.825335678884 0.260337150571616 70.2394051274812 
! Gamma         0                0                0                0                
! Port Impedance         50               0                50               0                
53.1                           0.276140030730587 69.7954681749639 0.876743000178552 172.429262927178 0.876743000178553 172.429262927178 0.276367028469099 69.6564737601306 
! Gamma         0                0                0                0                
! Port Impedance         50               0                50               0                
53.2                           0.291994283606799 69.1225509390433 0.872061886145215 171.043174433437 0.872061886145216 171.043174433437 0.292211270654473 68.9910969340244 
! Gamma         0                0                0                0                
! Port Impedance         50               0                50               0                
53.3                           0.307640705211643 68.3836090570884 0.86718217961907 169.667698306569 0.867182179619071 169.667698306568 0.307848542752945 68.2589631446612 
! Gamma         0                0                0                0                
! Port Impedance         50               0                50               0                
53.4                           0.32306091029548 67.5911238263511 0.862116330376696 168.303421060717 0.862116330376693 168.303421060716 0.323260331519789 67.4726509403777 
! Gamma         0                0                0                0                
! Port Impedance         50               0                50               0                
53.5                           0.338238927842702 66.7552166341636 0.856877063417294 166.950886497471 0.856877063417291 166.95088649747  0.338430562178066 66.6423636358684 
! Gamma         0                0                0                0                
! Port Impedance         50               0                50               0                
53.6                           0.353160922507525 65.8841814321783 0.851477290320489 165.610594957868 0.851477290320484 165.610594957867 0.353345314550364 65.7764643865313 
! Gamma         0                0                0                0                
! Port Impedance         50               0                50               0                
53.7                           0.367814980405114 64.9848780397322 0.845930024021232 164.283002929707 0.845930024021232 164.283002929706 0.36799260484622 64.8818716782884 
! Gamma         0                0                0                0                
! Port Impedance         50               0                50               0                
53.8                           0.382190937908217 64.0630267201787 0.840248297868815 162.968522991393 0.840248297868812 162.968522991393 0.38236221140598 63.9643557119701 
! Gamma         0                0                0                0                
! Port Impedance         50               0                50               0                
53.9                           0.39628023935107 63.1234317035893 0.834445089691665 161.667524069969 0.834445089691666 161.667524069968 0.396445530054131 63.0287634090364 
! Gamma         0                0                0                0                
! Port Impedance         50               0                50               0                
54                             0.410075814283154 62.1701528818736 0.828533251442061 160.380331988171 0.82853325144206 160.38033198817  0.410235449526318 62.0791913191618 
! Gamma         0                0                0                0                
! Port Impedance         50               0                50               0                
54.1                           0.423571968062719 61.2066392247709 0.822525444849254 159.107230273343 0.822525444849263 159.107230273344 0.423726240630662 61.1191200271972 
! Gamma         0                0                0                0                
! Port Impedance         50               0                50               0                
54.2                           0.436764281694727 60.2358335914456 0.816434083369348 157.848461199616 0.81643408336935 157.848461199615 0.436913454953542 60.1515197759091 
! Gamma         0                0                0                0                
! Port Impedance         50               0                50               0                
54.3                           0.449649518250731 59.2602559318836 0.810271280589417 156.604227034164 0.810271280589419 156.604227034164 0.449793830377525 59.1789343330738 
! Gamma         0                0                0                0                
! Port Impedance         50               0                50               0                
54.4                           0.462225534182849 58.282069992754  0.804048805123288 155.374691458258 0.804048805123293 155.374691458259 0.46236520167165 58.2035482454736 
! Gamma         0                0                0                0                
! Port Impedance         50               0                50               0                
54.5                           0.474491194506051 57.3031373081292 0.797778041929628 154.159981134286 0.797778041929623 154.159981134285 0.47462641508912 57.2272412826458 
! Gamma         0                0                0                0                
! Port Impedance         50               0                50               0                
54.6                           0.486446291268962 56.3250612972922 0.791469959890194 152.960187390904 0.791469959890193 152.960187390904 0.486577246362935 56.2516329105946 
! Gamma         0                0                0                0                
! Port Impedance         50               0                50               0                
54.7                           0.498091465028647 55.349223596322  0.785135085407807 151.775367999747 0.785135085407796 151.775367999746 0.498218321792238 55.2781189365708 
! Gamma         0                0                0                0                
! Port Impedance         50               0                50               0                
54.8                           0.509428129234298 54.3768142401846 0.778783481719664 150.60554901875  0.778783481719663 150.605549018749 0.509551042306757 54.307901953175  
! Gamma         0                0                0                0                
! Port Impedance         50               0                50               0                
54.9                           0.520458397539882 53.4088569346131 0.772424733572365 149.45072667903  0.772424733572363 149.45072667903  0.52057751051578 53.3420168303369 
! Gamma         0                0                0                0                
! Port Impedance         50               0                50               0                
55                             0.531185014128842 52.4462303752723 0.76606793686776 148.31086929419  0.766067936867758 148.31086929419  0.53130046081411 52.3813522201117 
! Gamma         0                0                0                0                
! Port Impedance         50               0                50               0                
55.1                           0.541611287161008 51.489686359589  0.75972169286509 147.185919173091 0.759721692865094 147.185919173092 0.541723192646709 51.4266688256957 
! Gamma         0                0                0                0                
! Port Impedance         50               0                50               0                
55.2                           0.551741025454506 50.5398652757452 0.753394106510872 146.075794519197 0.753394106510864 146.075794519196 0.551849507038152 50.4786150240253 
! Gamma         0                0                0                0                
! Port Impedance         50               0                50               0                
55.3                           0.561578478502063 49.5973094304229 0.747092788464487 144.980391301771 0.747092788464491 144.980391301772 0.561683646480969 49.5377403075116 
! Gamma         0                0                0                0                
! Port Impedance         50               0                50               0                
55.4                           0.571128279898056 48.6624745823488 0.740824860391266 143.899585086213 0.740824860391266 143.899585086212 0.571230238254895 48.6045069151919 
! Gamma         0                0                0                0                
! Port Impedance         50               0                50               0                
55.5                           0.580395394224023 47.7357399755185 0.734596963106316 142.83323281284  0.734596963106319 142.833232812839 0.580494241221297 47.6792999498213 
! Gamma         0                0                0                0                
! Port Impedance         50               0                50               0                
55.6                           0.589385067409797 46.8174171089691 0.728415267168872 141.781174515312 0.728415267168879 141.781174515313 0.589480896107126 46.7624362199547 
! Gamma         0                0                0                0                
! Port Impedance         50               0                50               0                
55.7                           0.598102780556827 45.9077574353259 0.722285485547312 140.743234971549 0.7222854855473  140.743234971549 0.59819567926263 45.8541720010381 
! Gamma         0                0                0                0                
! Port Impedance         50               0                50               0                
55.8                           0.606554207181343 45.0069591451508 0.716212887999617 139.719225281686 0.716212887999611 139.719225281686 0.606644259848619 44.9547098740278 
! Gamma         0                0                0                0                
! Port Impedance         50               0                50               0                
55.9                           0.614745173808706 44.1151731662451 0.710202316839788 138.708944369028 0.710202316839778 138.708944369027 0.614832460383054 44.0642047719249 
! Gamma         0                0                0                0                
! Port Impedance         50               0                50               0                
56                             0.622681623827268 43.2325084848303 0.704258203788082 137.712180401254 0.704258203788082 137.712180401254 0.622766220554   43.1827693421852 
! Gamma         0                0                0                0                
! Port Impedance         50               0                50               0                
56.1                           0.630369584490441 42.3590368777354 0.698384587631075 136.728712130285 0.698384587631078 136.728712130286 0.630451564186572 42.310478714994  
! Gamma         0                0                0                0                
! Port Impedance         50               0                50               0                
56.2                           0.637815136939704 41.494797130367  0.692585132445095 135.758310150254 0.692585132445089 135.758310150253 0.637894569235706 41.4473747529115 
! Gamma         0                0                0                0                
! Port Impedance         50               0                50               0                
56.3                           0.645024389108766 40.6397988036117 0.686863146164179 134.80073807386  0.68686314616419 134.800738073861 0.64510134066425 40.5934698456493 
! Gamma         0                0                0                0                
! Port Impedance         50               0                50               0                
56.4                           0.652003451359836 39.7940256033501 0.681221599299412 133.855753628151 0.681221599299409 133.855753628151 0.652077986056667 39.7487503041764 
! Gamma         0                0                0                0                
! Port Impedance         50               0                50               0                
56.5                           0.658758414696748 38.9574383984836 0.675663143641861 132.923109671376 0.675663143641845 132.923109671375 0.658830593812612 38.9131794004941 
! Gamma         0                0                0                0                
! Port Impedance         50               0                50               0                
56.6                           0.665295331396117 38.1299779269775 0.67019013080459 132.002555133089 0.67019013080459 132.002555133089 0.66536521376108 38.0867000929588 
! Gamma         0                0                0                0                
! Port Impedance         50               0                50               0                
56.7                           0.671620197896575 37.3115672240937 0.664804630480774 131.093835880035 0.664804630480777 131.093835880035 0.671687840034838 37.2692374716444 
! Gamma         0                0                0                0                
! Port Impedance         50               0                50               0                
56.8                           0.677738939786956 36.5021138025599 0.659508448315406 130.196695510763 0.659508448315407 130.196695510764 0.677804396045664 36.4607009537639 
! Gamma         0                0                0                0                
! Port Impedance         50               0                50               0                
56.9                           0.683657398736934 35.7015116106763 0.654303143305511 129.310876082004 0.65430314330552 129.310876082005 0.683720721403649 35.6609862553871 
! Gamma         0                0                0                0                
! Port Impedance         50               0                50               0                
57                             0.689381321217563 34.909642791219  0.649190044661502 128.436118770196 0.649190044661499 128.436118770196 0.689442560627778 34.8699771625137 
! Gamma         0                0                0                0                
! Port Impedance         50               0                50               0                
57.1                           0.694916348864325 34.1263792613063 0.644170268075372 127.572164471445 0.644170268075377 127.572164471446 0.694975553500199 34.0875471218436 
! Gamma         0                0                0                0                
! Port Impedance         50               0                50               0                
57.2                           0.700268010341295 33.3515841310999 0.639244731356397 126.718754343479 0.639244731356394 126.718754343478 0.700325226922637 33.3135606692664 
! Gamma         0                0                0                0                
! Port Impedance         50               0                50               0                
57.3                           0.705441714571653 32.5851129772377 0.634414169404638 125.875630292932 0.634414169404623 125.875630292931 0.705496988140028 32.5478747120957 
! Gamma         0                0                0                0                
! Port Impedance         50               0                50               0                
57.4                           0.710442745206932 31.8268149851729 0.629679148504424 125.042535411489 0.629679148504431 125.042535411489 0.710496119203656 31.7903396793409 
! Gamma         0                0                0                0                
! Port Impedance         50               0                50               0                
57.5                           0.715276256214737 31.0765339731135 0.625040079927063 124.219214364169 0.62504007992705 124.219214364167 0.715327772553419 31.0408005528034 
! Gamma         0                0                0                0                
! Port Impedance         50               0                50               0                
57.6                           0.719947268472226 30.3341093089392 0.620497232840585 123.405413733073 0.620497232840588 123.405413733073 0.719996967606429 30.2990977904659 
! Gamma         0                0                0                0                
! Port Impedance         50               0                50               0                
57.7                           0.724460667260171 29.5993767303324 0.616050746530372 122.600882319783 0.616050746530358 122.600882319782 0.724508588246687 29.5650681524839 
! Gamma         0                0                0                0                
! Port Impedance         50               0                50               0                
57.8                           0.728821200559882 28.8721690773396 0.611700641939149 121.805371409397 0.611700641939134 121.805371409395 0.728867381118062 28.8385454390624 
! Gamma         0                0                0                0                
! Port Impedance         50               0                50               0                
57.9                           0.733033478062578 28.152316945683  0.607446832540505 121.018634999224 0.607446832540498 121.018634999223 0.733077954630087 28.1193611485975 
! Gamma         0                0                0                0                
! Port Impedance         50               0                50               0                
58                             0.737101970807836 27.4396492683366 0.603289134562089 120.240429994843 0.603289134562096 120.240429994844 0.73714477859317 27.4073450636456 
! Gamma         0                0                0                0                
! Port Impedance         50               0                50               0                
58.1                           0.741031011374548 26.7339938321691 0.59922727657873 119.470516376207 0.599227276578739 119.470516376208 0.741072184406603 26.7023257715703 
! Gamma         0                0                0                0                
! Port Impedance         50               0                50               0                
58.2                           0.744824794554292 26.0351777358101 0.595260908497246 118.708657336289 0.595260908497244 118.708657336289 0.74486436572924 26.0041311260619 
! Gamma         0                0                0                0                
! Port Impedance         50               0                50               0                
58.3                           0.748487378443163 25.3430277943218 0.591389609956317 117.95461939461  0.591389609956322 117.95461939461  0.748525379568859 25.3125886551474 
! Gamma         0                0                0                0                
! Port Impedance         50               0                50               0                
58.4                           0.752022685893878 24.6573708957384 0.587612898166379 117.208172487859 0.58761289816638 117.208172487859 0.752059147732002 24.6275259207847 
! Gamma         0                0                0                0                
! Port Impedance         50               0                50               0                
58.5                           0.755434506275423 23.978034314066  0.583930235214729 116.469090039676 0.583930235214721 116.469090039675 0.755469458581531 23.9487708346626 
! Gamma         0                0                0                0                
! Port Impedance         50               0                50               0                
58.6                           0.758726497492555 23.3048459829157 0.580341034861709 115.737149011511 0.580341034861692 115.737149011509 0.758759969054198 23.2761519344008 
! Gamma         0                0                0                0                
! Port Impedance         50               0                50               0                
58.7                           0.761902188222194 22.6376347335522 0.576844668853793 115.012129936352 0.576844668853782 115.01212993635  0.761934206895244 22.6094986239589 
! Gamma         0                0                0                0                
! Port Impedance         50               0                50               0                
58.8                           0.764964980328094 21.976230500801  0.573440472779443 114.293816937003 0.57344047277943 114.293816937001 0.764995573071406 21.948641381714  
! Gamma         0                0                0                0                
! Port Impedance         50               0                50               0                
58.9                           0.767918151419217 21.3204644999349 0.570127751492873 113.581997730421 0.570127751492878 113.581997730422 0.76794734432774 21.2934119393459 
! Gamma         0                0                0                0                
! Port Impedance         50               0                50               0                
59                             0.770764857520928 20.6701693773785 0.566905784130642 112.87646361955  0.566905784130645 112.87646361955  0.770792675857366 20.6436434343853 
! Gamma         0                0                0                0                
! Port Impedance         50               0                50               0                
59.1                           0.773508135831526 20.0251793378085 0.563773828745312 112.177009473963 0.563773828745307 112.177009473962 0.77353460405664 19.9991705390159 
! Gamma         0                0                0                0                
! Port Impedance         50               0                50               0                
59.2                           0.776150907539726 19.3853302499861 0.560731126579397 111.483433700507 0.560731126579388 111.483433700506 0.776176049341368 19.35982956748   
! Gamma         0                0                0                0                
! Port Impedance         50               0                50               0                
59.3                           0.778695980681552 18.7504597334522 0.5577769060023  110.795538205065 0.557776906002291 110.795538205064 0.7787198190025  18.7254585642302 
! Gamma         0                0                0                0                
! Port Impedance         50               0                50               0                
59.4                           0.781146053017636 18.1204072280088 0.554910386131863 110.113128346442 0.554910386131853 110.113128346441 0.781168610082305 18.0958973747594 
! Gamma         0                0                0                0                
! Port Impedance         50               0                50               0                
59.5                           0.78350371491429 17.4950140477409 0.552130780161174 109.436012883304 0.552130780161164 109.436012883302 0.783525012254384 17.4709877008745 
! Gamma         0                0                0                0                
! Port Impedance         50               0                50               0                
59.6                           0.785771452213798 16.874123421165  0.549437298410428 108.764003914993 0.549437298410433 108.764003914994 0.785791510692961 16.8505731420072 
! Gamma         0                0                0                0                
! Port Impedance         50               0                50               0                
59.7                           0.787951649081287 16.2575805189457 0.546829151122881 108.096916817064 0.546829151122882 108.096916817063 0.787970488918807 16.2344992240115 
! Gamma         0                0                0                0                
! Port Impedance         50               0                50               0                
59.8                           0.790046590817243 15.6452324704841 0.54430555102204 107.434570172089 0.544305551022035 107.434570172088 0.790064231610861 15.622613416758  
! Gamma         0                0                0                0                
! Port Impedance         50               0                50               0                
59.9                           0.792058466626271 15.0369283705636 0.541865715647807 106.776785696547 0.541865715647805 106.776785696546 0.792074927374147 15.0147651417171 
! Gamma         0                0                0                0                
! Port Impedance         50               0                50               0                
60                             0.793989372334091 14.4325192771218 0.539508869486925 106.123388164239 0.539508869486925 106.123388164238 0.794004671455963 14.4108057706065 
! Gamma         0                0                0                0                
! Port Impedance         50               0                50               0                
60.1                           0.795841313045943 13.8318582011193 0.537234245912755 105.474205326775 0.537234245912769 105.474205326777 0.795855468403533 13.8105886160766 
! Gamma         0                0                0                0                
! Port Impedance         50               0                50               0                
60.2                           0.797616205740735 13.2348000893832 0.535041088948775 104.829067831657 0.535041088948781 104.829067831658 0.797629234657424 13.2139689153188 
! Gamma         0                0                0                0                
! Port Impedance         50               0                50               0                
60.3                           0.799315881796164 12.6412018012164 0.532928654868647 104.187809138282 0.532928654868645 104.187809138281 0.799327801075992 12.6208038073904 
! Gamma         0                0                0                0                
! Port Impedance         50               0                50               0                
60.4                           0.800942089440952 12.0509220794909 0.530896213645644 103.550265432326 0.53089621364565 103.550265432326 0.800952915386967 12.030952304979  
! Gamma         0                0                0                0                
! Port Impedance         50               0                50               0                
60.5                           0.80249649613108 11.4638215168705 0.528943050262668 102.916275538796 0.528943050262682 102.916275538798 0.802506244563066 11.4442752612554 
! Gamma         0                0                0                0                
! Port Impedance         50               0                50               0                
60.6                           0.803980690847551 10.879762517747  0.527068465893939 102.285680834064 0.527068465893927 102.285680834062 0.80398937711918 10.8606353324015 
! Gamma         0                0                0                0                
! Port Impedance         50               0                50               0                
60.7                           0.805396186313828 10.2986092564147 0.525271778968236 101.658325157131 0.525271778968242 101.658325157131 0.805403825329254 10.2798969363427 
! Gamma         0                0                0                0                
! Port Impedance         50               0                50               0                
60.8                           0.806744421131583 9.72022763195817 0.523552326123427 101.034054720403 0.523552326123434 101.034054720403 0.806751027361509 9.70192620816022 
! Gamma         0                0                0                0                
! Port Impedance         50               0                50               0                
60.9                           0.80802676183383 9.14448522027734 0.521909463060569 100.412718020117 0.521909463060566 100.412718020116 0.808032349331081 9.12659095261239 
! Gamma         0                0                0                0                
! Port Impedance         50               0                50               0                
61                             0.809244504854914 8.57125122363443 0.520342565306184 99.7941657466743 0.520342565306181 99.7941657466738 0.80924908726954 8.55376059414963 
! Gamma         0                0                0                0                
! Port Impedance         50               0                50               0                
61.1                           0.810398878417149 8.00039641806562 0.518851028889781 99.178250694964  0.518851028889782 99.1782506949634 0.810402469011073 7.98330612476948 
! Gamma         0                0                0                0                
! Port Impedance         50               0                50               0                
61.2                           0.811491044334166 7.43179309896543 0.517434270944041 98.5648276748857 0.517434270944041 98.5648276748851 0.811493655995427 7.41510005002142 
! Gamma         0                0                0                0                
! Port Impedance         50               0                50               0                
61.3                           0.812522099731292 6.86531502512157 0.51609173023369 97.9537534221405 0.516091730233679 97.9537534221388 0.812523744987873 6.84901633344036 
! Gamma         0                0                0                0                
! Port Impedance         50               0                50               0                
61.4                           0.813493078683458 6.3008373614453  0.514822867619269 97.3448865094083 0.514822867619269 97.3448865094076 0.813493769716751 6.28493033965656 
! Gamma         0                0                0                0                
! Port Impedance         50               0                50               0                
61.5                           0.814404953771308 5.7382366206206  0.51362716646125 96.738087258011  0.513627166461264 96.7380872580128 0.814404702429223 5.72271877640605 
! Gamma         0                0                0                0                
! Port Impedance         50               0                50               0                
61.6                           0.815258637556316 5.17739060386721 0.512504132969414 96.1332176501183 0.512504132969414 96.1332176501176 0.81525745536606 5.16225963563855 
! Gamma         0                0                0                0                
! Port Impedance         50               0                50               0                
61.7                           0.816054983975825 4.61817834099574 0.511453296502109 95.5301412415403 0.511453296502105 95.5301412415383 0.816052882156371 4.60343213390215 
! Gamma         0                0                0                0                
! Port Impedance         50               0                50               0                
61.8                           0.816794789658998 4.06048002990958 0.51047420981987 94.9287230752156 0.510474209819878 94.9287230752161 0.816791779133264 4.0461166521609  
! Gamma         0                0                0                0                
! Port Impedance         50               0                50               0                
61.9                           0.817478795164749 3.50417697569469 0.509566449296943 94.3288295953686 0.509566449296937 94.3288295953667 0.817474886571509 3.49019467518767 
! Gamma         0                0                0                0                
! Port Impedance         50               0                50               0                
62                             0.818107686142742 2.94915152942082 0.50872961509423 93.7303285623769 0.508729615094229 93.7303285623763 0.818102889848291 2.93554873065665 
! Gamma         0                0                0                0                
! Port Impedance         50               0                50               0                
62.1                           0.818682094418615 2.39528702676416 0.507963331297262 93.1330889684373 0.50796333129726 93.1330889684368 0.818676420528199 2.38206232804687 
! Gamma         0                0                0                0                
! Port Impedance         50               0                50               0                
62.2                           0.81920259900455 1.8424677265505  0.507267246021392 92.5369809539333 0.507267246021399 92.5369809539339 0.81919605737359 1.82961989745647 
! Gamma         0                0                0                0                
! Port Impedance         50               0                50               0                
62.3                           0.819669727036364 1.29057874930497 0.506641031487496 91.9418757246317 0.506641031487495 91.9418757246311 0.819662327281485 1.27810672841507 
! Gamma         0                0                0                0                
! Port Impedance         50               0                50               0                
62.4                           0.82008395463825 0.7395060158873  0.506084384069823 91.3476454696079 0.506084384069824 91.3476454696073 0.820075706148141 0.727408908773799 
! Gamma         0                0                0                0                
! Port Impedance         50               0                50               0                
62.5                           0.820445707716304 0.189136186280695 0.505597024318617 90.7541632799839 0.50559702431862 90.7541632799831 0.820436619662421 0.177413263741976 
! Gamma         0                0                0                0                
! Port Impedance         50               0                50               0                
62.6                           0.820755362681945 -0.360643401401941 0.505178696958882 90.1613030684218 0.50517869695889 90.1613030684222 0.82074544402908 -0.371992704864947 
! Gamma         0                0                0                0                
! Port Impedance         50               0                50               0                
62.7                           0.82101324710631 -0.90994479164056 0.504829170867047 89.5689394893878 0.504829170867043 89.5689394893859 0.821002506623042 -0.920920879111624 
! Gamma         0                0                0                0                
! Port Impedance         50               0                50               0                
62.8                           0.821219640306661 -1.45887947190658 0.504548239026761 88.9769478601607 0.504548239026756 88.9769478601589 0.82120808657571 -1.46948258510975 
! Gamma         0                0                0                0                
! Port Impedance         50               0                50               0                
62.9                           0.821374773865827 -2.00755843269218 0.504335718465045 88.385204082607  0.50433571846505 88.3852040826076 0.821362415294324 -2.01778865281961 
! Gamma         0                0                0                0                
! Port Impedance         50               0                50               0                
63                             0.821478832085639 -2.55609222712771 0.504191450169624 87.7935845656803 0.504191450169632 87.7935845656807 0.821465676915337 -2.56594947544301 
! Gamma         0                0                0                0                
! Port Impedance         50               0                50               0                
63.1                           0.821531952375294 -3.10459103014552 0.504115298988004 87.2019661486147 0.504115298988014 87.2019661486164 0.821518008692741 -3.11407506836517 
! Gamma         0                0                0                0                
! Port Impedance         50               0                50               0                
63.2                           0.821534225575545 -3.65316469715362 0.504107153509123 86.6102260248627 0.504107153509129 86.6102260248618 0.821519501322221 -3.66227512760847 
! Gamma         0                0                0                0                
! Port Impedance         50               0                50               0                
63.3                           0.821485696219543 -4.2019228221796 0.504166925927583 86.0182416666903 0.504166925927582 86.0182416666884 0.821470199202004 -4.21065908775764 
! Gamma         0                0                0                0                
! Port Impedance         50               0                50               0                
63.4                           0.821386362731156 -4.75097479545021 0.504294551890733 85.425890750472  0.50429455189073 85.4258907504702 0.821370100631188 -4.75933617932136 
! Gamma         0                0                0                0                
! Port Impedance         50               0                50               0                
63.5                           0.821236177561529 -5.30042986036714 0.504489990328531 84.8330510826332 0.504489990328532 84.8330510826326 0.821219157946333 -5.30841548549006 
! Gamma         0                0                0                0                
! Port Impedance         50               0                50               0                
63.6                           0.821035047264605 -5.85039716984225 0.504753223265931 84.2396005262548 0.504753223265943 84.2396005262564 0.821017277597042 -5.85800599825257 
! Gamma         0                0                0                0                
! Port Impedance         50               0                50               0                
63.7                           0.820782832512309 -6.40098584195122 0.50508425561746 83.6454169283342 0.505084255617462 83.6454169283336 0.820764320161218 -6.40821667383013 
! Gamma         0                0                0                0                
! Port Impedance         50               0                50               0                
63.8                           0.820479348050073 -6.95230501486345 0.505483114963136 83.0503780476447 0.505483114963143 83.0503780476451 0.820460100300684 -6.95915648738454 
! Gamma         0                0                0                0                
! Port Impedance         50               0                50               0                
63.9                           0.820124362593317 -7.504463901003  0.505949851305477 82.4543614832948 0.50594985130548 82.4543614832941 0.820104386657781 -7.51093448695524 
! Gamma         0                0                0                0                
! Port Impedance         50               0                50               0                
64                             0.819717598665525 -8.05757184039053 0.506484536806   81.8572446038557 0.506484536805996 81.857244603854  0.81969690169359 -8.06365984657399 
! Gamma         0                0                0                0                
! Port Impedance         50               0                50               0                
64.1                           0.819258732378524 -8.61173835311334 0.507087265500651 81.2589044771712 0.507087265500653 81.2589044771706 0.819237321468364 -8.61744191850405 
! Gamma         0                0                0                0                
! Port Impedance         50               0                50               0                
64.2                           0.818747393155542 -9.16707319086309 0.507758152992528 80.6592178007955 0.507758152992524 80.6592178007938 0.818725275364781 -9.17239028454265 
! Gamma         0                0                0                0                
! Port Impedance         50               0                50               0                
64.3                           0.818183163397668 -9.72368638747793 0.508497336120551 80.0580608330954 0.508497336120551 80.0580608330934 0.81816034575461 -9.72861480632258 
! Gamma         0                0                0                0                
! Port Impedance         50               0                50               0                
64.4                           0.817565578094303 -10.2816883084153 0.509304972602311 79.4553093250176 0.509304972602311 79.455309325017  0.817542067609401 -10.2862256745389 
! Gamma         0                0                0                0                
! Port Impedance         50               0                50               0                
64.5                           0.816894124378236 -10.8411896990775 0.510181240649312 78.8508384525722 0.510181240649314 78.8508384525715 0.816869928055821 -10.8453334570215 
! Gamma         0                0                0                0                
! Port Impedance         50               0                50               0                
64.6                           0.816168241025998 -11.4023017319021 0.511126338552475 78.2445227500269 0.511126338552472 78.2445227500252 0.816143365876296 -11.4060491455657 
! Gamma         0                0                0                0                
! Port Impedance         50               0                50               0                
64.7                           0.81538731790418 -11.9651360521179 0.512140484235626 77.6362360438783 0.512140484235629 77.6362360438777 0.815361770955654 -11.9684842014194 
! Gamma         0                0                0                0                
! Port Impedance         50               0                50               0                
64.8                           0.814550695362477 -12.5298048220625 0.513223914774565 77.0258513876367 0.513223914774576 77.0258513876382 0.814524483674509 -12.5327505993244 
! Gamma         0                0                0                0                
! Port Impedance         50               0                50               0                
64.9                           0.813657663574261 -13.0964207639402 0.514376885878859 76.413240997456  0.51437688587886 76.4132409974542 0.813630794250217 -13.0989608699859 
! Gamma         0                0                0                0                
! Port Impedance         50               0                50               0                
65                             0.812707461825589 -13.6650972008894 0.515599671333535 75.7982761886943 0.515599671333536 75.7982761886937 0.812679942026292 -13.6672281408433 
! Gamma         0                0                0                0                
! Port Impedance         50               0                50               0                
65.1                           0.811699277753651 -14.2359480962159 0.516892562397592 75.1808273134898 0.516892562397587 75.180827313487  0.811671114711298 -14.2376661749933 
! Gamma         0                0                0                0                
! Port Impedance         50               0                50               0                
65.2                           0.810632246535757 -14.8090880906325 0.518255867155681 74.5607636993743 0.518255867155678 74.5607636993727 0.810603447568318 -14.8103894081069 
! Gamma         0                0                0                0                
! Port Impedance         50               0                50               0                
65.3                           0.809505450030147 -15.3846325373287 0.51968990981956 73.9379535890882 0.519689909819559 73.9379535890866 0.80947602255628 -15.3855129831635 
! Gamma         0                0                0                0                
! Port Impedance         50               0                50               0                
65.4                           0.80831791587003 -15.9626975346798 0.521195029975275 73.3122640816545 0.521195029975275 73.312264081654  0.808287867424547 -15.9631527828079 
! Gamma         0                0                0                0                
! Port Impedance         50               0                50               0                
65.5                           0.807068616512459 -16.5433999563815 0.522771581771902 72.6835610748508 0.522771581771896 72.6835610748483 0.807037954762392 -16.5434254591178 
! Gamma         0                0                0                0                
! Port Impedance         50               0                50               0                
65.6                           0.805756468243869 -17.1268574787813 0.524419933047423 72.0517092091941 0.524419933047416 72.0517092091915 0.805725201005173 -17.1264484605495 
! Gamma         0                0                0                0                
! Port Impedance         50               0                50               0                
65.7                           0.804380330144339 -17.7131886051502 0.526140464386989 71.4165718136085 0.526140464386987 71.4165718136069 0.804348465399278 -17.7123400558051 
! Gamma         0                0                0                0                
! Port Impedance         50               0                50               0                
65.8                           0.802939003012902 -18.3025126866181 0.527933568108568 70.7780108529304 0.52793356810857 70.7780108529299 0.802906548928164 -18.301219354343 
! Gamma         0                0                0                0                
! Port Impedance         50               0                50               0                
65.9                           0.801431228256567 -18.8949499394697 0.529799647170572 70.1358868774166 0.529799647170579 70.135886877417  0.801398193202165 -18.8932063232266 
! Gamma         0                0                0                0                
! Port Impedance         50               0                50               0                
66                             0.799855686746021 -19.4906214584692 0.531739113995863 69.4900589744741 0.531739113995865 69.4900589744735 0.799822079315013 -19.4884217999772 
! Gamma         0                0                0                0                
! Port Impedance         50               0                50               0                
66.1                           0.798210997641386 -20.0896492258535 0.533752389206202 68.8403847228231 0.533752389206203 68.8403847228226 0.798176826670499 -20.0869875010697 
! Gamma         0                0                0                0                
! Port Impedance         50               0                50               0                
66.2                           0.796495717191841 -20.6921561155975 0.535839900260842 68.1867201493483 0.535839900260843 68.1867201493467 0.796460991783026 -20.6890260256733 
! Gamma         0                0                0                0                
! Port Impedance         50               0                50               0                
66.3                           0.794708337513361 -21.2982658925276 0.538002079992582 67.5289196888559 0.538002079992584 67.5289196888554 0.794673067056364 -21.2946608542088 
! Gamma         0                0                0                0                
! Port Impedance         50               0                50               0                
66.4                           0.792847285349388 -21.9081032058128 0.540239365034494 66.8668361470988 0.540239365034491 66.8668361470974 0.792811479545384 -21.9040163412511 
! Gamma         0                0                0                0                
! Port Impedance         50               0                50               0                
66.5                           0.790910920819789 -22.5217935763299 0.542552194129862 66.2003206672994 0.542552194129866 66.2003206672988 0.790874589706164 -22.5172177022716 
! Gamma         0                0                0                0                
! Port Impedance         50               0                50               0                
66.6                           0.788897536164123 -23.1394633773515 0.544941006317954 65.5292227005816 0.544941006317955 65.529222700581  0.788860690140458 -23.1343909936643 
! Gamma         0                0                0                0                
! Port Impedance         50               0                50               0                
66.7                           0.78680535448591 -23.7612398079605 0.547406238987455 64.8533899806353 0.547406238987451 64.853389980633  0.786768004341257 -23.7556630854574 
! Gamma         0                0                0                0                
! Port Impedance         50               0                50               0                
66.8                           0.784632528505372 -24.387250858545 0.549948325789516 64.1726685030201 0.549948325789514 64.1726685030188 0.784594685446895 -24.3811616260616 
! Gamma         0                0                0                0                
! Port Impedance         50               0                50               0                
66.9                           0.782377139328945 -25.0176252676713 0.552567694401803 63.4869025095711 0.552567694401806 63.4869025095705 0.782338815012017 -25.0110149983467 
! Gamma         0                0                0                0                
! Port Impedance         50               0                50               0                
67                             0.780037195244759 -25.652492469577 0.555264764134653 62.795934478322  0.555264764134653 62.7959344783206 0.779998401804591 -25.6453522662891 
! Gamma         0                0                0                0                
! Port Impedance         50               0                50               0                
67.1                           0.777610630554273 -26.2919825314638 0.558039943370261 62.0996051194773 0.558039943370257 62.0996051194751 0.77757138063919 -26.2843031113596 
! Gamma         0                0                0                0                
! Port Impedance         50               0                50               0                
67.2                           0.775095304451319 -26.936226079702 0.560893626825609 61.3977533779727 0.560893626825608 61.3977533779723 0.775055611257769 -26.9279977577641 
! Gamma         0                0                0                0                
! Port Impedance         50               0                50               0                
67.3                           0.772488999960961 -27.5853542139868 0.563826192629496 60.6902164431861 0.563826192629501 60.6902164431864 0.772448877270365 -27.576566885569 
! Gamma         0                0                0                0                
! Port Impedance         50               0                50               0                
67.4                           0.769789422951804 -28.239498408413 0.566837999203962 59.9768297664171 0.566837999203964 59.9768297664166 0.769748885169361 -28.2301415306738 
! Gamma         0                0                0                0                
! Port Impedance         50               0                50               0                
67.5                           0.76699420123673 -28.8987903983483 0.569929381940263 59.2574270867975 0.569929381940256 59.2574270867955 0.766953263432303 -28.8888529705037 
! Gamma         0                0                0                0                
! Port Impedance         50               0                50               0                
67.6                           0.764100883778493 -29.5633620519005 0.57310064965954 58.5318404663374 0.573100649659539 58.5318404663361 0.76405956172969 -29.5528325942125 
! Gamma         0                0                0                0                
! Port Impedance         50               0                50               0                
67.7                           0.761106940018071 -30.2333452246798 0.576352080848294 57.7999003348478 0.576352080848293 57.7999003348474 0.761065250255667 -30.2222117560879 
! Gamma         0                0                0                0                
! Port Impedance         50               0                50               0                
67.8                           0.758009759345379 -30.9088715964541 0.579683919658821 57.0614355455269 0.579683919658817 57.0614355455258 0.757967719201211 -30.8971216107496 
! Gamma         0                0                0                0                
! Port Impedance         50               0                50               0                
67.9                           0.754806650733597 -31.5900724881905 0.583096371665094 56.3162734420445 0.583096371665095 56.3162734420441 0.754764278391093 -31.5776929286257 
! Gamma         0                0                0                0                
! Port Impedance         50               0                50               0                
68                             0.751494842560273 -32.2770786578585 0.586589599364864 55.5642399380316 0.586589599364862 55.5642399380304 0.75145215710777 -32.2640558900704 
! Gamma         0                0                0                0                
! Port Impedance         50               0                50               0                
68.1                           0.748071482640201 -32.9700200732476 0.590163717419   54.8051596098617 0.590163717419003 54.8051596098621 0.748028504127227 -32.9563398563677 
! Gamma         0                0                0                0                
! Port Impedance         50               0                50               0                
68.2                           0.744533638497171 -33.6690256599185 0.593818787619997 54.0388558037444 0.593818787619994 54.0388558037432 0.74449038799387 -33.6546731157265 
! Gamma         0                0                0                0                
! Port Impedance         50               0                50               0                
68.3                           0.740878297903735 -34.3742230222675 0.597554813582017 53.2651507581177 0.597554813582014 53.2651507581166 0.740834797563629 -34.3591826022335 
! Gamma         0                0                0                0                
! Port Impedance         50               0                50               0                
68.4                           0.73710236972034 -35.0857381355273 0.601371735145977 52.4838657424196 0.601371735145976 52.4838657424184 0.737058642846646 -35.0699935855737 
! Gamma         0                0                0                0                
! Port Impedance         50               0                50               0                
68.5                           0.73320268506745 -35.8036950063663 0.605269422494289 51.694821213352  0.605269422494289 51.6948212133516 0.733158756183163 -35.787229329163 
! Gamma         0                0                0                0                
! Port Impedance         50               0                50               0                
68.6                           0.729175998866534 -36.5282152995731 0.609247669971087 50.8978369897465 0.609247669971084 50.8978369897454 0.729131893788519 -36.5110107141627 
! Gamma         0                0                0                0                
! Port Impedance         50               0                50               0                
68.7                           0.725018991788209 -37.2594179281188 0.613306189605695 50.0927324472551 0.613306189605696 50.0927324472555 0.724974737705557 -37.2414558266468 
! Gamma         0                0                0                0                
! Port Impedance         50               0                50               0                
68.8                           0.720728272648119 -37.997418603691 0.617444604338778 49.2793267340482 0.617444604338779 49.2793267340478 0.720683898205049 -37.9786795049954 
! Gamma         0                0                0                0                
! Port Impedance         50               0                50               0                
68.9                           0.71630038129354 -38.7423293445636 0.62166244095282 48.457439008736  0.621662440952815 48.4574390087349 0.71625591667713 -38.7227928443528 
! Gamma         0                0                0                0                
! Port Impedance         50               0                50               0                
69                             0.711731792025956 -39.4942579374341 0.625959122711394 47.626888701801  0.625959122711394 47.6268887018007 0.711687269059041 -39.4739026547533 
! Gamma         0                0                0                0                
! Port Impedance         50               0                50               0                
69.1                           0.707018917607137 -40.2533073495896 0.630333961714317 46.7874958017594 0.630333961714318 46.787495801759  0.706974369846705 -40.2321108692463 
! Gamma         0                0                0                0                
! Port Impedance         50               0                50               0                
69.2                           0.7021581138983  -41.0195750874813 0.634786150979228 45.939081167311  0.634786150979223 45.9390811673094 0.702113576739766 -40.9975138980643 
! Gamma         0                0                0                0                
! Port Impedance         50               0                50               0                
69.3                           0.697145685183928 -41.7931524974671 0.639314756263854 45.0814668667073 0.639314756263852 45.081466866707  0.697101195971714 -41.7702019245559 
! Gamma         0                0                0                0                
! Port Impedance         50               0                50               0                
69.4                           0.69197789023353 -42.574124004138 0.643918707647429 44.2144765455657 0.643918707647428 44.2144765455654 0.691933488378368 -42.5502581382538 
! Gamma         0                0                0                0                
! Port Impedance         50               0                50               0                
69.5                           0.686650949156039 -43.3625662812519 0.648596790894174 43.3379358242368 0.648596790894175 43.3379358242372 0.686606676259519 -43.3377579000534 
! Gamma         0                0                0                0                
! Port Impedance         50               0                50               0                
69.6                           0.681161051102672 -44.1585473498713 0.653347638627073 42.4516727258714 0.653347638627068 42.4516727258704 0.681116951089553 -44.1327678340423 
! Gamma         0                0                0                0                
! Port Impedance         50               0                50               0                
69.7                           0.675504362874696 -44.9621255978127 0.65816972134558 41.5555181361506 0.658169721345578 41.5555181361503 0.675460482133584 -44.9353448400263 
! Gamma         0                0                0                0                
! Port Impedance         50               0                50               0                
69.8                           0.669677038492709 -45.7733487139679 0.663061338327051 40.6493062956015 0.663061338327049 40.6493062956012 0.669633426025769 -45.7455350202398 
! Gamma         0                0                0                0                
! Port Impedance         50               0                50               0                
69.9                           0.663675229783597 -46.5922525304359 0.668020608458241 39.7328753252675 0.668020608458239 39.7328753252673 0.663631937366018 -46.5633725131006 
! Gamma         0                0                0                0                
! Port Impedance         50               0                50               0                
70                             0.657495098040169 -47.4188597646847 0.673045461050147 38.8060677863077 0.673045461050145 38.8060677863068 0.657452180390206 -47.3888782261343 
! Gamma         0                0                0                0                
! Port Impedance         50               0                50               0                
70.1                           0.65113282680652 -48.2531786531434 0.678133626697093 37.8687312739718 0.678133626697093 37.8687312739722 0.65109034176704 -48.2220584593687 
! Gamma         0                0                0                0                
! Port Impedance         50               0                50               0                
70.2                           0.64458463583939 -49.0952014666678 0.683282628248741 36.9207190461209 0.683282628248741 36.9207190461206 0.644542644571934 -49.0629034095189 
! Gamma         0                0                0                0                
! Port Impedance         50               0                50               0                
70.3                           0.637846796291879 -49.944902897209 0.688489771971955 35.9618906862222 0.688489771971954 35.9618906862219 0.637805363484416 -49.9113855441594 
! Gamma         0                0                0                0                
! Port Impedance         50               0                50               0                
70.4                           0.630915647161007 -50.8022383037076 0.693752138987971 34.9921128004537 0.693752138987972 34.992112800454  0.630874841250692 -50.7674578337511 
! Gamma         0                0                0                0                
! Port Impedance         50               0                50               0                
70.5                           0.623787613034459 -51.6671418036907 0.699066577079143 34.0112597482231 0.699066577079143 34.0112597482235 0.623747506446897 -51.6310518278225 
! Gamma         0                0                0                0                
! Port Impedance         50               0                50               0                
70.6                           0.616459223164449 -52.5395241952272 0.704429692968118 33.0192144050091 0.704429692968119 33.0192144050089 0.616419892571163 -52.5020755597555 
! Gamma         0                0                0                0                
! Port Impedance         50               0                50               0                
70.7                           0.608927131887892 -53.4192706917076 0.709837845181252 32.0158689560438 0.709837845181251 32.0158689560441 0.608888658483969 -53.3804112624088 
! Gamma         0                0                0                0                
! Port Impedance         50               0                50               0                
70.8                           0.6011881404019  -54.3062384493182 0.7152871376164  31.0011257188812 0.715287137616401 31.0011257188815 0.601150610206045 -54.2659128741766 
! Gamma         0                0                0                0                
! Port Impedance         50               0                50               0                
70.9                           0.593239219892058 -55.2002538639399 0.720773413943501 29.9748979924055 0.720773413943501 29.9748979924059 0.593202724071665 -55.1584033118994 
! Gamma         0                0                0                0                
! Port Impedance         50               0                50               0                
71                             0.585077535997919 -56.1011096104374 0.726292252973699 28.9371109292971 0.726292252973699 28.9371109292974 0.585042171222137 -56.0576714832263 
! Gamma         0                0                0                0                
! Port Impedance         50               0                50               0                
71.1                           0.576700474585819 -57.0085613927269 0.731838965139459 27.8877024283863 0.731838965139458 27.8877024283871 0.576666343410107 -56.9634690063979 
! Gamma         0                0                0                0                
! Port Impedance         50               0                50               0                
71.2                           0.568105668783517 -57.9223243674853 0.737408590233661 26.8266240427543 0.737408590233662 26.8266240427547 0.568072880069712 -57.8755065998143 
! Gamma         0                0                0                0                
! Port Impedance         50               0                50               0                
71.3                           0.559291027214506 -58.8420691976098 0.742995896559662 25.7538418987573 0.742995896559665 25.7538418987576 0.559259696591159 -58.7934500969252 
! Gamma         0                0                0                0                
! Port Impedance         50               0                50               0                
71.4                           0.550254763352457 -59.7674176833169 0.748595381646786 24.6693376205395 0.748595381646789 24.6693376205402 0.550225013720896 -59.7169160336491 
! Gamma         0                0                0                0                
! Port Impedance         50               0                50               0                
71.5                           0.540995425898227 -60.6979379086863 0.754201274686009 23.5731092539016 0.754201274686011 23.5731092539023 0.540967387990893 -60.6454667453406 
! Gamma         0                0                0                0                
! Port Impedance         50               0                50               0                
71.6                           0.531511930064227 -61.6331388290943 0.759807540838643 22.4651721827338 0.759807540838647 22.4651721827345 0.531485743062853 -61.5786048978063 
! Gamma         0                0                0                0                
! Port Impedance         50               0                50               0                
71.7                           0.521803589633581 -62.5724642097423 0.765407887566132 21.3455600305442 0.765407887566134 21.3455600305441 0.521779401856242 -62.5157673614772 
! Gamma         0                0                0                0                
! Port Impedance         50               0                50               0                
71.8                           0.511870149645845 -63.5152858066666 0.770995773121457 20.2143255389861 0.770995773121459 20.2143255389863 0.511848119313499 -63.4563183188074 
! Gamma         0                0                0                0                
! Port Impedance         50               0                50               0                
71.9                           0.501711819547665 -64.4608956583028 0.77656441733173 19.0715414146529 0.776564417331732 19.0715414146531 0.501692115642817 -64.3995414714209 
! Gamma         0                0                0                0                
! Port Impedance         50               0                50               0                
72                             0.491329306636885 -65.4084973266552 0.782106814787161 17.9173011348681 0.782106814787165 17.9173011348691 0.491312109869442 -65.3446311842018 
! Gamma         0                0                0                0                
! Port Impedance         50               0                50               0                
72.1                           0.480723849623946 -66.3571958909281 0.787615750533437 16.7517197027008 0.787615750533442 16.7517197027014 0.480709353522164 -66.2906823669659 
! Gamma         0                0                0                0                
! Port Impedance         50               0                50               0                
72.2                           0.469897252136299 -67.3059864510696 0.793083818342631 15.5749343410124 0.793083818342634 15.5749343410126 0.469885664284368 -67.2366788485136 
! Gamma         0                0                0                0                
! Port Impedance         50               0                50               0                
72.3                           0.458851916002653 -68.2537408415504 0.798503441611904 14.387105115074  0.798503441611905 14.3871051150739 0.458843459450765 -68.1814799401955 
! Gamma         0                0                0                0                
! Port Impedance         50               0                50               0                
72.4                           0.447590874176498 -69.1991921834275 0.803866896909642 13.1884154730776 0.803866896909646 13.1884154730778 0.447585789054603 -69.1238048132011 
! Gamma         0                0                0                0                
! Port Impedance         50               0                50               0                
72.5                           0.436117823196125 -70.1409168108837 0.809166340155244 11.9790726938491 0.80916634015525 11.9790726938499 0.436116368569166 -70.0622142211154 
! Gamma         0                0                0                0                
! Port Impedance         50               0                50               0                
72.6                           0.424437155135313 -71.0773129910262 0.814393835382139 10.7593082311867 0.814393835382144 10.7593082311872 0.42443961114588 -70.9950889809252 
! Gamma         0                0                0                0                
! Port Impedance         50               0                50               0                
72.7                           0.41255398908064 -72.0065757048094 0.819541385993864 9.52937794454316 0.81954138599387 9.5293779445439  0.412560659435232 -71.9206044735337 
! Gamma         0                0                0                0                
! Port Impedance         50               0                50               0                
72.8                           0.400474202284776 -72.926666561756 0.824600968380937 8.28956220626963 0.824600968380944 8.28956220627036 0.400485417152547 -72.8367002282048 
! Gamma         0                0                0                0                
! Port Impedance         50               0                50               0                
72.9                           0.388204461299764 -73.835277666978 0.829564567722361 7.04016587629861 0.829564567722367 7.04016587629903 0.388220580708737 -73.7410433994372 
! Gamma         0                0                0                0                
! Port Impedance         50               0                50               0                
73                             0.375752253602309 -74.7297879257936 0.83442421575092 5.78151813605654 0.834424215750925 5.78151813605669 0.375773671438452 -74.6309846094274 
! Gamma         0                0                0                0                
! Port Impedance         50               0                50               0                
73.1                           0.363125920502251 -75.6072098310847 0.839172030216635 4.51397217448282 0.83917203021664 4.51397217448321 0.363153069242687 -75.5035041866117 
! Gamma         0                0                0                0                
! Port Impedance         50               0                50               0                
73.2                           0.350334692498684 -76.4641241926018 0.843800255739212 3.23790472032791 0.843800255739217 3.23790472032829 0.350368048843753 -76.3551462418869 
! Gamma         0                0                0                0                
! Port Impedance         50               0                50               0                
73.3                           0.337388728750404 -77.2965994810415 0.848301305698875 1.95371541640382 0.848301305698879 1.95371541640396 0.33742882036219 -77.1819372343787 
! Gamma         0                0                0                0                
! Port Impedance         50               0                50               0                
73.4                           0.324299163005782 -78.1000913951657 0.85266780477705 0.661826033131354 0.852667804777056 0.661826033131673 0.324346576616652 -77.9792846105311 
! Gamma         0                0                0                0                
! Port Impedance         50               0                50               0                
73.5                           0.311078159262681 -78.8693168062544 0.856892631725003 -0.637320479445031 0.856892631725011 -0.63732047944436 0.311133550490426 -78.7418496429442 
! Gamma         0                0                0                0                
! Port Impedance         50               0                50               0                
73.6                           0.297738981705026 -79.5980942299493 0.860968961910913 -1.94326110003235 0.86096896191092 -1.94326110003207 0.297803087007177 -79.4633865889454 
! Gamma         0                0                0                0                
! Port Impedance         50               0                50               0                
73.7                           0.284296085242906 -80.2791401865233 0.864890309175211 -3.25551400166659 0.864890309175216 -3.25551400166634 0.284369736569813 -80.1365375006189 
! Gamma         0                0                0                0                
! Port Impedance         50               0                50               0                
73.8                           0.270765235501605 -80.9038068921205 0.868650566511061 -4.57357996916669 0.868650566511066 -4.57357996916644 0.270849378376483 -80.7525681070375 
! Gamma         0                0                0                0                
! Port Impedance         50               0                50               0                
73.9                           0.257163670718057 -81.4617411653502 0.872244045082687 -5.89694396101998 0.872244045082693 -5.89694396101976 0.257259386696904 -81.3010246526541 
! Gamma         0                0                0                0                
! Port Impedance         50               0                50               0                
74                             0.243510323265135 -81.9404364764561 0.875665511099183 -7.22507680612835 0.875665511099188 -7.22507680612814 0.243618858028984 -81.7692836677691 
! Gamma         0                0                0                0                
! Port Impedance         50               0                50               0                
74.1                           0.229826126304315 -82.3246385775154 0.878910220076097 -8.55743702382166 0.878910220076102 -8.55743702382147 0.229948925034341 -82.1419552618039 
! Gamma         0                0                0                0                
! Port Impedance         50               0                50               0                
74.2                           0.216134442749071 -82.5955484474733 0.881973948041302 -9.89347275362449 0.881973948041307 -9.89347275362432 0.216273194958456 -82.4000840351709 
! Gamma         0                0                0                0                
! Port Impedance         50               0                50               0                
74.3                           0.202461671528475 -82.7297418918186 0.884853019275419 -11.232623779518 0.884853019275425 -11.2326237795178 0.202618368197361 -82.5200677282771 
! Gamma         0                0                0                0                
! Port Impedance         50               0                50               0                
74.4                           0.188838113681284 -82.6976895331333 0.887544330219738 -12.5743236319192 0.887544330219742 -12.574323631919 0.18901512036315 -82.4721789445759 
! Gamma         0                0                0                0                
! Port Impedance         50               0                50               0                
74.5                           0.175299223962597 -82.4617094565502 0.890045369235421 -13.9180017493024 0.890045369235426 -13.9180017493022 0.175499374427786 -82.2185254318535 
! Gamma         0                0                0                0                
! Port Impedance         50               0                50               0                
74.6                           0.161887441940985 -81.9731123527797 0.892354231955736 -15.2630856804132 0.892354231955739 -15.2630856804131 0.162114157615344 -81.7102151808116 
! Gamma         0                0                0                0                
! Port Impedance         50               0                50               0                
74.7                           0.148654905131898 -81.1682036228547 0.894469632036732 -16.6090033073297 0.894469632036735 -16.6090033073296 0.148912345269138 -80.8834035325616 
! Gamma         0                0                0                0                
! Port Impedance         50               0                50               0                
74.8                           0.13566751814682 -79.9627016197095 0.896390907179836 -17.9551850692849 0.896390907179839 -17.9551850692848 0.135960762244598 -79.6538065848801 
! Gamma         0                0                0                0                
! Port Impedance         50               0                50               0                
74.9                           0.123011114613498 -78.2440804592973 0.89811802037037 -19.3010661671443 0.898118020370373 -19.3010661671442 0.123346366875575 -77.9092382142757 
! Gamma         0                0                0                0                
! Port Impedance         50               0                50               0                
75                             0.110800818909283 -75.8615680164975 0.899651556347601 -20.646088728773 0.899651556347603 -20.646088728773 0.11118559241929 -75.4999930782622 
! Gamma         0                0                0                0                
! Port Impedance         50               0                50               0                
75.1                           0.099195117516921 -72.6146635075653 0.90099271339247 -21.9897039161748 0.900992713392472 -21.9897039161748 0.0996382766411163 -72.2280968149389 
! Gamma         0                0                0                0                
! Port Impedance         50               0                50               0                
75.2                           0.088416149996357 -68.2447344033299 0.902143290587299 -23.3313739562688 0.902143290587299 -23.3313739562688 0.0889275137537871 -67.8401868125341 
! Gamma         0                0                0                0                
! Port Impedance         50               0                50               0                
75.3                           0.0787757822545165 -62.4439660239046 0.903105670765576 -24.6705740784281 0.903105670765576 -24.6705740784282 0.07936466443595 -62.0383026903   
! Gamma         0                0                0                0                
! Port Impedance         50               0                50               0                
75.4                           0.0706990637591977 -54.9153538611088 0.903882799428205 -26.0067943434175 0.903882799428205 -26.0067943434175 0.0713707548545054 -54.5411196680963 
! Gamma         0                0                0                0                
! Port Impedance         50               0                50               0                
75.5                           0.0647165791035581 -45.5351312879906 0.904478159953932 -27.3395413501032 0.90447815995393 -27.3395413501033 0.0654661853415329 -45.2427905091437 
! Gamma         0                0                0                0                
! Port Impedance         50               0                50               0                
75.6                           0.0613719026632695 -34.6172951533175 0.904895745475156 -28.6683398082065 0.904895745475154 -28.6683398082065 0.0621780453248792 -34.4631136044289 
! Gamma         0                0                0                0                
! Port Impedance         50               0                50               0                
75.7                           0.061017655895838 -23.0699925190566 0.905140027825221 -29.9927339674041 0.905140027825218 -29.9927339674043 0.0618434929337237 -23.0861463055013 
! Gamma         0                0                0                0                
! Port Impedance         50               0                50               0                
75.8                           0.0636156670402664 -12.1078508450635 0.905215923989098 -31.3122888951816 0.905215923989095 -31.3122888951815 0.0644215006210918 -12.2806149839382 
! Gamma         0                0                0                0                
! Port Impedance         50               0                50               0                
75.9                           0.0687430473701479 -2.65505211379097 0.905128760506036 -32.6265915979858 0.905128760506032 -32.6265915979859 0.0695006743778907 -2.93794040842968 
! Gamma         0                0                0                0                
! Port Impedance         50               0                50               0                
76                             0.0758012807804038 4.9573363912454  0.904884236280267 -33.9352519823411 0.904884236280262 -33.9352519823412 0.0764982209903585 4.61410505177744 
! Gamma         0                0                0                0                
! Port Impedance         50               0                50               0                
76.1                           0.0842228238267025 10.8439685764174 0.904488384254714 -35.2379036546584 0.904488384254709 -35.2379036546583 0.0848579957307743 10.4769587754382 
! Gamma         0                0                0                0                
! Port Impedance         50               0                50               0                
76.2                           0.0935609121899309 15.2994896547508 0.903947532393278 -36.5342045604383 0.903947532393272 -36.5342045604383 0.0941389215270825 14.9306554826692 
! Gamma         0                0                0                0                
! Port Impedance         50               0                50               0                
76.3                           0.103492776494789 18.6324328776417 0.903268264400633 -37.8238374654007 0.903268264400626 -37.8238374654009 0.104020139468613 18.2733239662745 
! Gamma         0                0                0                0                
! Port Impedance         50               0                50               0                
76.4                           0.113792436289053 21.1029341189422 0.902457380585265 -39.1065102827665 0.902457380585256 -39.1065102827666 0.114275727573607 20.7588786513274 
! Gamma         0                0                0                0                
! Port Impedance         50               0                50               0                
76.5                           0.124302096180471 22.9128675125938 0.90152185924292 -40.3819562524085 0.901521859242912 -40.3819562524084 0.124747227871795 22.5857856480028 
! Gamma         0                0                0                0                
! Port Impedance         50               0                50               0                
76.6                           0.13491029204669 24.2140095960153 0.900468818904615 -41.6499339789156 0.900468818904607 -41.6499339789154 0.13532232791821 23.9040594573037 
! Gamma         0                0                0                0                
! Port Impedance         50               0                50               0                
76.7                           0.145536874156131 25.1195270898317 0.899305481757133 -42.9102273367042 0.899305481757123 -42.9102273367042 0.145920062283504 24.8260104403241 
! Gamma         0                0                0                0                
! Port Impedance         50               0                50               0                
76.8                           0.156123062069259 25.7140477938037 0.898039138505393 -44.1626452512296 0.898039138505383 -44.1626452512294 0.156480940218701 25.4358927957424 
! Gamma         0                0                0                0                
! Port Impedance         50               0                50               0                
76.9                           0.166624905999887 26.0613889425996 0.89667711490647 -45.4070213660298 0.896677114906459 -45.4070213660297 0.166960419113572 25.7974013507164 
! Gamma         0                0                0                0                
! Port Impedance         50               0                50               0                
77                             0.17700895879035 26.210196636411  0.895226740165038 -46.6432136058447 0.895226740165027 -46.6432136058448 0.177324566130903 25.9591864336777 
! Gamma         0                0                0                0                
! Port Impedance         50               0                50               0                
77.1                           0.187249372116618 26.1979869570115 0.893695317340706 -47.8711036463526 0.893695317340693 -47.8711036463526 0.187547137764968 25.9588285945588 
! Gamma         0                0                0                0                
! Port Impedance         50               0                50               0                
77.2                           0.197325915294297 26.0540324255722 0.892090095879714 -49.0905963011956 0.892090095879702 -49.0905963011954 0.197607582008884 25.8256899981324 
! Gamma         0                0                0                0                
! Port Impedance         50               0                50               0                
77.3                           0.207222598683182 25.8014324501093 0.890418246347368 -50.3016188369487 0.890418246347356 -50.3016188369485 0.207489647258831 25.5829666645418 
! Gamma         0                0                0                0                
! Port Impedance         50               0                50               0                
77.4                           0.216926699046145 25.4586104176575 0.888686837404007 -51.5041202264959 0.888686837403995 -51.5041202264957 0.217180395744673 25.2491764274256 
! Gamma         0                0                0                0                
! Port Impedance         50               0                50               0                
77.5                           0.226428056332532 25.0404069766922 0.886902815036483 -52.6980703510001 0.88690281503647 -52.6980703509999 0.226669490761912 24.8392479537192 
! Gamma         0                0                0                0                
! Port Impedance         50               0                50               0                
77.6                           0.235718556676048 24.5588870298793 0.885072984029432 -53.8834591602323 0.885072984029417 -53.8834591602323 0.235948672115085 24.3653260656886 
! Gamma         0                0                0                0                
! Port Impedance         50               0                50               0                
77.7                           0.244791745175182 24.0239419540875 0.88320399163615 -55.0602958005505 0.883203991636134 -55.0602958005505 0.245011362950339 23.8373736399714 
! Gamma         0                0                0                0                
! Port Impedance         50               0                50               0                
77.8                           0.253642530533859 23.4437438946135 0.881302313387711 -56.228607719247 0.881302313387696 -56.2286077192468 0.253852369713948 23.2636262529776 
! Gamma         0                0                0                0                
! Port Impedance         50               0                50               0                
77.9                           0.262266955711768 22.8250920890361 0.879374240961064 -57.3884397533849 0.879374240961048 -57.3884397533848 0.262467649107995 22.6509391601743 
! Gamma         0                0                0                0                
! Port Impedance         50               0                50               0                
78                             0.270662016717851 22.1736795618357 0.877425872012141 -58.5398532105867 0.877425872012125 -58.5398532105864 0.27085412395704 22.0050547532967 
! Gamma         0                0                0                0                
! Port Impedance         50               0                50               0                
78.1                           0.278825517035146 21.49430048961   0.875463101868361 -59.6829249485731 0.875463101868343 -59.6829249485731 0.279009535303263 21.330810692837  
! Gamma         0                0                0                0                
! Port Impedance         50               0                50               0                
78.2                           0.28675594880407 20.7910129221789 0.873491616965993 -60.8177464595868 0.873491616965974 -60.8177464595868 0.286932321725595 20.6323033508267 
! Gamma         0                0                0                0                
! Port Impedance         50               0                50               0                
78.3                           0.294452394395987 20.0672675885615 0.87151688991176 -61.9444229651384 0.871516889911745 -61.9444229651378 0.294621519413409 19.913017271236  
! Gamma         0                0                0                0                
! Port Impedance         50               0                50               0                
78.4                           0.301914443753553 19.3260107024123 0.869544176044076 -63.0630725258746 0.869544176044056 -63.0630725258749 0.302076678293414 19.1759285562538 
! Gamma         0                0                0                0                
! Port Impedance         50               0                50               0                
78.5                           0.309142124103301 18.5697666602527 0.867578511367607 -64.1738251707241 0.86757851136759 -64.1738251707239 0.309297790755034 18.423588073417  
! Gamma         0                0                0                0                
! Port Impedance         50               0                50               0                
78.6                           0.316135839520741 17.8007050604965 0.865624711735004 -65.276822048853 0.865624711734991 -65.2768220488522 0.316285230408097 17.6581889169807 
! Gamma         0                0                0                0                
! Port Impedance         50               0                50               0                
78.7                           0.322896318457121 17.0206953991535 0.863687373151264 -66.3722146073953 0.863687373151249 -66.3722146073947 0.323039698945693 16.8816214863314 
! Gamma         0                0                0                0                
! Port Impedance         50               0                50               0                
78.8                           0.329424567793261 16.2313520066896 0.861770873079118 -67.4601637973865 0.861770873079103 -67.460163797386 0.329562179649364 16.0955187531452 
! Gamma         0                0                0                0                
! Port Impedance         50               0                50               0                
78.9                           0.33572183231976 15.4340712013244 0.859879372628191 -68.5408393097975 0.85987937262817 -68.5408393097978 0.335853896413684 15.3012936994379 
! Gamma         0                0                0                0                
! Port Impedance         50               0                50               0                
79                             0.341789558789287 14.630062191722  0.858016819515326 -69.6144188431379 0.858016819515306 -69.6144188431382 0.3419162774184  14.500170465754  
! Gamma         0                0                0                0                
! Port Impedance         50               0                50               0                
79.1                           0.34762936386994 13.820372927411  0.856186951689434 -70.6810874036419 0.856186951689418 -70.6810874036417 0.347750922763176 13.6932104133744 
! Gamma         0                0                0                0                
! Port Impedance         50               0                50               0                
79.2                           0.353243005466075 13.0059118401365 0.854393301520113 -71.7410366386911 0.854393301520097 -71.7410366386909 0.353359575520252 12.8813340486153 
! Gamma         0                0                0                0                
! Port Impedance         50               0                50               0                
79.3                           0.358632356976884 12.1874662234899 0.852639200455875 -72.7944642037797 0.85263920045586 -72.7944642037794 0.358744095766333 12.0653395607141 
! Gamma         0                0                0                0                
! Port Impedance         50               0                50               0                
79.4                           0.36379938414204 11.3657178466894 0.850927784064489 -73.8415731630112 0.850927784064474 -73.841573163011 0.363906437235937 11.2459185727767 
! Gamma         0                0                0                0                
! Port Impedance         50               0                50               0                
79.5                           0.368746124184598 10.5412562805236 0.849261997374568 -74.8825714228683 0.849261997374554 -74.8825714228681 0.368848626300463 10.4236695868342 
! Gamma         0                0                0                0                
! Port Impedance         50               0                50               0                
79.6                           0.373474667008372 9.71459032115169 0.847644600444253 -75.9176711987523 0.847644600444238 -75.9176711987521 0.373572743025569 9.5991095113049  
! Gamma         0                0                0                0                
! Port Impedance         50               0                50               0                
79.7                           0.377987138243974 8.88615782470944 0.84607817408942 -76.9470885135941 0.846078174089402 -76.9470885135946 0.378080904097118 8.77268358600605 
! Gamma         0                0                0                0                
! Port Impedance         50               0                50               0                
79.8                           0.382285683966838 8.05633420802097 0.844565125710135 -77.9710427276685 0.844565125710123 -77.971042727668 0.382375247435881 7.94477396189037 
! Gamma         0                0                0                0                
! Port Impedance         50               0                50               0                
79.9                           0.386372456933936 7.22543982476514 0.843107695160275 -78.9897560985941 0.843107695160266 -78.9897560985934 0.386457918345052 7.11570714644592 
! Gamma         0                0                0                0                
! Port Impedance         50               0                50               0                
80                             0.390249604204819 6.39374638964284 0.841707960610968 -80.0034533704019 0.841707960610955 -80.0034533704018 0.390331057054075 6.28576048865285 
! Gamma         0                0                0                0                
! Port Impedance         50               0                50               0                
80.1                           0.39391925602815 5.56148259344212 0.840367844364014 -81.012361390448 0.840367844364004 -81.0123613904476 0.39399678753818 5.45516784754928 
! Gamma         0                0                0                0                
! Port Impedance         50               0                50               0                
80.2                           0.397383515887882 4.72883902790741 0.839089118576796 -82.0167087528656 0.839089118576784 -82.0167087528655 0.397457207506178 4.62412456428614 
! Gamma         0                0                0                0                
! Port Impedance         50               0                50               0                
80.3                           0.400644451614089 3.8959725198219  0.837873410864707 -83.016725467221 0.8378734108647  -83.0167254672203 0.400714379460408 3.79279183792426 
! Gamma         0                0                0                0                
! Port Impedance         50               0                50               0                
80.4                           0.403704087472912 3.06300995777092 0.836722209751842 -84.0126426509786 0.836722209751832 -84.0126426509786 0.403770322742151 2.96130058915366 
! Gamma         0                0                0                0                
! Port Impedance         50               0                50               0                
80.5                           0.406564397158169 2.23005168199972 0.835636869944715 -85.0046922443598 0.835636869944704 -85.0046922443601 0.406627006484191 2.12975488296322 
! Gamma         0                0                0                0                
! Port Impedance         50               0                50               0                
80.6                           0.409227297614324 1.39717449700407 0.834618617407604 -85.9931067461657 0.834618617407599 -85.9931067461654 0.409286343399499 1.29823497042595 
! Gamma         0                0                0                0                
! Port Impedance         50               0                50               0                
80.7                           0.411694643626951 0.564434357602526 0.833668554221497 -86.9781189691387 0.83366855422149 -86.9781189691387 0.41175018434152 0.466800000809481 
! Gamma         0                0                0                0                
! Port Impedance         50               0                50               0                
80.8                           0.413968223122503 -0.268131228151887 0.832787663211797 -87.9599618134405 0.832787663211791 -87.9599618134402 0.414020313577328 -0.364509552252684 
! Gamma         0                0                0                0                
! Port Impedance         50               0                50               0                
80.9                           0.416049753124482 -1.10050104201509 0.831976812332816 -88.9388680568311 0.83197681233281 -88.9388680568311 0.416098444720298 -1.19566971296953 
! Gamma         0                0                0                0                
! Port Impedance         50               0                50               0                
81                             0.417940876317849 -1.93266821248054 0.831236758799662 -89.9150701601536 0.831236758799655 -89.9150701601539 0.41798621727374 -2.02667104162819 
! Gamma         0                0                0                0                
! Port Impedance         50               0                50               0                
81.1                           0.41964315817798 -2.76463845783861 0.830568152960243 -90.8888000867775 0.830568152960234 -90.8888000867783 0.419685193741464 -2.85751686084151 
! Gamma         0                0                0                0                
! Port Impedance         50               0                50               0                
81.2                           0.421158084624544 -3.59642849122408 0.829971541902501 -91.8602891346409 0.829971541902496 -91.8602891346413 0.421196857265349 -3.68822164544587 
! Gamma         0                0                0                0                
! Port Impedance         50               0                50               0                
81.3                           0.422487060164539 -4.42806456656437 0.829447372793576 -92.8297677795953 0.829447372793571 -92.8297677795957 0.422522609753921 -4.51880955476905 
! Gamma         0                0                0                0                
! Port Impedance         50               0                50               0                
81.4                           0.423631406492271 -5.25958114691103 0.828995995949324 -93.7974655287847 0.828995995949324 -93.7974655287848 0.423663770469521 -5.34931308857573 
! Gamma         0                0                0                0                
! Port Impedance         50               0                50               0                
81.5                           0.424592361517487 -6.09101967880762 0.828617667634175 -94.7636107828165 0.828617667634177 -94.7636107828164 0.424621575045035 -6.17977185020556 
! Gamma         0                0                0                0                
! Port Impedance         50               0                50               0                
81.6                           0.425371078795978 -6.92242745818826 0.828312552592528 -95.7284307055238 0.828312552592527 -95.7284307055243 0.425397174904422 -7.01023140225579 
! Gamma         0                0                0                0                
! Port Impedance         50               0                50               0                
81.7                           0.425968627339996 -7.75385657485044 0.828080726314118 -96.6921511001674 0.828080726314126 -96.6921511001668 0.425991637064164 -7.84074220174696 
! Gamma         0                0                0                0                
! Port Impedance         50               0                50               0                
81.8                           0.42638599178862 -8.58536292385192 0.827922177036926 -97.6549962909319 0.827922177036927 -97.6549962909325 0.426405944295701 -8.67135860301391 
! Gamma         0                0                0                0                
! Port Impedance         50               0                50               0                
81.9                           0.426624072920857 -9.41700527328648 0.827836807491961 -98.6171890086601 0.827836807491962 -98.6171890086607 0.426640995631533 -9.50213791768733 
! Gamma         0                0                0                0                
! Port Impedance         50               0                50               0                
82                             0.426683688496816 -10.2488443788073 0.827824436395453 -99.5789502797424 0.827824436395461 -99.5789502797424 0.426697607200191 -10.3331395220585 
! Gamma         0                0                0                0                
! Port Impedance         50               0                50               0                
82.1                           0.426565574414555 -11.0809421360308 0.827884799694501 -100.540499317178 0.827884799694503 -100.540499317179 0.426576513377652 -11.1644240028823 
! Gamma         0                0                0                0                
! Port Impedance         50               0                50               0                
82.2                           0.426270386172562 -11.9133607625767 0.828017551573149 -101.502053412824 0.82801755157315 -101.502053412825 0.426278368245034 -11.9960523333148 
! Gamma         0                0                0                0                
! Port Impedance         50               0                50               0                
82.3                           0.425798700629773 -12.746162001991 0.82822226522664 -102.463827829886 0.828222265226646 -102.463827829887 0.425803747344472 -12.8280850711715 
! Gamma         0                0                0                0                
! Port Impedance         50               0                50               0                
82.4                           0.425151018057147 -13.5794063421918 0.828498433412166 -103.426035694771 0.828498433412174 -103.426035694772 0.425153149727079 -13.6605815720934 
! Gamma         0                0                0                0                
! Port Impedance         50               0                50               0                
82.5                           0.424327764476553 -14.4131522413437 0.828845468785191 -104.388887887416 0.828845468785197 -104.388887887417 0.424327000288729 -14.4935992104807 
! Gamma         0                0                0                0                
! Port Impedance         50               0                50               0                
82.6                           0.423329294284474 -15.2474553542571 0.829262704031163 -105.352592929285 0.829262704031167 -105.352592929286 0.423325652391154 -15.3271926012431 
! Gamma         0                0                0                0                
! Port Impedance         50               0                50               0                
82.7                           0.422155893159706 -16.0823677524845 0.829749391803046 -106.317356868233 0.829749391803054 -106.317356868234 0.422149390767418 -16.1614128155005 
! Gamma         0                0                0                0                
! Port Impedance         50               0                50               0                
82.8                           0.420807781255605 -16.9179371312781 0.830304704475929 -107.283383159484 0.830304704475938 -107.283383159485 0.420798434712381 -16.996306583358 
! Gamma         0                0                0                0                
! Port Impedance         50               0                50               0                
82.9                           0.419285116678927 -17.7542059964689 0.830927733730522 -108.250872542015 0.830927733730529 -108.250872542017 0.419272941560087 -17.8319154767798 
! Gamma         0                0                0                0                
! Port Impedance         50               0                50               0                
83                             0.417587999258479 -18.5912108241195 0.831617489978376 -109.220022909667 0.831617489978383 -109.220022909668 0.417573010451333 -18.6682750653766 
! Gamma         0                0                0                0                
! Port Impedance         50               0                50               0                
83.1                           0.415716474608001 -19.4289811854988 0.832372901642293 -110.191029176337 0.832372901642302 -110.191029176339 0.415698686395773 -19.5054140376265 
! Gamma         0                0                0                0                
! Port Impedance         50               0                50               0                
83.2                           0.413670538488721 -20.267538829507 0.833192814306311 -111.16408313468 0.83319281430632 -111.164083134681 0.413649964634   -20.3433532796152 
! Gamma         0                0                0                0                
! Port Impedance         50               0                50               0                
83.3                           0.411450141477915 -21.1068967141354 0.834075989750557 -112.139373307738 0.834075989750568 -112.139373307739 0.411426795305933 -21.1821049028527 
! Gamma         0                0                0                0                
! Port Impedance         50               0                50               0                
83.4                           0.409055193950695 -21.9470579778658 0.835021104887165 -113.117084793029 0.835021104887177 -113.11708479303 0.409029088432681 -22.0216712120337 
! Gamma         0                0                0                0                
! Port Impedance         50               0                50               0                
83.5                           0.406485571382841 -22.7880148410859 0.836026750614619 -114.0973990986  0.836026750614628 -114.097399098601 0.406456719219751 -22.8620436027813 
! Gamma         0                0                0                0                
! Port Impedance         50               0                50               0                
83.6                           0.403741119983207 -23.6297474265762 0.837091430608605 -115.080493970678 0.837091430608613 -115.08049397068 0.403709533690025 -23.7032013783914 
! Gamma         0                0                0                0                
! Port Impedance         50               0                50               0                
83.7                           0.400821662664589 -24.472222486915 0.838213560068965 -116.066543212543 0.838213560068972 -116.066543212545 0.400787354655524 -24.5451104733831 
! Gamma         0                0                0                0                
! Port Impedance         50               0                50               0                
83.8                           0.39772700536248 -25.315392025187 0.839391464443112 -117.055716494344 0.839391464443115 -117.055716494347 0.397689988037251 -25.3877220701956 
! Gamma         0                0                0                0                
! Port Impedance         50               0                50               0                
83.9                           0.394456943711309 -26.1591917936436 0.84062337814767 -118.04817915364 0.840623378147679 -118.048179153642 0.394417229542799 -26.2309710936297 
! Gamma         0                0                0                0                
! Port Impedance         50               0                50               0                
84                             0.391011270088087 -27.0035396528966 0.841907443311226 -119.044091986484 0.841907443311234 -119.044091986487 0.390968871711608 -27.0747745655584 
! Gamma         0                0                0                0                
! Port Impedance         50               0                50               0                
84.1                           0.387389781033503 -27.8483337717532 0.843241708562244 -120.043611029005 0.843241708562251 -120.043611029007 0.387344711337953 -27.9190297999531 
! Gamma         0                0                0                0                
! Port Impedance         50               0                50               0                
84.2                           0.383592285060684 -28.6934506448693 0.844624127887527 -121.046887329437 0.844624127887533 -121.04688732944 0.383544557281869 -28.7636124153292 
! Gamma         0                0                0                0                
! Port Impedance         50               0                50               0                
84.3                           0.379618610861926 -29.5387429018857 0.846052559587758 -122.05406671071 0.846052559587764 -122.054066710713 0.379568238678376 -29.6083741381927 
! Gamma         0                0                0                0                
! Port Impedance         50               0                50               0                
84.4                           0.375468615923966 -30.3840368775269 0.847524765357835 -123.065289523748 0.847524765357841 -123.06528952375 0.375415613555552 -30.4531403668694 
! Gamma         0                0                0                0                
! Port Impedance         50               0                50               0                
84.5                           0.37114219556257 -31.2291299071155 0.849038409520864 -124.080690391749 0.849038409520868 -124.080690391752 0.371086577872322 -31.297707460059 
! Gamma         0                0                0                0                
! Port Impedance         50               0                50               0                
84.6                           0.36663929238769 -32.0737873059351 0.850591058445826 -125.100397945812 0.850591058445828 -125.100397945815 0.366581074987244 -32.141839708411 
! Gamma         0                0                0                0                
! Port Impedance         50               0                50               0                
84.7                           0.361959906211219 -32.9177389836131 0.852180180179799 -126.124534552367 0.852180180179805 -126.12453455237 0.361899105570382 -32.9852659401386 
! Gamma         0                0                0                0                
! Port Impedance         50               0                50               0                
84.8                           0.357104104410401 -33.7606756359275 0.853803144326596 -127.153216033026 0.853803144326601 -127.153216033029 0.357040737971405 -33.827675702884 
! Gamma         0                0                0                0                
! Port Impedance         50               0                50               0                
84.9                           0.352072032761676 -34.6022444458236 0.855457222204337 -128.186551377529 0.855457222204344 -128.186551377531 0.352006119058826 -34.6687149533987 
! Gamma         0                0                0                0                
! Port Impedance         50               0                50               0                
85                             0.346863926762142 -35.4420442124984 0.85713958731511 -129.224642450623 0.857139587315115 -129.224642450626 0.346795485547637 -35.5079811736233 
! Gamma         0                0                0                0                
! Port Impedance         50               0                50               0                
85.1                           0.341480123459202 -36.2796198116464 0.858847316160085 -130.267583693855 0.858847316160088 -130.267583693858 0.34140917583612 -36.3450178159371 
! Gamma         0                0                0                0                
! Port Impedance         50               0                50               0                
85.2                           0.33592107381372 -37.1144558706237 0.860577389433697 -131.315461823331 0.860577389433702 -131.315461823334 0.335847642377325 -37.1793079609307 
! Gamma         0                0                0                0                
! Port Impedance         50               0                50               0                
85.3                           0.330187355628537 -37.9459695184989 0.862326693630266 -132.368355524704 0.862326693630267 -132.368355524706 0.330111464617352 -38.0102670471935 
! Gamma         0                0                0                0                
! Port Impedance         50               0                50               0                
85.4                           0.324279687082913 -38.7735020415465 0.864092023095881 -133.426335146736 0.864092023095883 -133.426335146739 0.324201362541279 -38.8372345030673 
! Gamma         0                0                0                0                
! Port Impedance         50               0                50               0                
85.5                           0.318198940925406 -39.5963092382212 0.865870082557685 -134.48946239496 0.865870082557685 -134.489462394963 0.318118210879651 -39.659464073676 
! Gamma         0                0                0                0                
! Port Impedance         50               0                50               0                
85.6                           0.311946159393225 -40.4135502220573 0.867657490161272 -135.557790027071 0.867657490161273 -135.557790027074 0.311863054044073 -40.4761125907616 
! Gamma         0                0                0                0                
! Port Impedance         50               0                50               0                
85.7                           0.30552256994708 -41.2242743637769 0.869450781045501 -136.63136155184 0.869450781045499 -136.631361551843 0.305437121881564 -41.2862268754809 
! Gamma         0                0                0                0                
! Port Impedance         50               0                50               0                
85.8                           0.298929601937988 -42.0274059917935 0.871246411481696 -137.710210933483 0.871246411481698 -137.710210933485 0.298841846364838 -42.0887283919186 
! Gamma         0                0                0                0                
! Port Impedance         50               0                50               0                
85.9                           0.292168904358664 -42.8217263788563 0.873040763601852 -138.794362303514 0.873040763601851 -138.794362303517 0.292078879372252 -42.882395177281 
! Gamma         0                0                0                0                
! Port Impedance         50               0                50               0                
86                             0.285242364880113 -43.6058524259886 0.874830150737199 -139.883829682278 0.874830150737197 -139.88382968228 0.285150111759168 -43.6658404576385 
! Gamma         0                0                0                0                
! Port Impedance         50               0                50               0                
86.1                           0.278152130436754 -44.3782113051609 0.876610823385042 -140.978616712432 0.876610823385041 -140.978616712434 0.278057693985845 -44.4374872077765 
! Gamma         0                0                0                0                
! Port Impedance         50               0                50               0                
86.2                           0.270900629706972 -45.1370101288269 0.878378975817596 -142.078716406781 0.878378975817594 -142.078716406783 0.270804058650685 -45.19553771954  
! Gamma         0                0                0                0                
! Port Impedance         50               0                50               0                
86.3                           0.263490597946101 -45.8801994629545 0.880130753341821 -143.18411091293 0.880130753341819 -143.184110912932 0.263391945388711 -45.937936990519 
! Gamma         0                0                0                0                
! Port Impedance         50               0                50               0                
86.4                           0.255925104776264 -46.6054291708906 0.881862260214239 -144.29477129731 0.881862260214237 -144.294771297312 0.255824428743118 -46.6623284141268 
! Gamma         0                0                0                0                
! Port Impedance         50               0                50               0                
86.5                           0.248207585733971 -47.3099946407591 0.883569568208804 -145.41065735117 0.883569568208802 -145.410657351172 0.248104949815663 -47.3659998155977 
! Gamma         0                0                0                0                
! Port Impedance         50               0                50               0                
86.6                           0.240341878642111 -47.990770871275 0.885248725829889 -146.531717421164 0.885248725829884 -146.531717421166 0.240237352768584 -48.0458172979239 
! Gamma         0                0                0                0                
! Port Impedance         50               0                50               0                
86.7                           0.232332266232802 -48.644131116152 0.886895768155682 -147.657888267169 0.886895768155677 -147.657888267171 0.232225927613057 -48.6981435835242 
! Gamma         0                0                0                0                
! Port Impedance         50               0                50               0                
86.8                           0.22418352694089 -49.265845740138 0.888506727290362 -148.789094949949 0.888506727290359 -148.789094949951 0.224075461215149 -49.3187364853165 
! Gamma         0                0                0                0                
! Port Impedance         50               0                50               0                
86.9                           0.215900996468448 -49.8509555116876 0.890077643395952 -149.925250751219 0.890077643395949 -149.92525075122 0.215791299135217 -49.9026217061067 
! Gamma         0                0                0                0                
! Port Impedance         50               0                50               0                
87                             0.207490643670915 -50.3936115926416 0.891604576267204 -151.066257128599 0.891604576267201 -151.0662571286  0.207379421872705 -50.4439321910212 
! Gamma         0                0                0                0                
! Port Impedance         50               0                50               0                
87.1                           0.198959165654888 -50.8868717572614 0.89308361740508 -152.212003707831 0.893083617405077 -152.212003707832 0.198846540436171 -50.9357035164364 
! Gamma         0                0                0                0                
! Port Impedance         50               0                50               0                
87.2                           0.190314108888454 -51.3224385499978 0.894510902536523 -153.362368314477 0.894510902536521 -153.362368314477 0.190200218081754 -51.3696109571144 
! Gamma         0                0                0                0                
! Port Impedance         50               0                50               0                
87.3                           0.181564025884576 -51.6903196851487 0.895882624520431 -154.517217047141 0.895882624520429 -154.517217047141 0.181449027840629 -51.7356284403101 
! Gamma         0                0                0                0                
! Port Impedance         50               0                50               0                
87.4                           0.172718681054161 -51.9783832789379 0.897195046572178 -155.676404394062 0.897195046572177 -155.676404394063 0.17260275951956 -52.0215818452791 
! Gamma         0                0                0                0                
! Port Impedance         50               0                50               0                
87.5                           0.163789325309076 -52.171769415683 0.898444515731694 -156.839773394642 0.898444515731695 -156.839773394642 0.163672695882497 -52.21255796393  
! Gamma         0                0                0                0                
! Port Impedance         50               0                50               0                
87.6                           0.154789067988614 -52.2521035074363 0.899627476493277 -158.007155847221 0.899627476493279 -158.007155847221 0.154671986776441 -52.2901143208786 
! Gamma         0                0                0                0                
! Port Impedance         50               0                50               0                
87.7                           0.145733388386053 -52.1964336236625 0.900740484509069 -159.178372564093 0.900740484509072 -159.178372564093 0.145616163763009 -52.2312116651927 
! Gamma         0                0                0                0                
! Port Impedance         50               0                50               0                
87.8                           0.136640850312988 -51.9757802492958 0.901780220272601 -160.353233674407 0.901780220272606 -160.353233674406 0.136523859125397 -52.0067570943411 
! Gamma         0                0                0                0                
! Port Impedance         50               0                50               0                
87.9                           0.127534116210012 -51.5531386815299 0.902743502684161 -161.531538975231 0.902743502684168 -161.53153897523 0.127417826419433 -51.579597371201 
! Gamma         0                0                0                0                
! Port Impedance         50               0                50               0                
88                             0.118441409470473 -50.8807073785553 0.903627302396061 -162.71307833069 0.903627302396071 -162.713078330689 0.118326412246788 -50.9017349894026 
! Gamma         0                0                0                0                
! Port Impedance         50               0                50               0                
88.1                           0.109398656194997 -49.8960295668337 0.904428754833408 -163.897632118636 0.90442875483342 -163.897632118634 0.109285712002334 -49.9104536690138 
! Gamma         0                0                0                0                
! Port Impedance         50               0                50               0                
88.2                           0.100452667247717 -48.5166454780076 0.90514517278458 -165.084971723941 0.905145172784594 -165.084971723939 0.100342772724306 -48.522950977371 
! Gamma         0                0                0                0                
! Port Impedance         50               0                50               0                
88.3                           0.0916659189434931 -46.6328247219569 0.905774058455705 -166.274860077032 0.905774058455721 -166.27486007703 0.0915604044318949 -46.6290512044021 
! Gamma         0                0                0                0                
! Port Impedance         50               0                50               0                
88.4                           0.0831237668177819 -44.0981957630108 0.906313114884733 -167.467052235874 0.906313114884752 -167.467052235872 0.0830244376256801 -44.0818286173512 
! Gamma         0                0                0                0                
! Port Impedance         50               0                50               0                
88.5                           0.0749452246083537 -40.7192161034223 0.90676025661355 -168.661296009187 0.906760256613571 -168.661296009185 0.0748545592790558 -40.6871225556024 
! Gamma         0                0                0                0                
! Port Impedance         50               0                50               0                
88.6                           0.0672984410566554 -36.2479463462306 0.907113619520744 -169.857332618246 0.90711361952077 -169.857332618244 0.0672198462248334 -36.1965016512557 
! Gamma         0                0                0                0                
! Port Impedance         50               0                50               0                
88.7                           0.0604206014881548 -30.3915625029795 0.907371569723344 -171.054897394241 0.907371569723374 -171.054897394238 0.0603586659066238 -30.3173037150385 
! Gamma         0                0                0                0                
! Port Impedance         50               0                50               0                
88.8                           0.054636299869677 -22.8694461171471 0.907532711462797 -172.253720507761 0.907532711462831 -172.253720507758 0.054596834746487 -22.7708302122076 
! Gamma         0                0                0                0                
! Port Impedance         50               0                50               0                
88.9                           0.0503541886606864 -13.5637823190537 0.907595893898821 -173.453527726667 0.907595893898854 -173.453527726664 0.0503435758244471 -13.4443842649852 
! Gamma         0                0                0                0                
! Port Impedance         50               0                50               0                
89                             0.0480034257846886 -2.76292378249549 0.907560216744253 -174.654041198255 0.907560216744291 -174.654041198252 0.0480267600107727 -2.63441817034817 
! Gamma         0                0                0                0                
! Port Impedance         50               0                50               0                
89.1                           0.0478881545720635 8.68850225039209 0.907425034684607 -175.854980251392 0.907425034684652 -175.854980251388 0.0479467146591732 8.80822636978021 
! Gamma         0                0                0                0                
! Port Impedance         50               0                50               0                
89.2                           0.0500354280869688 19.6376566714668 0.907189960537602 -177.056062214026 0.90718996053765 -177.056062214022 0.0501256795398319 19.7327803517801 
! Gamma         0                0                0                0                
! Port Impedance         50               0                50               0                
89.3                           0.0541816698773099 29.1729927892376 0.906854867119987 -178.257003241366 0.906854867120037 -178.257003241362 0.0542970649632479 29.2366730849094 
! Gamma         0                0                0                0                
! Port Impedance         50               0                50               0                
89.4                           0.0599122457796241 36.9336780233712 0.906419887802087 -179.457519149824 0.906419887802145 -179.457519149819 0.0600459679777529 36.9673872834534 
! Gamma         0                0                0                0                
! Port Impedance         50               0                50               0                
89.5                           0.0668150188696898 42.9978274040089 0.905885415743276 179.342673748188 0.905885415743337 179.342673748192 0.0669615574287305 43.0068729413435 
! Gamma         0                0                0                0                
! Port Impedance         50               0                50               0                
89.6                           0.0745557213600618 47.6354139998519 0.905252101814999 178.143857813554 0.905252101815063 178.143857813559 0.0747111422958612 47.6255567590565 
! Gamma         0                0                0                0                
! Port Impedance         50               0                50               0                
89.7                           0.0828876872224328 51.1425405854491 0.904520851231185 176.946313258772 0.904520851231251 176.946313258777 0.0830493305615043 51.1186180367687 
! Gamma         0                0                0                0                
! Port Impedance         50               0                50               0                
89.8                           0.0916353371022207 53.7744239008654 0.903692818918451 175.75031734005  0.903692818918528 175.750317340055 0.0918014321163943 53.740113695294  
! Gamma         0                0                0                0                
! Port Impedance         50               0                50               0                
89.9                           0.100674244323674 55.7317291902544 0.902769403671161 174.556143567882 0.902769403671239 174.556143567887 0.100843606225516 55.6897188398138 
! Gamma         0                0                0                0                
! Port Impedance         50               0                50               0                
90                             0.109915159801382 57.1666115766161 0.901752241147547 173.364060940499 0.901752241147634 173.364060940504 0.110086983165019 57.118841374349  
! Gamma         0                0                0                0                
! Port Impedance         50               0                50               0                
90.1                           0.119292756059209 58.1931848340603 0.900643195774326 172.174333204426 0.900643195774414 172.174333204431 0.119466481484463 58.1410572160239 
! Gamma         0                0                0                0                
! Port Impedance         50               0                50               0                
90.2                           0.128758061101934 58.8971471111892 0.899444351636248 170.987218146017 0.899444351636347 170.987218146023 0.128933290494097 58.8416834168791 
! Gamma         0                0                0                0                
! Port Impedance         50               0                50               0                
90.3                           0.138273439283841 59.3433338037859 0.898158002436085 169.802966917558 0.898158002436177 169.802966917563 0.138449881918715 59.2852856022102 
! Gamma         0                0                0                0                
! Port Impedance         50               0                50               0                
90.4                           0.147809253211172 59.5813007196568 0.896786640617073 168.621823401107 0.896786640617181 168.621823401113 0.147986691041725 59.5212273976389 
! Gamma         0                0                0                0                
! Port Impedance         50               0                50               0                
90.5                           0.157341621068936 59.6493584162255 0.895332945746155 167.444023612916 0.895332945746266 167.444023612922 0.157519886090432 59.5876810902106 
! Gamma         0                0                0                0                
! Port Impedance         50               0                50               0                
90.6                           0.166850889244148 59.5774702842306 0.893799772260264 166.269795150823 0.893799772260378 166.269795150829 0.167029848493444 59.5145094413363 
! Gamma         0                0                0                0                
! Port Impedance         50               0                50               0                
90.7                           0.176320576352851 59.3893396941357 0.892190136681075 165.099356686579 0.892190136681187 165.099356686584 0.176500121807471 59.3253417042352 
! Gamma         0                0                0                0                
! Port Impedance         50               0                50               0                
90.8                           0.185736631863416 59.1039234931533 0.890507204404907 163.932917504684 0.890507204405031 163.93291750469  0.185916673533229 59.0390794823986 
! Gamma         0                0                0                0                
! Port Impedance         50               0                50               0                
90.9                           0.195086907603743 58.7365395221652 0.888754276174831 162.770677088842 0.888754276174953 162.770677088847 0.195267368734954 58.6709989633225 
! Gamma         0                0                0                0                
! Port Impedance         50               0                50               0                
91                             0.204360775370117 58.2996852704944 0.886934774340289 161.612824756708 0.886934774340419 161.612824756713 0.204541589068104 58.2335658828961 
! Gamma         0                0                0                0                
! Port Impedance         50               0                50               0                
91.1                           0.213548846189131 57.8036493589279 0.885052229007738 160.459539343248 0.885052229007867 160.459539343253 0.213729953007808 57.7370444027764 
! Gamma         0                0                0                0                
! Port Impedance         50               0                50               0                
91.2                           0.222642761229853 57.2569730564994 0.883110264181429 159.310988932558 0.883110264181549 159.310988932563 0.222824107428619 57.1899567666098 
! Gamma         0                0                0                0                
! Port Impedance         50               0                50               0                
91.3                           0.231635033831828 56.6668021671307 0.88111258398952 158.167330637676 0.881112583989648 158.167330637681 0.23181657009934 56.5994338433603 
! Gamma         0                0                0                0                
! Port Impedance         50               0                50               0                
91.4                           0.240518928405773 56.0391579692612 0.879062959084606 157.028710427519 0.879062959084733 157.028710427523 0.240700608913908 55.9714850865537 
! Gamma         0                0                0                0                
! Port Impedance         50               0                50               0                
91.5                           0.249288366202213 55.3791477944774 0.876965213301725 155.895262999787 0.876965213301856 155.895262999792 0.249470147896318 55.311208389767  
! Gamma         0                0                0                0                
! Port Impedance         50               0                50               0                
91.6                           0.257937850837953 54.6911301614726 0.874823210650126 154.767111698381 0.874823210650256 154.767111698385 0.258119692897719 54.6229546819348 
! Gamma         0                0                0                0                
! Port Impedance         50               0                50               0                
91.7                           0.266462408472542 53.9788453774198 0.872640842707448 153.644368473582 0.872640842707571 153.644368473586 0.266644271897316 53.9104581235693 
! Gamma         0                0                0                0                
! Port Impedance         50               0                50               0                
91.8                           0.274857538929729 53.2455196649279 0.870422016477371 152.527133883062 0.870422016477502 152.527133883066 0.275039386215345 53.176939926275  
! Gamma         0                0                0                0                
! Port Impedance         50               0                50               0                
91.9                           0.283119175053138 52.4939488199476 0.868170642764184 151.415497131571 0.868170642764301 151.415497131574 0.283300969936609 52.4251917753041 
! Gamma         0                0                0                0                
! Port Impedance         50               0                50               0                
92                             0.291243648297988 51.7265659157344 0.865890625109283 150.30953614699  0.865890625109412 150.309536146994 0.291425355552975 51.6576433518856 
! Gamma         0                0                0                0                
! Port Impedance         50               0                50               0                
92.1                           0.299227659076782 50.9454964764609 0.863585849327335 149.209317690324 0.863585849327465 149.209317690328 0.299409244347191 50.8764173656168 
! Gamma         0                0                0                0                
! Port Impedance         50               0                50               0                
92.2                           0.307068250753763 50.1526037374356 0.861260173671496 148.1148974971   0.861260173671629 148.114897497104 0.30724968041641 50.0833747040323 
! Gamma         0                0                0                0                
! Port Impedance         50               0                50               0                
92.3                           0.314762786461321 49.3495260079505 0.858917419650205 147.026320447588 0.858917419650334 147.026320447591 0.314944027510709 49.280151708199  
! Gamma         0                0                0                0                
! Port Impedance         50               0                50               0                
92.4                           0.322308928117708 48.5377077012034 0.856561363510566 145.943620763218 0.856561363510683 145.943620763221 0.322489948067935 48.4681911333407 
! Gamma         0                0                0                0                
! Port Impedance         50               0                50               0                
92.5                           0.32970461718011 47.7184252539125 0.854195728396704 144.86682222657  0.854195728396816 144.866822226572 0.329885383980035 47.648768013083  
! Gamma         0                0                0                0                
! Port Impedance         50               0                50               0                
92.6                           0.336948056783   46.8928088974796 0.85182417718531 143.795938422324 0.851824177185426 143.795938422327 0.337128538741876 46.823011386164  
! Gamma         0                0                0                0                
! Port Impedance         50               0                50               0                
92.7                           0.344037694999491 46.0618610422966 0.849450305994751 142.730972996606 0.849450305994861 142.730972996609 0.344217860720879 45.9919226447431 
! Gamma         0                0                0                0                
! Port Impedance         50               0                50               0                
92.8                           0.35097220902961 45.2264718817401 0.847077638358852 141.671919932229 0.84707763835895 141.671919932231 0.351152027351931 45.1563911092102 
! Gamma         0                0                0                0                
! Port Impedance         50               0                50               0                
92.9                           0.357750490169919 44.3874327018911 0.844709620051796 140.618763837398 0.844709620051891 140.618763837401 0.357929930112456 44.3172073140312 
! Gamma         0                0                0                0                
! Port Impedance         50               0                50               0                
93                             0.364371629456816 43.5454472884587 0.842349614546548 139.57148024556  0.842349614546629 139.571480245562 0.364550660170154 43.4750743950826 
! Gamma         0                0                0                0                
! Port Impedance         50               0                50               0                
93.1                           0.370834903904986 42.7011417479299 0.840000899085394 138.530035924171 0.840000899085459 138.530035924171 0.371013494625266 42.6306178946607 
! Gamma         0                0                0                0                
! Port Impedance         50               0                50               0                
93.2                           0.377139763284049 41.8550730009892 0.837666661338373 137.494389190285 0.837666661338422 137.494389190285 0.377317883290408 41.784394241515  
! Gamma         0                0                0                0                
! Port Impedance         50               0                50               0                
93.3                           0.383285817392788 41.007736159221  0.835349996622396 136.464490230972 0.835349996622456 136.464490230973 0.383463435967612 40.9368981164183 
! Gamma         0                0                0                0                
! Port Impedance         50               0                50               0                
93.4                           0.389272823802541 40.1595709584743 0.833053905652723 135.440281426742 0.83305390565277 135.440281426743 0.389449910194182 40.0885688762324 
! Gamma         0                0                0                0                
! Port Impedance         50               0                50               0                
93.5                           0.3951006760499  39.3109673919397 0.830781292795451 134.421697676248 0.83078129279549 134.421697676248 0.395277199437684 39.2397961791827 
! Gamma         0                0                0                0                
! Port Impedance         50               0                50               0                
93.6                           0.400769392265539 38.4622706615339 0.828534964790094 133.408666720701 0.828534964790121 133.408666720702 0.400945321726774 38.3909249296782 
! Gamma         0                0                0                0                
! Port Impedance         50               0                50               0                
93.7                           0.406279104230077 37.6137855462863 0.826317629909336 132.401109466576 0.826317629909363 132.401109466577 0.406454408709052 37.5422596411371 
! Gamma         0                0                0                0                
! Port Impedance         50               0                50               0                
93.8                           0.411630046851034 36.7657802701474 0.824131897523283 131.398940305279 0.824131897523291 131.39894030528  0.411804695129743 36.6940682990742 
! Gamma         0                0                0                0                
! Port Impedance         50               0                50               0                
93.9                           0.416822548056599 35.9184899384365 0.821980278035401 130.402067428657 0.821980278035395 130.402067428658 0.416996508727323 35.846585793552  
! Gamma         0                0                0                0                
! Port Impedance         50               0                50               0                
94                             0.421857019103076 35.072119601128  0.819865183157391 129.410393139288 0.819865183157379 129.410393139289 0.422030260542568 35.0000169790167 
! Gamma         0                0                0                0                
! Port Impedance         50               0                50               0                
94.1                           0.426733945293034 34.2268469922407 0.817788926490914 128.42381415466  0.817788926490881 128.423814154661 0.426906435638393 34.1545394107543 
! Gamma         0                0                0                0                
! Port Impedance         50               0                50               0                
94.2                           0.431453877101301 33.3828249870646 0.815753724384533 127.442221904464 0.815753724384484 127.442221904464 0.431625584227473 33.3103057995741 
! Gamma         0                0                0                0                
! Port Impedance         50               0                50               0                
94.3                           0.436017421705472 32.5401838128059 0.813761697035535 126.465502820322 0.81376169703547 126.465502820323 0.436188313204413 32.4674462202735 
! Gamma         0                0                0                0                
! Port Impedance         50               0                50               0                
94.4                           0.440425234916966 31.6990330430078 0.811814869806889 125.493538617429 0.811814869806803 125.493538617429 0.440595278078353 31.6260701041407 
! Gamma         0                0                0                0                
! Port Impedance         50               0                50               0                
94.5                           0.444678013508071 30.8594634018016 0.809915174730933 124.526206567613 0.809915174730821 124.526206567613 0.444847175301737 30.7862680415703 
! Gamma         0                0                0                0                
! Port Impedance         50               0                50               0                
94.6                           0.448776487929577 30.0215484004175 0.808064452172879 123.563379763527 0.808064452172766 123.563379763527 0.448944734989515 29.9481134171111 
! Gamma         0                0                0                0                
! Port Impedance         50               0                50               0                
94.7                           0.45272141541285 29.1853458252942 0.806264452628109 122.604927373654 0.806264452627978 122.604927373655 0.452888714022981 29.1116638963119 
! Gamma         0                0                0                0                
! Port Impedance         50               0                50               0                
94.8                           0.45651357344953 28.3508990945771 0.80451683862889 121.650714888009 0.804516838628754 121.650714888011 0.456679889531103 28.276962781097  
! Gamma         0                0                0                0                
! Port Impedance         50               0                50               0                
94.9                           0.460153753641165 27.5182384975684 0.802823186737567 120.700604354397 0.802823186737413 120.7006043544   0.460319052741961 27.4440402482238 
! Gamma         0                0                0                0                
! Port Impedance         50               0                50               0                
95                             0.463642755910859 26.687382329904  0.801184989604589 119.754454605253 0.801184989604416 119.754454605255 0.463807003196148 26.6129144835733 
! Gamma         0                0                0                0                
! Port Impedance         50               0                50               0                
95.1                           0.466981383067886 25.8583379355418 0.799603658071141 118.812121475071 0.799603658070949 118.812121475074 0.46714454331326 25.7835927233417 
! Gamma         0                0                0                0                
! Port Impedance         50               0                50               0                
95.2                           0.470170435716642 25.0311026654364 0.798080523297629 117.873458008566 0.798080523297401 117.873458008568 0.470332473302721 24.9560722119991 
! Gamma         0                0                0                0                
! Port Impedance         50               0                50               0                
95.3                           0.473210707500117 24.2056647614845 0.796616838900598 116.938314659692 0.796616838900372 116.938314659696 0.473371586409245 24.130341085587  
! Gamma         0                0                0                0                
! Port Impedance         50               0                50               0                
95.4                           0.476102980668369 23.3820041734168 0.795213783082005 116.006539481775 0.795213783081753 116.006539481779 0.476262664483321 23.3063791880124 
! Gamma         0                0                0                0                
! Port Impedance         50               0                50               0                
95.5                           0.478848021962376 22.5600933154626 0.793872460735921 115.077978308966 0.79387246073563 115.077978308968 0.479006473867171 22.4841588271561 
! Gamma         0                0                0                0                
! Port Impedance         50               0                50               0                
95.6                           0.48144657880319 21.7398977688079 0.792593905519316 114.15247492936  0.79259390551901 114.152474929364 0.481603761586084 21.6636454768233 
! Gamma         0                0                0                0                
! Port Impedance         50               0                50               0                
95.7                           0.4838993757768  20.9213769353119 0.791379081874272 113.229871250079 0.791379081873955 113.229871250084 0.484055251835576 20.8447984299722 
! Gamma         0                0                0                0                
! Port Impedance         50               0                50               0                
95.8                           0.486207111405034 20.1044846473527 0.790228886990588 112.310007454694 0.790228886990256 112.3100074547   0.486361642754631 20.0275714081046 
! Gamma         0                0                0                0                
! Port Impedance         50               0                50               0                
95.9                           0.488370455193138 19.2891697382177 0.789144152698354 111.392722153383 0.789144152698006 111.39272215339  0.488523603475669 19.2119131311955 
! Gamma         0                0                0                0                
! Port Impedance         50               0                50               0                
96                             0.490390044944664 18.4753765769939 0.788125647281539 110.477852526236 0.788125647281168 110.477852526243 0.490541771442164 18.3977678521836 
! Gamma         0                0                0                0                
! Port Impedance         50               0                50               0                
96.1                           0.49226648433528 17.6630455716433 0.787174077204001 109.565234460132 0.787174077203617 109.56523446014  0.492416749984891 17.5850758595912 
! Gamma         0                0                0                0                
! Port Impedance         50               0                50               0                
96.2                           0.494000340736658 16.8521136435259 0.786290088741037 108.654702679683 0.786290088740628 108.654702679692 0.494149106148734 16.773773951641  
! Gamma         0                0                0                0                
! Port Impedance         50               0                50               0                
96.3                           0.495592143282793 16.0425146764324 0.785474269509357 107.746090872666 0.785474269508925 107.746090872675 0.49573936876185 15.9637958848631 
! Gamma         0                0                0                0                
! Port Impedance         50               0                50               0                
96.4                           0.497042381171193 15.2341799429296 0.784727149890238 106.839231810469 0.784727149889807 106.83923181048  0.497188026739812 15.1550728000069 
! Gamma         0                0                0                0                
! Port Impedance         50               0                50               0                
96.5                           0.498351502191925 14.4270385105932 0.784049204340547 105.933957464032 0.7840492043401  105.933957464044 0.498495527617791 14.3475336278295 
! Gamma         0                0                0                0                
! Port Impedance         50               0                50               0                
96.6                           0.499519911478291 13.6210176305491 0.783440852587246 105.030099115797 0.783440852586775 105.030099115809 0.499662276304428 13.54110547718   
! Gamma         0                0                0                0                
! Port Impedance         50               0                50               0                
96.7                           0.500547970473121 12.8160431105541 0.782902460702015 104.127487468182 0.782902460701511 104.127487468195 0.500688634051529 12.7357140076043 
! Gamma         0                0                0                0                
! Port Impedance         50               0                50               0                
96.8                           0.501435996105677 12.0120396747368 0.78243434205236 103.225952749104 0.78243434205185 103.225952749118 0.501574917634386 11.9312837885847 
! Gamma         0                0                0                0                
! Port Impedance         50               0                50               0                
96.9                           0.502184260174442 11.2089313119804 0.782036758127263 102.325324815088 0.782036758126732 102.325324815102 0.502321398738135 11.1277386473869 
! Gamma         0                0                0                0                
! Port Impedance         50               0                50               0                
97                             0.502792988931803 10.406641614823  0.781709919234803 101.425433252485 0.781709919234272 101.425433252501 0.50292830354615 10.3250020074031 
! Gamma         0                0                0                0                
! Port Impedance         50               0                50               0                
97.1                           0.503262362867258 9.60509411067488 0.781453985070761 100.526107477365 0.781453985070225 100.526107477383 0.503395812527073 9.52299721876522 
! Gamma         0                0                0                0                
! Port Impedance         50               0                50               0                
97.2                           0.503592516686552 8.80421258707241 0.781269065156831 99.6271768345926 0.78126906515629 99.6271768346122 0.5037240604178  8.72164788295012 
! Gamma         0                0                0                0                
! Port Impedance         50               0                50               0                
97.3                           0.503783539484344 8.0039214126081  0.781155219148149 98.7284706966618 0.781155219147585 98.7284706966813 0.503913136400211 7.92087817302532 
! Gamma         0                0                0                0                
! Port Impedance         50               0                50               0                
97.4                           0.503835475109078 7.2041458551497  0.78111245701004 97.8298185628248 0.781112457009473 97.8298185628458 0.503963084470088 7.12061315111247 
! Gamma         0                0                0                0                
! Port Impedance         50               0                50               0                
97.5                           0.503748322719042 6.40481239890436 0.781140739064487 96.9310501590707 0.781140739063926 96.9310501590938 0.503873903997338 6.32077908464687 
! Gamma         0                0                0                0                
! Port Impedance         50               0                50               0                
97.6                           0.503522037529168 5.60584906184663 0.781239975907104 96.0319955394944 0.781239975906524 96.0319955395173 0.503645550477047 5.52130376293099 
! Gamma         0                0                0                0                
! Port Impedance         50               0                50               0                
97.7                           0.503156531748846 4.80718571503025 0.781410028196029 95.1324851896051 0.781410028195415 95.1324851896269 0.503277936471565 4.72211681549683 
! Gamma         0                0                0                0                
! Port Impedance         50               0                50               0                
97.8                           0.502651675711389 4.00875440526818 0.781650706314678 94.2323501321293 0.781650706314088 94.232350132154  0.502770932744265 3.92315003375542 
! Gamma         0                0                0                0                
! Port Impedance         50               0                50               0                
97.9                           0.502007299196297 3.21048968267597 0.781961769910884 93.3314220358591 0.781961769910279 93.3314220358837 0.502124369586078 3.12433769741782 
! Gamma         0                0                0                0                
! Port Impedance         50               0                50               0                
98                             0.501223192945912 2.41232893457667 0.782342927314859 92.4295333280564 0.782342927314271 92.4295333280831 0.50133803833653 2.32561690718334 
! Gamma         0                0                0                0                
! Port Impedance         50               0                50               0                
98.1                           0.500299110378607 1.61421272728646 0.782793834839998 91.5265173109848 0.7827938348394  91.5265173110112 0.50041169310108 1.52692792519209 
! Gamma         0                0                0                0                
! Port Impedance         50               0                50               0                
98.2                           0.49923476950075 0.816085157321611 0.783314095970202 90.6222082830758 0.783314095969618 90.6222082831034 0.499345052667316 0.728214524787189 
! Gamma         0                0                0                0                
! Port Impedance         50               0                50               0                
98.3                           0.498029855020294 0.0178942136106145 0.783903260438809 89.7164416652771 0.783903260438232 89.7164416653053 0.498137802622554 -0.0705756488549799 
! Gamma         0                0                0                0                
! Port Impedance         50               0                50               0                
98.4                           0.49668402066482 -0.780407847654883 0.7845608232039  88.8090541330565 0.784560823203336 88.809054133085  0.496789597675782 -0.869490705600005 
! Gamma         0                0                0                0                
! Port Impedance         50               0                50               0                
98.5                           0.495196891707325 -1.57886411384175 0.785286223326727 87.8998837546105 0.785286223326166 87.8998837546387 0.495300064187154 -1.66857412305559 
! Gamma         0                0                0                0                
! Port Impedance         50               0                50               0                
98.6                           0.493568067703004 -2.37751261059084 0.786078842759649 86.9887701357363 0.786078842759099 86.9887701357647 0.493668802908236 -2.46786434334539 
! Gamma         0                0                0                0                
! Port Impedance         50               0                50               0                
98.7                           0.491797125440446 -3.17638587857147 0.786938005051412 86.075554571849  0.786938005050882 86.0755545718773 0.491895391936301 -3.26739435210978 
! Gamma         0                0                0                0                
! Port Impedance         50               0                50               0                
98.8                           0.489883622110615 -3.97551053030072 0.787862973978234 85.1600802075964 0.787862973977732 85.1600802076251 0.489979389886118 -4.06719123777963 
! Gamma         0                0                0                0                
! Port Impedance         50               0                50               0                
98.9                           0.487827098696886 -4.7749067849343 0.788852952110209 84.2421922045125 0.788852952109731 84.2421922045407 0.487920339282352 -4.86727572904987 
! Gamma         0                0                0                0                
! Port Impedance         50               0                50               0                
99                             0.485627083589436 -5.57458797877647 0.78990707932347 83.3217379171045 0.789907079323015 83.3217379171311 0.485717770175771 -5.66766170832836 
! Gamma         0                0                0                0                
! Port Impedance         50               0                50               0                
99.1                           0.483283096426677 -6.37456004909901 0.791024431269475 82.3985670777583 0.791024431269063 82.3985670777854 0.483371203985979 -6.4683556987644 
! Gamma         0                0                0                0                
! Port Impedance         50               0                50               0                
99.2                           0.480794652166524 -7.17482098864386 0.792204017814234 81.4725319908132 0.792204017813839 81.4725319908379 0.480880157573287 -7.26935632226655 
! Gamma         0                0                0                0                
! Port Impedance         50               0                50               0                
99.3                           0.478161265389528 -7.97536026795562 0.793444781460866 80.5434877360906 0.793444781460518 80.5434877361146 0.478244147541693 -8.07065372568702 
! Gamma         0                0                0                0                
! Port Impedance         50               0                50               0                
99.4                           0.475382454835556 -8.77615822243054 0.794745595770984 79.6112923821795 0.794745595770688 79.6112923822023 0.475462694774572 -8.87222897208347 
! Gamma         0                0                0                0                
! Port Impedance         50               0                50               0                
99.5                           0.472457748175056 -9.57718540063689 0.796105263800459 78.6758072096505 0.796105263800178 78.6758072096689 0.472535329203983 -9.6740533936634 
! Gamma         0                0                0                0                
! Port Impedance         50               0                50               0                
99.6                           0.469386687015179 -10.3784018701256 0.79752251656756 77.7368969443884 0.797522516567323 77.7368969444036 0.469461594813775 -10.4760879026586 
! Gamma         0                0                0                0                
! Port Impedance         50               0                50               0                
99.7                           0.466168832140359 -11.1797564765115 0.798996011572358 76.7944300011525 0.798996011572189 76.7944300011658 0.466241054875929 -11.2782822559647 
! Gamma         0                0                0                0                
! Port Impedance         50               0                50               0                
99.8                           0.462803768985882 -11.9811860511355 0.800524331387251 75.8482787373741 0.800524331387156 75.8482787373847 0.4628732974186  -12.0805742689051 
! Gamma         0                0                0                0                
! Port Impedance         50               0                50               0                
99.9                           0.459291113342146 -12.7826145620598 0.802105982340582 74.8983197171744 0.802105982340537 74.8983197171804 0.459357940923365 -12.882888972925 
! Gamma         0                0                0                0                
! Port Impedance         50               0                50               0                
100                            0.455630517286182 -13.5839522024905 0.803739393316193 73.9444339854839 0.803739393316193 73.9444339854839 0.455694640248136 -13.685137711378 
! Gamma         -0               -0               -0               -0               
! Port Impedance         50               0                50               0                
