! Touchstone file exported from HFSS 2026.1.0
!        File:           C:/ffzhzh/LocalFiles/Ansys_Project_Files/temp_train_TSV_RDL_137_1783641219_29156.aedt
!        Generated:      08:02:22 AM Jul 10, 2026
!        Design:         TSV_RDL
!        Project:        temp_train_TSV_RDL_137_1783641219_29156
!
! Variables:
!        h_bsmrdl = 4.45um
!        h_ox = 20um
!        h_rdl = 5um
!        h_sub = 74.89um
!        h_tmrdl = 4.91um
!        h_tsv = 74.89um
!        h_via = 3um
!        l_bsmrdl = 356.46um
!        l_sub = 3166.72um
!        l_tmrdl = 398.58um
!        m_sub = 200um
!        pitch = 55.68um
!        r_tsv = 9.06um
!        s_tmrdl = 10um
!        w_bsmrdl = 11.31um
!        w_sub = 500um
!        w_tmrdl = 23.03um
!        x_tsv_center1 = 410.095um
!        x_tsv_center2 = 777.865um
!        x_tsv_center3 = 1199.475um
!        x_tsv_center4 = 1567.245um
!        x_tsv_center5 = 1988.855um
!        x_tsv_center6 = 2356.625um
!
# GHz S MA R 50.000000
! Terminal data exported
! Port[1] = TM_RDL1_1_T1
! Port[2] = TM_RDL5_1_T1
0.1                            0.0193691586326178 42.593931474962  0.985937079865825 -1.23638365856986 0.985937079865824 -1.23638365856986 0.019369152793246 42.5938918114853 
! Gamma         0                0                0                0                
! Port Impedance         50               0                50               0                
0.2                            0.0301801473289521 58.9935713079252 0.985222853520318 -2.45441356470628 0.985222853520317 -2.45441356470622 0.0301801340966387 58.993513718646  
! Gamma         0                0                0                0                
! Port Impedance         50               0                50               0                
0.3                            0.0420361774274933 65.6445166275713 0.984372367273294 -3.65671574134545 0.984372367273293 -3.65671574134533 0.042036168930047 65.6444436945724 
! Gamma         0                0                0                0                
! Port Impedance         50               0                50               0                
0.4                            0.0541602224226021 68.8432330836019 0.983449647120505 -4.85097131664645 0.983449647120505 -4.85097131664632 0.0541602341690902 68.8431326271546 
! Gamma         0                0                0                0                
! Port Impedance         50               0                50               0                
0.5                            0.0663858231467096 70.4665289840737 0.982434133397885 -6.0410460887349 0.982434133397886 -6.04104608873477 0.0663858658688035 70.4663903303799 
! Gamma         0                0                0                0                
! Port Impedance         50               0                50               0                
0.6                            0.0786469595638111 71.23225505716   0.981300332048367 -7.2280470785572 0.981300332048369 -7.2280470785571 0.0786470398995053 71.2320718814762 
! Gamma         0                0                0                0                
! Port Impedance         50               0                50               0                
0.7                            0.0909023527175422 71.4779021352179 0.980033058174199 -8.41197197898979 0.980033058174201 -8.41197197898971 0.0909024751711622 71.477671065149  
! Gamma         0                0                0                0                
! Port Impedance         50               0                50               0                
0.8                            0.103121909452678 71.3852759237659 0.97862570863844 -9.592465738263  0.978625708638442 -9.59246573826295 0.103122077596036 71.3849951689251 
! Gamma         0                0                0                0                
! Port Impedance         50               0                50               0                
0.9                            0.115282581357183 71.0615917467698 0.977077014296024 -10.7690973044384 0.977077014296026 -10.7690973044384 0.115282798393848 71.0612603031308 
! Gamma         0                0                0                0                
! Port Impedance         50               0                50               0                
1                              0.127366207410061 70.5742633153029 0.975388786176908 -11.9414505915588 0.97538878617691 -11.9414505915588 0.127366476410713 70.5738805599725 
! Gamma         0                0                0                0                
! Port Impedance         50               0                50               0                
1.1                            0.13935812330521 69.9677759770502 0.973564572380928 -13.1091490395486 0.97356457238093 -13.1091490395486 0.139358447297451 69.9673414705109 
! Gamma         0                0                0                0                
! Port Impedance         50               0                50               0                
1.2                            0.151246214947142 69.2726261675408 0.971608888606879 -14.2718574511128 0.971608888606881 -14.2718574511128 0.15124659694744 69.2721395581766 
! Gamma         0                0                0                0                
! Port Impedance         50               0                50               0                
1.3                            0.163020262700993 68.5103824167776 0.969526783400274 -15.4292768924989 0.969526783400275 -15.4292768924989 0.163020705726818 68.5098433943681 
! Gamma         0                0                0                0                
! Port Impedance         50               0                50               0                
1.4                            0.174671482172382 67.6967036938551 0.96732359586219 -16.581138350679 0.967323595862191 -16.5811383506791 0.174671989249433 67.696111966149  
! Gamma         0                0                0                0                
! Port Impedance         50               0                50               0                
1.5                            0.186192200181611 66.8432171167501 0.965004823644603 -17.7271971050757 0.965004823644604 -17.7271971050758 0.186192774350889 66.8425723968045 
! Gamma         0                0                0                0                
! Port Impedance         50               0                50               0                
1.6                            0.197575625218674 65.9587276692906 0.962576053462504 -18.8672283526537 0.962576053462505 -18.8672283526538 0.197576269543998 65.9580296678317 
! Gamma         0                0                0                0                
! Port Impedance         50               0                50               0                
1.7                            0.208815684782549 65.0500208582612 0.960042926038032 -20.0010240845401 0.960042926038032 -20.0010240845401 0.208816402357727 65.0492692784559 
! Gamma         0                0                0                0                
! Port Impedance         50               0                50               0                
1.8                            0.21990691043412 64.1224088047379 0.957411118914053 -21.1283910214224 0.957411118914053 -21.1283910214225 0.219907704388806 64.1216033382375 
! Gamma         0                0                0                0                
! Port Impedance         50               0                50               0                
1.9                            0.230844356930659 63.1801098772098 0.954686337484375 -22.2491493683816 0.954686337484374 -22.2491493683816 0.230845230434137 63.1792502009904 
! Gamma         0                0                0                0                
! Port Impedance         50               0                50               0                
2                              0.241623545572108 62.2265175977875 0.95187430879626 -23.3631321625445 0.951874308796259 -23.3631321625445 0.241624501834634 62.2256033715965 
! Gamma         0                0                0                0                
! Port Impedance         50               0                50               0                
2.1                            0.252240424536029 61.2643942828915 0.948980775251123 -24.4701850217043 0.948980775251123 -24.4701850217043 0.252241466807653 61.2634251472193 
! Gamma         0                0                0                0                
! Port Impedance         50               0                50               0                
2.2                            0.262691340896517 60.2960125504547 0.946011486880347 -25.5701661419108 0.946011486880346 -25.5701661419108 0.262692472463545 60.2949881249817 
! Gamma         0                0                0                0                
! Port Impedance         50               0                50               0                
2.3                            0.272973020443174 59.3232601161182 0.942972191782468 -26.6629464294205 0.942972191782467 -26.6629464294205 0.272974244622593 59.3221799985911 
! Gamma         0                0                0                0                
! Port Impedance         50               0                50               0                
2.4                            0.283082552481462 58.3477183599668 0.939868624813436 -27.7484096843261 0.939868624813436 -27.7484096843261 0.283083872613714 58.3465821254544 
! Gamma         0                0                0                0                
! Port Impedance         50               0                50               0                
2.5                            0.293017377597956 57.3707219086078 0.93670649487597 -28.8264527789251 0.93670649487597 -28.8264527789251 0.293018797038463 57.3695291090805 
! Gamma         0                0                0                0                
! Port Impedance         50               0                50               0                
2.6                            0.302775276977226 56.3934043153202 0.93349147125613 -29.8969857938029 0.933491471256129 -29.8969857938029 0.302776799087076 56.392154479498  
! Gamma         0                0                0                0                
! Port Impedance         50               0                50               0                
2.7                            0.312354362308065 55.4167334515707 0.930229169468649 -30.9599320895016 0.930229169468649 -30.9599320895015 0.312355990444202 55.4154260849857 
! Gamma         0                0                0                0                
! Port Impedance         50               0                50               0                
2.8                            0.321753065650725 54.4415392090436 0.926925137037573 -32.015228302452 0.926925137037573 -32.0152283024519 0.321754803155965 54.4401737942663 
! Gamma         0                0                0                0                
! Port Impedance         50               0                50               0                
2.9                            0.330970128881256 53.4685354017753 0.92358483958047 -33.0628242614525 0.92358483958047 -33.0628242614524 0.330971979074375 53.467111398761  
! Gamma         0                0                0                0                
! Port Impedance         50               0                50               0                
3                              0.340004592505041 52.4983372554314 0.920213647497998 -34.1026828261413 0.920213647497998 -34.1026828261412 0.340006558671151 52.4968541019481 
! Gamma         0                0                0                0                
! Port Impedance         50               0                50               0                
3.1                            0.348855783755996 51.5314755109167 0.916816823504474 -35.134779652265 0.916816823504474 -35.1347796522649 0.348857869137369 51.5299326230227 
! Gamma         0                0                0                0                
! Port Impedance         50               0                50               0                
3.2                            0.357523303983408 50.5684079092701 0.913399511174034 -36.1591028905837 0.913399511174035 -36.1591028905836 0.357525511770853 50.5668046818144 
! Gamma         0                0                0                0                
! Port Impedance         50               0                50               0                
3.3                            0.366007015385024 49.6095286348953 0.909966724623105 -37.1756528273545 0.909966724623106 -37.1756528273545 0.366009348709917 49.6078644420211 
! Gamma         0                0                0                0                
! Port Impedance         50               0                50               0                
3.4                            0.374307027180488 48.6551761544512 0.906523339403801 -38.1844414747815 0.906523339403801 -38.1844414747815 0.374309489107494 48.6534503500844 
! Gamma         0                0                0                0                
! Port Impedance         50               0                50               0                
3.5                            0.382423681339193 47.7056397851255 0.903074084644544 -39.1854921198249 0.903074084644544 -39.1854921198248 0.382426274859711 47.7038517034375 
! Gamma         0                0                0                0                
! Port Impedance         50               0                50               0                
3.6                            0.390357537985597 46.7611652486511 0.899623536442892 -40.1788388394723 0.899623536442892 -40.1788388394723 0.390360266011937 46.7593142044857 
! Gamma         0                0                0                0                
! Port Impedance         50               0                50               0                
3.7                            0.398109360606273 45.8219594092655 0.896176112490627 -41.1645259901032 0.896176112490628 -41.1645259901031 0.398112225966549 45.8200446985227 
! Gamma         0                0                0                0                
! Port Impedance         50               0                50               0                
3.8                            0.405680101178863 44.8881943498097 0.892736067891681 -42.1426076779946 0.892736067891681 -42.1426076779945 0.405683106612587 44.8862152497841 
! Gamma         0                0                0                0                
! Port Impedance         50               0                50               0                
3.9                            0.413070885335495 43.9600109066783 0.88930749211872 -43.1131472173849 0.88930749211872 -43.1131472173849 0.413074033489839 43.9579666763474 
! Gamma         0                0                0                0                
! Port Impedance         50               0                50               0                
4                              0.420282997663507 43.0375217586921 0.885894307043423 -44.0762165818565 0.885894307043424 -44.0762165818565 0.420286291090197 43.0354116389544 
! Gamma         0                0                0                0                
! Port Impedance         50               0                50               0                
4.1                            0.427317867235319 42.1208141452383 0.882500265967954 -45.0318958541534 0.882500265967954 -45.0318958541534 0.427321308388114 42.1186373591003 
! Gamma         0                0                0                0                
! Port Impedance         50               0                50               0                
4.2                            0.434177053447883 41.2099522737523 0.879128953580389 -45.980272678927 0.87912895358039 -45.9802726789271 0.434180644680602 41.2077080264651 
! Gamma         0                0                0                0                
! Port Impedance         50               0                50               0                
4.3                            0.440862232240631 40.3049794647443 0.875783786754326 -46.9214417223097 0.875783786754326 -46.9214417223097 0.440865975805674 40.3026669438916 
! Gamma         0                0                0                0                
! Port Impedance         50               0                50               0                
4.4                            0.447375182749759 39.4059200732939 0.872468016112144 -47.8555041416657 0.872468016112145 -47.8555041416657 0.447379080797083 39.4035384488312 
! Gamma         0                0                0                0                
! Port Impedance         50               0                50               0                
4.5                            0.4537177744461  38.5127812186455 0.869184728272153 -48.7825670683556 0.869184728272153 -48.7825670683557 0.453721829022596 38.5103296428939 
! Gamma         0                0                0                0                
! Port Impedance         50               0                50               0                
4.6                            0.459891954794002 37.6255543477909 0.865936848701681 -49.7027431058836 0.865936848701681 -49.7027431058837 0.459896167843238 37.6230319553873 
! Gamma         0                0                0                0                
! Port Impedance         50               0                50               0                
4.7                            0.465899737459598 36.7442166543641 0.862727145100933 -50.6161498453679 0.862727145100934 -50.6161498453679 0.465904110821872 36.7416225621679 
! Gamma         0                0                0                0                
! Port Impedance         50               0                50               0                
4.8                            0.471743191088646 35.8687323705409 0.859558231245831 -51.5229093998918 0.859558231245832 -51.5229093998918 0.471747726501327 35.8660656775022 
! Gamma         0                0                0                0                
! Port Impedance         50               0                50               0                
4.9                            0.47742442866681 34.9990539467359 0.856432571221932 -52.4231479589453 0.856432571221932 -52.4231479589454 0.477429127764905 34.9963137337249 
! Gamma         0                0                0                0                
! Port Impedance         50               0                50               0                
5                              0.48294559746871 34.1351231315474 0.853352483985746 -53.3169953638594 0.853352483985746 -53.3169953638595 0.482950461785641 34.1323084611477 
! Gamma         0                0                0                0                
! Port Impedance         50               0                50               0                
5.1                            0.488308869596432 33.2768719625183 0.85032014819417 -54.2045847048596 0.85032014819417 -54.2045847048597 0.488313900564986 33.2739818787865 
! Gamma         0                0                0                0                
! Port Impedance         50               0                50               0                
5.2                            0.493516433103257 32.4242236767464 0.84733760724726 -55.0860519401289 0.84733760724726 -55.086051940129 0.493521632056664 32.4212572049389 
! Gamma         0                0                0                0                
! Port Impedance         50               0                50               0                
5.3                            0.498570483694146 31.5770935491293 0.844406774494088 -55.9615355370532 0.844406774494089 -55.9615355370533 0.49857585186728 31.5740496953979 
! Gamma         0                0                0                0                
! Port Impedance         50               0                50               0                
5.4                            0.503473216991038 30.7353896649999 0.841529438555891 -56.8311761356461 0.841529438555891 -56.8311761356462 0.503478755521703 30.7322674160592 
! Gamma         0                0                0                0                
! Port Impedance         50               0                50               0                
5.5                            0.508226821348072 29.8990136330667 0.83870726872504 -57.6951162339884 0.83870726872504 -57.6951162339885 0.508232531278348 29.8958119558321 
! Gamma         0                0                0                0                
! Port Impedance         50               0                50               0                
5.6                            0.512833471199481 29.0678612438657 0.835941820402597 -58.5534998953848 0.835941820402597 -58.5534998953849 0.512839353477122 29.0645790850655 
! Gamma         0                0                0                0                
! Port Impedance         50               0                50               0                
5.7                            0.51729532092107 28.2418230783469 0.833234540541177 -59.4064724768292 0.833234540541177 -59.4064724768293 0.517301376400928 28.2384593641084 
! Gamma         0                0                0                0                
! Port Impedance         50               0                50               0                
5.8                            0.521614499184767 27.4207850707238 0.830586773063678 -60.2541803782743 0.830586773063677 -60.2541803782744 0.521620728630232 27.4173387061342 
! Gamma         0                0                0                0                
! Port Impedance         50               0                50               0                
5.9                            0.525793103784721 26.6046290292975 0.827999764231978 -61.0967708121256 0.827999764231978 -61.0967708121257 0.52579950786916 26.6010988979411 
! Gamma         0                0                0                0                
! Port Impedance         50               0                50               0                
6                              0.529833196912774 25.7932331186095 0.82547466794306 -61.9343915923195 0.82547466794306 -61.9343915923196 0.529839776220965 25.7896180820806 
! Gamma         0                0                0                0                
! Port Impedance         50               0                50               0                
6.1                            0.533736800860771 24.986472305974  0.823012550933099 -62.7671909422967 0.823012550933098 -62.7671909422968 0.533743555890315 24.9827712033676 
! Gamma         0                0                0                0                
! Port Impedance         50               0                50               0                
6.2                            0.537505894127081 24.1842187751748 0.820614397872925 -63.5953173211476 0.820614397872924 -63.5953173211477 0.537512825289796 24.1804304225539 
! Gamma         0                0                0                0                
! Port Impedance         50               0                50               0                
6.3                            0.541142407904852 23.386342309883  0.818281116340886 -64.4189192671813 0.818281116340886 -64.4189192671814 0.541149515528137 23.382465499723  
! Gamma         0                0                0                0                
! Port Impedance         50               0                50               0                
6.4                            0.544648222929847 22.5927106491486 0.816013541661521 -65.2381452581553 0.81601354166152 -65.2381452581554 0.544655507258009 22.5887441497596 
! Gamma         0                0                0                0                
! Port Impedance         50               0                50               0                
6.5                            0.548025166666196 21.8031898171428 0.813812441600625 -66.0531435873947 0.813812441600625 -66.0531435873948 0.548032627861752 21.7991323720687 
! Gamma         0                0                0                0                
! Port Impedance         50               0                50               0                
6.6                            0.551275010809045 21.0176444291676 0.811678520909257 -66.8640622550311 0.811678520909256 -66.8640622550312 0.551282648953981 21.0134947565624 
! Gamma         0                0                0                0                
! Port Impedance         50               0                50               0                
6.7                            0.554399469083801 20.2359379758096 0.809612425710953 -67.6710488735955 0.809612425710953 -67.6710488735956 0.554407284180806 20.2316947677901 
! Gamma         0                0                0                0                
! Port Impedance         50               0                50               0                
6.8                            0.557400195322517 19.457933086985  0.807614747728023 -68.4742505872118 0.807614747728023 -68.4742505872118 0.557408187296173 19.4535950089594 
! Gamma         0                0                0                0                
! Port Impedance         50               0                50               0                
6.9                            0.560278781798826 18.6834917775096 0.805686028344125 -69.2738140036526 0.805686028344125 -69.2738140036527 0.560286950496781 18.6790574674823 
! Gamma         0                0                0                0                
! Port Impedance         50               0                50               0                
7                              0.563036757803814 17.9124756757221 0.803826762501586 -70.0698851385368 0.803826762501586 -70.0698851385368 0.563045102997918 17.9079437435717 
! Gamma         0                0                0                0                
! Port Impedance         50               0                50               0                
7.1                            0.565675588446159 17.1447462365912 0.802037402432947 -70.8626093709704 0.802037402432947 -70.8626093709705 0.565684109833584 17.1401152633236 
! Gamma         0                0                0                0                
! Port Impedance         50               0                50               0                
7.2                            0.568196673660898 16.380164940653  0.800318361227141 -71.6521314099575 0.800318361227141 -71.6521314099575 0.568205370865241 16.3754334776259 
! Gamma         0                0                0                0                
! Port Impedance         50               0                50               0                
7.3                            0.570601347412186 15.6185934800395 0.798670016231508 -72.4385952709304 0.798670016231508 -72.4385952709305 0.570610219984556 15.6137600481591 
! Gamma         0                0                0                0                
! Port Impedance         50               0                50               0                
7.4                            0.572890877076419 14.8598939327892 0.797092712291472 -73.2221442617794 0.797092712291473 -73.2221442617794 0.57289992449652 14.8549570216767 
! Gamma         0                0                0                0                
! Port Impedance         50               0                50               0                
7.5                            0.575066462993116 14.1039289265574 0.795586764830292 -74.0029209777856 0.795586764830293 -74.0029209777857 0.575075684670333 14.0988869936837 
! Gamma         0                0                0                0                
! Port Impedance         50               0                50               0                
7.6                            0.57712923817196 13.3505617927817 0.794152462771721 -74.781067304894 0.794152462771722 -74.7810673048941 0.57713863344645 13.3454132625696 
! Gamma         0                0                0                0                
! Port Impedance         50               0                50               0                
7.7                            0.579080268145354 12.5996567122993 0.792790071308763 -75.5567244307862 0.792790071308764 -75.5567244307863 0.579089836289151 12.5943999751904 
! Gamma         0                0                0                0                
! Port Impedance         50               0                50               0                
7.8                            0.580920550956844 11.8510788533544 0.791499834522021 -76.3300328632482 0.791499834522023 -76.3300328632482 0.580930291174988 11.8457122648392 
! Gamma         0                0                0                0                
! Port Impedance         50               0                50               0                
7.9                            0.58265101727667 11.1046945028843 0.79028197785127 -77.1011324553497 0.790281977851272 -77.1011324553497 0.582660928708363 11.0992163824934 
! Gamma         0                0                0                0                
! Port Impedance         50               0                50               0                
8                              0.584272530636624 10.3603711919247 0.789136710424075 -77.8701624369859 0.789136710424077 -77.8701624369859 0.584282612356424 10.3547798221787 
! Gamma         0                0                0                0                
! Port Impedance         50               0                50               0                
8.1                            0.585785887777275 9.61797781592585 0.78806422724532 -78.6372614523548 0.788064227245322 -78.6372614523549 0.585796138796333 9.6122714412414  
! Gamma         0                0                0                0                
! Port Impedance         50               0                50               0                
8.2                            0.587191819101458 8.8773847507337  0.787064711251519 -79.4025676029735 0.787064711251522 -79.4025676029735 0.587202238368808 8.87156157628319 
! Gamma         0                0                0                0                
! Port Impedance         50               0                50               0                
8.3                            0.588490989228743 8.13846396494556 0.786138335233774 -80.1662184958604 0.786138335233776 -80.1662184958604 0.588501575632648 8.1325221554675  
! Gamma         0                0                0                0                
! Port Impedance         50               0                50               0                
8.4                            0.58968399764638 7.4010891293156  0.785285263633145 -80.9283512965372 0.785285263633147 -80.9283512965372 0.589694750015747 7.39502680787243 
! Gamma         0                0                0                0                
! Port Impedance         50               0                50               0                
8.5                            0.590771379452946 6.66513572384828 0.784505654212102 -81.6891027865264 0.784505654212105 -81.6891027865264 0.590782296558809 6.65895097052861 
! Gamma         0                0                0                0                
! Port Impedance         50               0                50               0                
8.6                            0.591753606191654 5.93048114318542 0.783799659605568 -82.4486094250445 0.783799659605571 -82.4486094250445 0.591764686748741 5.92417199374687 
! Gamma         0                0                0                0                
! Port Impedance         50               0                50               0                
8.7                            0.59263108677093 5.19700480086077 0.783167428754874 -83.207007414612 0.783167428754878 -83.2070074146121 0.59264232943931 5.19056924530974 
! Gamma         0                0                0                0                
! Port Impedance         50               0                50               0                
8.8                            0.593404168470523 4.46458823296632 0.782609108227775 -83.9644327703227 0.782609108227778 -83.9644327703227 0.59341557185734 4.4580242140706  
! Gamma         0                0                0                0                
! Port Impedance         50               0                50               0                
8.9                            0.594073138031987 3.73311520174628 0.782124843427384 -84.7210213925325 0.782124843427388 -84.7210213925325 0.594084700693298 3.72642061347607 
! Gamma         0                0                0                0                
! Port Impedance         50               0                50               0                
9                              0.594638222832985 3.00247179960774 0.781714779692692 -85.4769091427495 0.781714779692695 -85.4769091427495 0.594649943275681 2.99564448550054 
! Gamma         0                0                0                0                
! Port Impedance         50               0                50               0                
9.1                            0.595099592145337 2.27254655401142 0.781379063292995 -86.2322319225195 0.781379063292998 -86.2322319225195 0.595111468829176 2.26558430545575 
! Gamma         0                0                0                0                
! Port Impedance         50               0                50               0                
9.2                            0.595457358477269 1.54323053368132 0.781117842318318 -86.9871257551216 0.781117842318321 -86.9871257551217 0.595469389817004 1.53613108811393 
! Gamma         0                0                0                0                
! Port Impedance         50               0                50               0                
9.3                            0.595711579000753 0.8144174565484  0.780931267467557 -87.7417268699   0.78093126746756 -87.7417268699   0.595723763368361 0.807178495559407 
! Gamma         0                0                0                0                
! Port Impedance         50               0                50               0                
9.4                            0.595862257065246 0.0860037998209024 0.780819492735765 -88.4961717890715 0.780819492735768 -88.4961717890715 0.595874592792266 0.0786229471606895 
! Gamma         0                0                0                0                
! Port Impedance         50               0                50               0                
9.5                            0.595909343799528 -0.64211108744844 0.780782676001626 -89.2505974168633 0.780782676001629 -89.2505974168634 0.595921829179485 -0.649636267966897 
! Gamma         0                0                0                0                
! Port Impedance         50               0                50               0                
9.6                            0.59585273980364 -1.37002486894916 0.780820979515839 -90.0051411308414 0.780820979515841 -90.0051411308414 0.595865373094575 -1.3776968756595 
! Gamma         0                0                0                0                
! Port Impedance         50               0                50               0                
9.7                            0.595692296933274 -2.09783210252565 0.780934570290705 -90.7599408753036 0.780934570290707 -90.7599408753037 0.595705076360353 -2.10565349823613 
! Gamma         0                0                0                0                
! Port Impedance         50               0                50               0                
9.8                            0.595427820179156 -2.82562411810792 0.781123620390849 -91.5151352566187 0.781123620390851 -91.5151352566187 0.595440743937367 -2.8335975325561 
! Gamma         0                0                0                0                
! Port Impedance         50               0                50               0                
9.9                            0.595059069644241 -3.55348889187287 0.781388307124587 -92.2708636403952 0.781388307124588 -92.2708636403953 0.595072135901156 -3.5616170243152 
! Gamma         0                0                0                0                
! Port Impedance         50               0                50               0                
10                             0.594585762621641 -4.28151091636821 0.781728813135   -93.0272662503777 0.781728813135001 -93.0272662503777 0.59459896952024 -4.28979653831346 
! Gamma         0                0                0                0                
! Port Impedance         50               0                50               0                
10.1                           0.594103307191208 -5.01275414174689 0.782107478164823 -93.7854749402274 0.782107478164824 -93.7854749402273 0.594115462324418 -5.02128492808659 
! Gamma         0                0                0                0                
! Port Impedance         50               0                50               0                
10.2                           0.593514079064729 -5.74491124742912 0.782559336381723 -94.5446524062118 0.782559336381724 -94.5446524062116 0.59352521496982 -5.7536850998512 
! Gamma         0                0                0                0                
! Port Impedance         50               0                50               0                
10.3                           0.592817719813918 -6.47809947379845 0.783084190077577 -95.3049422240913 0.783084190077579 -95.3049422240912 0.592827869231954 -6.48711454568707 
! Gamma         0                0                0                0                
! Port Impedance         50               0                50               0                
10.4                           0.592013813266427 -7.21243605157382 0.783681821994855 -96.0664877967506 0.783681821994857 -96.0664877967504 0.592023009110888 -7.2216907458939 
! Gamma         0                0                0                0                
! Port Impedance         50               0                50               0                
10.5                           0.591101885706891 -7.94803814575225 0.784351994541801 -96.8294323558199 0.784351994541803 -96.8294323558197 0.591110161033858 -7.95753111344512 
! Gamma         0                0                0                0                
! Port Impedance         50               0                50               0                
10.6                           0.590081406121388 -8.68502279687592 0.785094448901418 -97.5939189611465 0.785094448901423 -97.5939189611462 0.590088794101141 -8.69475293576922 
! Gamma         0                0                0                0                
! Port Impedance         50               0                50               0                
10.7                           0.588951786488785 -9.4235068591125 0.78590890403409 -98.360090497841 0.785908904034095 -98.3600904978408 0.588958320378688 -9.43347331334976 
! Gamma         0                0                0                0                
! Port Impedance         50               0                50               0                
10.8                           0.587712382122904 -10.1636069346219 0.78679505557353 -99.128089670624 0.786795055573536 -99.1280896706238 0.587718095241447 -10.1738090946192 
! Gamma         0                0                0                0                
! Port Impedance         50               0                50               0                
10.9                           0.586362492069939 -10.9054393036676 0.787752574615854 -99.8980589951891 0.787752574615859 -99.8980589951888 0.586367417771789 -10.9158768066067 
! Gamma         0                0                0                0                
! Port Impedance         50               0                50               0                
11                             0.584901359565979 -11.6491198499083 0.788781106401516 -100.670140786295 0.788781106401524 -100.670140786295 0.584905531217926 -11.6597925807782 
! Gamma         0                0                0                0                
! Port Impedance         50               0                50               0                
11.1                           0.583328172560038 -12.3947639802866 0.789880268889956 -101.444477142295 0.789880268889965 -101.444477142295 0.583331623517691 -12.4056720734873 
! Gamma         0                0                0                0                
! Port Impedance         50               0                50               0                
11.2                           0.581642064308424 -13.1424865389017 0.791049651226783 -102.221209925796 0.791049651226791 -102.221209925796 0.581644827893534 -13.153630380427 
! Gamma         0                0                0                0                
! Port Impedance         50               0                50               0                
11.3                           0.579842114046832 -13.8924017142281 0.792288812103533 -103.000480740153 0.792288812103541 -103.000480740153 0.579844223525103 -13.9037819444472 
! Gamma         0                0                0                0                
! Port Impedance         50               0                50               0                
11.4                           0.577927347747004 -14.6446229390081 0.793597278010119 -103.782430901471 0.793597278010127 -103.782430901471 0.57792883630627 -14.6562404560676 
! Gamma         0                0                0                0                
! Port Impedance         50               0                50               0                
11.5                           0.575896738965346 -15.399262782111 0.794974541380258 -104.567201405801 0.794974541380267 -104.567201405801 0.575897639693979 -15.4111187459822 
! Gamma         0                0                0                0                
! Port Impedance         50               0                50               0                
11.6                           0.573749209791388 -16.1564328316104 0.796420058630404 -105.354932891204 0.796420058630414 -105.354932891203 0.5737495556568  -16.1685286688124 
! Gamma         0                0                0                0                
! Port Impedance         50               0                50               0                
11.7                           0.571483631904493 -16.9162435682901 0.797933248092976 -106.145765594342 0.797933248092986 -106.145765594342 0.571483455731608 -16.9285809773184 
! Gamma         0                0                0                0                
! Port Impedance         50               0                50               0                
11.8                           0.569098827747735 -17.6788042287358 0.799513487844947 -106.939839301265 0.799513487844959 -106.939839301264 0.569098162197299 -17.6913851862354 
! Gamma         0                0                0                0                
! Port Impedance         50               0                50               0                
11.9                           0.5665935718284  -18.4442226571197 0.801160113433263 -107.737293292031 0.801160113433274 -107.737293292031 0.566592449374986 -18.4570494248408 
! Gamma         0                0                0                0                
! Port Impedance         50               0                50               0                
12                             0.563966592155046 -19.2126051447202 0.802872415498931 -108.538266278831 0.802872415498942 -108.53826627883 0.563965045064623 -19.2256802773037 
! Gamma         0                0                0                0                
! Port Impedance         50               0                50               0                
12.1                           0.56121657182157 -19.9840562561572 0.804649637302125 -109.342896337234 0.804649637302136 -109.342896337234 0.561214632128514 -19.9973826097997 
! Gamma         0                0                0                0                
! Port Impedance         50               0                50               0                
12.2                           0.55834215074923 -20.7586786412429 0.806490972151174 -110.151320830222 0.806490972151187 -110.151320830221 0.558339850232617 -20.7722593832979 
! Gamma         0                0                0                0                
! Port Impedance         50               0                50               0                
12.3                           0.555341927598024 -21.5365728312703 0.808395560738887 -110.963676324618 0.808395560738899 -110.963676324618 0.55533929775708 -21.5504114508474 
! Gamma         0                0                0                0                
! Port Impedance         50               0                50               0                
12.4                           0.552214461859254 -22.3178370184645 0.810362488390361 -111.780098499584 0.810362488390374 -111.780098499584 0.552211533887829 -22.3319373380985 
! Gamma         0                0                0                0                
! Port Impedance         50               0                50               0                
12.5                           0.548958276141584 -23.1025668172219 0.812390782227161 -112.600722046786 0.812390782227175 -112.600722046785 0.54895508090149 -23.1169330056865 
! Gamma         0                0                0                0                
! Port Impedance         50               0                50               0                
12.6                           0.545571858663177 -23.8908550056404 0.814479408253545 -113.425680561893 0.814479408253559 -113.425680561892 0.545568426656266 -23.9054915919963 
! Gamma         0                0                0                0                
! Port Impedance         50               0                50               0                
12.7                           0.542053665962944 -24.6827912457188 0.81662726837136 -114.255106427045 0.816627268371375 -114.255106427045 0.542050027301763 -24.6977031346891 
! Gamma         0                0                0                0                
! Port Impedance         50               0                50               0                
12.8                           0.538402125844109 -25.4784617804485 0.818833197331161 -115.089130683943 0.818833197331175 -115.089130683943 0.538398310221007 -25.4936542692318 
! Gamma         0                0                0                0                
! Port Impedance         50               0                50               0                
12.9                           0.534615640563584 -26.2779491058569 0.821095959628183 -115.927882897216 0.821095959628198 -115.927882897216 0.534611677218102 -26.2934279024951 
! Gamma         0                0                0                0                
! Port Impedance         50               0                50               0                
13                             0.530692590280772 -27.0813316158673 0.823414246353002 -116.771491007755 0.823414246353017 -116.771491007755 0.530688507965182 -27.0971028593032 
! Gamma         0                0                0                0                
! Port Impedance         50               0                50               0                
13.1                           0.526631336779444 -27.8886832176229 0.82578667200783 -117.620081175698 0.825786672007843 -117.620081175698 0.526627163722272 -27.9047534995966 
! Gamma         0                0                0                0                
! Port Impedance         50               0                50               0                
13.2                           0.522430227476358 -28.7000729146713 0.828211771300836 -118.473777612768 0.82821177130085 -118.473777612768 0.522425991343746 -28.716449303622 
! Gamma         0                0                0                0                
! Port Impedance         50               0                50               0                
13.3                           0.518087599730071 -29.5155643551161 0.830687995932204 -119.332702403732 0.830687995932218 -119.332702403732 0.518083327584823 -29.5322544222771 
! Gamma         0                0                0                0                
! Port Impedance         50               0                50               0                
13.4                           0.513601785463216 -30.3352153415148 0.833213711387156 -120.196975316709 0.833213711387171 -120.196975316709 0.513597503721351 -30.3522271894102 
! Gamma         0                0                0                0                
! Port Impedance         50               0                50               0                
13.5                           0.508971116111016 -31.1590772989046 0.835787193752716 -121.066713602171 0.83578719375273 -121.066713602171 0.508966850495694 -31.1764195924873 
! Gamma         0                0                0                0                
! Port Impedance         50               0                50               0                
13.6                           0.50419392790835 -31.9871946969084 0.838406626576622 -121.942031780442 0.838406626576637 -121.942031780442 0.504189703400979 -32.0048766976014 
! Gamma         0                0                0                0                
! Port Impedance         50               0                50               0                
13.7                           0.499268567526921 -32.8196044213317 0.841070097788498 -122.823041417617 0.841070097788513 -122.823041417617 0.499264408315288 -32.8376360242758 
! Gamma         0                0                0                0                
! Port Impedance         50               0                50               0                
13.8                           0.494193398073195 -33.6563350900592 0.843775596705135 -123.709850889813 0.843775596705149 -123.709850889813 0.494189327496448 -33.6747268649059 
! Gamma         0                0                0                0                
! Port Impedance         50               0                50               0                
13.9                           0.488966805456743 -34.4974063073442 0.84652101114351 -124.60256513578 0.846521011143524 -124.60256513578 0.488962845947033 -34.5161695429783 
! Gamma         0                0                0                0                
! Port Impedance         50               0                50               0                
14                             0.483587205137274 -35.3428278497276 0.849304124667029 -125.501285397914 0.849304124667043 -125.501285397914 0.483583378157877 -35.3619746033548 
! Gamma         0                0                0                0                
! Port Impedance         50               0                50               0                
14.1                           0.478053049257251 -36.1925987758262 0.852122613992262 -126.406108951829 0.852122613992275 -126.406108951829 0.478049375236964 -36.2121419269281 
! Gamma         0                0                0                0                
! Port Impedance         50               0                50               0                
14.2                           0.47236283416519 -37.0467064510519 0.85497404658528 -127.317128824699 0.854974046585292 -127.317128824699 0.472359332428792 -37.0666597607672 
! Gamma         0                0                0                0                
! Port Impedance         50               0                50               0                
14.3                           0.466515108332861 -37.9051254768842 0.857855878478505 -128.23443350268 0.857855878478518 -128.23443350268 0.466511797027414 -37.925503653474 
! Gamma         0                0                0                0                
! Port Impedance         50               0                50               0                
14.4                           0.460508480667437 -38.7678165126585 0.860765452340694 -129.15810662782 0.860765452340707 -129.15810662782 0.460505376684178 -38.7886352837923 
! Gamma         0                0                0                0                
! Port Impedance         50               0                50               0                
14.5                           0.454341629217264 -39.6347249757899 0.863699995834323 -130.08822668496 0.863699995834335 -130.08822668496 0.454338748108806 -39.6560011685111 
! Gamma         0                0                0                0                
! Port Impedance         50               0                50               0                
14.6                           0.448013310267277 -40.5057796039184 0.866656620296172 -131.02486667925 0.866656620296184 -131.02486667925 0.448010666159823 -40.5275312332744 
! Gamma         0                0                0                0                
! Port Impedance         50               0                50               0                
14.7                           0.441522367817361 -41.380890859538 0.869632319778295 -131.968093805019 0.869632319778307 -131.96809380502 0.441519973317584 -41.4031372270139 
! Gamma         0                0                0                0                
! Port Impedance         50               0                50               0                
14.8                           0.434867743433873 -42.2599491540971 0.872623970487695 -132.917969106865 0.872623970487707 -132.917969106866 0.434865609530062 -42.2827109571764 
! Gamma         0                0                0                0                
! Port Impedance         50               0                50               0                
14.9                           0.428048486461529 -43.1428228642565 0.875628330664022 -133.87454713396 0.875628330664033 -133.87454713396 0.428046622418527 -43.1661223186436 
! Gamma         0                0                0                0                
! Port Impedance         50               0                50               0                
15                             0.421063764579527 -44.0293561076965 0.878642040935238 -134.837875588714 0.878642040935248 -134.837875588714 0.421062177826941 -44.0532170840016 
! Gamma         0                0                0                0                
! Port Impedance         50               0                50               0                
15.1                           0.413912874682601 -44.9193662394292 0.881661625191562 -135.807994971089 0.881661625191572 -135.807994971089 0.413911570695604 -44.9438144164064 
! Gamma         0                0                0                0                
! Port Impedance         50               0                50               0                
15.2                           0.406595254064493 -45.8126410216149 0.884683492017964 -136.784938219974 0.884683492017974 -136.784938219974 0.40659423623648 -45.8377040584357 
! Gamma         0                0                0                0                
! Port Impedance         50               0                50               0                
15.3                           0.399110491878281 -46.7089354100795 0.887703936725038 -137.768730353232 0.887703936725047 -137.768730353232 0.399109761384411 -46.7346431405453 
! Gamma         0                0                0                0                
! Port Impedance         50               0                50               0                
15.4                           0.391458340845304 -47.6079678885667 0.890719144017168 -138.759388108145 0.890719144017177 -138.759388108146 0.391457896495823 -47.6343525407136 
! Gamma         0                0                0                0                
! Port Impedance         50               0                50               0                
15.5                           0.383638729182207 -48.5094162665811 0.893725191335482 -139.75691958416 0.89372519133549 -139.75691958416 0.383638567264139 -48.5365127117778 
! Gamma         0                0                0                0                
! Port Impedance         50               0                50               0                
15.6                           0.375651772714108 -49.4129128376695 0.896718052911054 -140.761323889971 0.896718052911061 -140.761323889971 0.375651886819636 -49.4407588741026 
! Gamma         0                0                0                0                
! Port Impedance         50               0                50               0                
15.7                           0.367497787141434 -50.3180387710648 0.899693604561292 -141.772590797161 0.899693604561299 -141.772590797161 0.367498167980872 -50.3466754474849 
! Gamma         0                0                0                0                
! Port Impedance         50               0                50               0                
15.8                           0.359177300428896 -51.2243175792604 0.902647629259143 -142.790700402713 0.90264762925915 -142.790700402713 0.359177935625655 -51.2537895660606 
! Gamma         0                0                0                0                
! Port Impedance         50               0                50               0                
15.9                           0.350691065287907 -52.1312074654511 0.905575823500874 -143.815622802896 0.905575823500881 -143.815622802896 0.350691939152268 -52.1615634816463 
! Gamma         0                0                0                0                
! Port Impedance         50               0                50               0                
16                             0.342040071729153 -53.038092305198 0.90847380449359 -144.847317781106 0.908473804493597 -144.847317781106 0.342041165006835 -53.0693856117248 
! Gamma         0                0                0                0                
! Port Impedance         50               0                50               0                
16.1                           0.333225559670783 -53.9442709526498 0.91133711817829 -145.885734512389 0.911337118178296 -145.885734512389 0.3332268492613  -53.9765599247493 
! Gamma         0                0                0                0                
! Port Impedance         50               0                50               0                
16.2                           0.324249031601083 -54.8489444784177 0.914161248098292 -146.930811287437 0.914161248098297 -146.930811287437 0.324250490239645 -54.8822932727905 
! Gamma         0                0                0                0                
! Port Impedance         50               0                50               0                
16.3                           0.315112265313834 -55.751200837057 0.916941625116064 -147.98247525895 0.916941625116069 -147.98247525895 0.315113861208869 -55.7856801732386 
! Gamma         0                0                0                0                
! Port Impedance         50               0                50               0                
16.4                           0.305817326762234 -56.6499963179437 0.919673637974116 -149.040642213279 0.91967363797412 -149.040642213279 0.305819023178526 -56.6856843981236 
! Gamma         0                0                0                0                
! Port Impedance         50               0                50               0                
16.5                           0.296366583115902 -57.5441329411373 0.92235264468751 -150.105216370326 0.922352644687513 -150.105216370326 0.296368337890618 -57.5811165388186 
! Gamma         0                0                0                0                
! Port Impedance         50               0                50               0                
16.6                           0.28676271615937 -58.4322307012578 0.924973984746927 -151.176090214632 0.92497398474693 -151.176090214632 0.286764481134632 -58.470606457178 
! Gamma         0                0                0                0                
! Port Impedance         50               0                50               0                
16.7                           0.277008736245372 -59.3126932110527 0.92753299210202 -152.25314436059 0.927532992102023 -152.253144360591 0.277010456596368 -59.3525691853086 
! Gamma         0                0                0                0                
! Port Impedance         50               0                50               0                
16.8                           0.267107997120595 -60.183664813816 0.930025008885203 -153.336247454624 0.930025008885206 -153.336247454625 0.267109610551878 -60.2251623570264 
! Gamma         0                0                0                0                
! Port Impedance         50               0                50               0                
16.9                           0.257064212087782 -61.0429765635146 0.932445399826098 -154.425256117085 0.9324453998261  -154.425256117085 0.257065647862037 -61.0862325884235 
! Gamma         0                0                0                0                
! Port Impedance         50               0                50               0                
17                             0.24688147217484 -61.8880775288181 0.934789567296762 -155.520014926468 0.934789567296763 -155.520014926468 0.246882649926857 -61.9332472887745 
! Gamma         0                0                0                0                
! Port Impedance         50               0                50               0                
17.1                           0.236564267276795 -62.7159465339803 0.93705296691762 -156.620356448383 0.937052966917622 -156.620356448383 0.236565095549632 -62.7632070488308 
! Gamma         0                0                0                0                
! Port Impedance         50               0                50               0                
17.2                           0.226117511663864 -63.5229775077906 0.939231123644028 -157.726101311479 0.939231123644029 -157.726101311479 0.226117886082153 -63.5725318247224 
! Gamma         0                0                0                0                
! Port Impedance         50               0                50               0                
17.3                           0.215546575876739 -64.3048287614404 0.941319648243543 -158.837058332265 0.941319648243544 -158.837058332265 0.215546376841059 -64.3569113038888 
! Gamma         0                0                0                0                
! Port Impedance         50               0                50               0                
17.4                           0.204857327968447 -65.0562222611135 0.943314254064723 -159.953024690494 0.943314254064723 -159.953024690494 0.20485641771002 -65.1111056114234 
! Gamma         0                0                0                0                
! Port Impedance         50               0                50               0                
17.5                           0.194056188480643 -65.7706724923809 0.945210773989554 -161.073786156403 0.945210773989555 -161.073786156403 0.194054407250674 -65.8286760864001 
! Gamma         0                0                0                0                
! Port Impedance         50               0                50               0                
17.6                           0.183150205763331 -66.4401144815116 0.947005177453789 -162.199117370776 0.947005177453789 -162.199117370776 0.183147366834747 -66.5016158854913 
! Gamma         0                0                0                0                
! Port Impedance         50               0                50               0                
17.7                           0.172147161780057 -67.054384638203 0.948693587412649 -163.328782178343 0.948693587412648 -163.328782178343 0.172143044793313 -67.1198343610346 
! Gamma         0                0                0                0                
! Port Impedance         50               0                50               0                
17.8                           0.161055724305226 -67.6004822707443 0.950272297123748 -164.462534014654 0.950272297123748 -164.462534014654 0.161050066264046 -67.6704234859623 
! Gamma         0                0                0                0                
! Port Impedance         50               0                50               0                
17.9                           0.149885671092915 -68.0614965979315 0.951737786614846 -165.600116346062 0.951737786614845 -165.600116346062 0.149878153958435 -68.1365917860229 
! Gamma         0                0                0                0                
! Port Impedance         50               0                50               0                
18                             0.138648228340232 -68.4150102421663 0.953086738701338 -166.741263162002 0.953086738701337 -166.741263162002 0.138638461592213 -68.4960777329689 
! Gamma         0                0                0                0                
! Port Impedance         50               0                50               0                
18.1                           0.127356595778662 -68.6306593130031 0.954316054417358 -167.885699518275 0.954316054417357 -167.885699518275 0.127344091345507 -68.7187241887361 
! Gamma         0                0                0                0                
! Port Impedance         50               0                50               0                
18.2                           0.116026786659954 -68.666289792178 0.955422867725086 -169.03314212952 0.955422867725085 -169.03314212952 0.116010921958896 -68.7626558451816 
! Gamma         0                0                0                0                
! Port Impedance         50               0                50               0                
18.3                           0.104679019850944 -68.4616906251878 0.95640455936942 -170.18330000861 0.956404559369419 -170.18330000861 0.104658981740219 -68.5680432649465 
! Gamma         0                0                0                0                
! Port Impedance         50               0                50               0                
18.4                           0.0933401243225812 -67.9279679160881 0.957258769749638 -171.335875150195 0.957258769749637 -171.335875150195 0.0933148214038188 -68.0465217677865 
! Gamma         0                0                0                0                
! Port Impedance         50               0                50               0                
18.5                           0.0820478995447951 -66.9287131141467 0.957983410686002 -172.490563255162 0.957983410686   -172.490563255161 0.0820158202242652 -67.0624194477356 
! Gamma         0                0                0                0                
! Port Impedance         50               0                50               0                
18.6                           0.0708594900845411 -65.244949772105 0.958576675967443 -173.647054492348 0.958576675967442 -173.647054492348 0.0708184649412121 -65.3977624450832 
! Gamma         0                0                0                0                
! Port Impedance         50               0                50               0                
18.7                           0.0598685841040212 -62.5064671183069 0.959037050576447 -174.805034293425 0.959037050576445 -174.805034293424 0.0598153776836621 -62.6835625216422 
! Gamma         0                0                0                0                
! Port Impedance         50               0                50               0                
18.8                           0.0492434794764929 -58.0515150908936 0.959363318498831 -175.964184176486 0.959363318498829 -175.964184176486 0.0491730959617543 -58.2588656121377 
! Gamma         0                0                0                0                
! Port Impedance         50               0                50               0                
18.9                           0.039317558595463 -50.6424788284515 0.95955456903926 -177.124182593594 0.959554569039259 -177.124182593594 0.03922224093646 -50.8829540309141 
! Gamma         0                0                0                0                
! Port Impedance         50               0                50               0                
19                             0.0308079235131767 -38.0238641713064 0.959610201577739 -178.2847057972  0.959610201577738 -178.284705797199 0.0306771121634182 -38.2786057372695 
! Gamma         0                0                0                0                
! Port Impedance         50               0                50               0                
19.1                           0.0252182164926946 -17.3888267954181 0.959529928717827 -179.445428720182 0.959529928717826 -179.445428720182 0.0250472431123116 -17.5663686271681 
! Gamma         0                0                0                0                
! Port Impedance         50               0                50               0                
19.2                           0.0246344097983032 9.10934286343543 0.959313777793655 179.393974135922 0.959313777793653 179.393974135922 0.0244482620789844 9.13371149157059 
! Gamma         0                0                0                0                
! Port Impedance         50               0                50               0                
19.3                           0.0293519008315412 31.4419411545931 0.958962090719715 178.233827810036 0.958962090719714 178.233827810036 0.0291867489985144 31.6046456158928 
! Gamma         0                0                0                0                
! Port Impedance         50               0                50               0                
19.4                           0.0374024852024869 45.4935805981537 0.958475522184582 177.07445599356  0.958475522184582 177.07445599356  0.0372660870202689 45.68131189037   
! Gamma         0                0                0                0                
! Port Impedance         50               0                50               0                
19.5                           0.047087935614353 53.7401768836685 0.957855036206846 175.916180150813 0.957855036206846 175.916180150813 0.0469743449939204 53.9125165984718 
! Gamma         0                0                0                0                
! Port Impedance         50               0                50               0                
19.6                           0.0575669194441031 58.6716701258979 0.957101901088417 174.759318653322 0.957101901088416 174.759318653322 0.0574698637002735 58.8220992150548 
! Gamma         0                0                0                0                
! Port Impedance         50               0                50               0                
19.7                           0.068451981515363 61.6955193714736 0.956217682816595 173.604185933237 0.956217682816595 173.604185933237 0.0683670271710905 61.8260299008082 
! Gamma         0                0                0                0                
! Port Impedance         50               0                50               0                
19.8                           0.0795514249134415 63.5611073271905 0.955204236981706 172.451091660898 0.955204236981707 172.451091660898 0.079475604702747 63.6750175847939 
! Gamma         0                0                0                0                
! Port Impedance         50               0                50               0                
19.9                           0.0907607464437405 64.6831085660038 0.954063699291355 171.300339951334 0.954063699291355 171.300339951334 0.0906920501388974 64.7834112090786 
! Gamma         0                0                0                0                
! Port Impedance         50               0                50               0                
20                             0.102017462730244 65.3040618523498 0.952798474775334 170.152228604128 0.952798474775335 170.152228604129 0.101954491088964 65.3931652813223 
! Gamma         0                0                0                0                
! Port Impedance         50               0                50               0                
20.1                           0.113281015018548 65.5735440878235 0.951411225786648 169.007048380719 0.951411225786649 169.007048380719 0.113222765873909 65.6533333755239 
! Gamma         0                0                0                0                
! Port Impedance         50               0                50               0                
20.2                           0.124523126348373 65.5881884419347 0.949904858913836 167.865082322786 0.949904858913836 167.865082322786 0.124468862756061 65.6601366725375 
! Gamma         0                0                0                0                
! Port Impedance         50               0                50               0                
20.3                           0.135722843747049 65.412961454955  0.948282510927823 166.726605114951 0.948282510927823 166.726605114952 0.135672010959693 65.4782286291032 
! Gamma         0                0                0                0                
! Port Impedance         50               0                50               0                
20.4                           0.146863832802244 65.0930538019867 0.94654753389257 165.591882494527 0.946547533892571 165.591882494527 0.146816004531507 65.1525633891185 
! Gamma         0                0                0                0                
! Port Impedance         50               0                50               0                
20.5                           0.157932824559807 64.6608334695114 0.94470347957309 164.461170710591 0.944703479573091 164.461170710592 0.157887667213735 64.7153292895507 
! Gamma         0                0                0                0                
! Port Impedance         50               0                50               0                
20.6                           0.168918684559147 64.14007824976   0.942754083276674 163.334716034166 0.942754083276675 163.334716034167 0.168875932812063 64.1901663389407 
! Gamma         0                0                0                0                
! Port Impedance         50               0                50               0                
20.7                           0.179811833663329 63.5486447860718 0.940703247263737 162.212754320779 0.940703247263738 162.212754320779 0.179771273364888 63.5948243017688 
! Gamma         0                0                0                0                
! Port Impedance         50               0                50               0                
20.8                           0.190603875867273 62.9002048590727 0.938555023863406 161.095510626221 0.938555023863408 161.095510626221 0.190565331826777 62.942891082675  
! Gamma         0                0                0                0                
! Port Impedance         50               0                50               0                
20.9                           0.201287352090352 62.2054063299713 0.93631359842604 159.983198875822 0.936313598426041 159.983198875822 0.201250679176671 62.2449479684445 
! Gamma         0                0                0                0                
! Port Impedance         50               0                50               0                
21                             0.211855572911068 61.4726685250185 0.933983272240502 158.876021587121 0.933983272240503 158.876021587121 0.211820649456542 61.5093608709073 
! Gamma         0                0                0                0                
! Port Impedance         50               0                50               0                
21.1                           0.222302501999594 60.7087391289575 0.931568445538165 157.774169645378 0.931568445538166 157.774169645378 0.222269224836702 60.7428341831749 
! Gamma         0                0                0                0                
! Port Impedance         50               0                50               0                
21.2                           0.232622672789082 59.9190917585929 0.929073600698682 156.677822130968 0.929073600698683 156.677822130968 0.232590953465144 59.9508061021121 
! Gamma         0                0                0                0                
! Port Impedance         50               0                50               0                
21.3                           0.242811127314192 59.1082148153587 0.926503285764559 155.587146197338 0.926503285764561 155.587146197338 0.242780889169963 59.1377357941718 
! Gamma         0                0                0                0                
! Port Impedance         50               0                50               0                
21.4                           0.252863370037722 58.2798247062166 0.923862098362788 154.502296997853 0.923862098362789 154.502296997854 0.252834545929029 58.3073153387508 
! Gamma         0                0                0                0                
! Port Impedance         50               0                50               0                
21.5                           0.262775331919899 57.4370255268616 0.92115467012235 153.423417659596 0.921154670122353 153.423417659597 0.262747862424458 57.462628433639  
! Gamma         0                0                0                0                
! Port Impedance         50               0                50               0                
21.6                           0.272543341542194 56.582430241399  0.918385651666577 152.350639301883 0.918385651666579 152.350639301884 0.272517173537061 56.6062708189002 
! Gamma         0                0                0                0                
! Port Impedance         50               0                50               0                
21.7                           0.282164101115157 55.7182537669891 0.915559698249195 151.284081097082 0.915559698249198 151.284081097083 0.282139186640457 55.740442771741  
! Gamma         0                0                0                0                
! Port Impedance         50               0                50               0                
21.8                           0.291634665877286 54.8463852843466 0.912681456092726 150.223850371111 0.912681456092728 150.223850371112 0.291610961223422 54.8670209526727 
! Gamma         0                0                0                0                
! Port Impedance         50               0                50               0                
21.9                           0.300952425850938 53.9684449986491 0.909755549477731 149.170042740872 0.909755549477734 149.170042740872 0.300929890821753 53.9876147977346 
! Gamma         0                0                0                0                
! Port Impedance         50               0                50               0                
22                             0.310115089236649 53.0858291295429 0.906786568621507 148.122742285758 0.90678656862151 148.122742285759 0.310093686552357 53.1036112134514 
! Gamma         0                0                0                0                
! Port Impedance         50               0                50               0                
22.1                           0.31912066694683 52.1997458972059 0.903779058375224 147.08202175033  0.903779058375227 147.08202175033  0.319100361758754 52.2162103249927 
! Gamma         0                0                0                0                
! Port Impedance         50               0                50               0                
22.2                           0.327967457934481 51.3112445538551 0.900737507759341 146.047942775186 0.900737507759344 146.047942775186 0.3279482174298  51.3264543145176 
! Gamma         0                0                0                0                
! Port Impedance         50               0                50               0                
22.3                           0.33665403508215 50.4212389948291 0.897666340348562 145.02055615309  0.897666340348565 145.020556153091 0.33663582816153 50.4352508743652 
! Gamma         0                0                0                0                
! Port Impedance         50               0                50               0                
22.4                           0.345179231494767 49.5305271090296 0.894569905509512 143.999902107425 0.894569905509514 143.999902107425 0.345162028509294 49.5433924276366 
! Gamma         0                0                0                0                
! Port Impedance         50               0                50               0                
22.5                           0.353542127095952 48.639806753619  0.891452470486998 142.986010590077 0.891452470487   142.986010590078 0.353525899632489 48.6515719954567 
! Gamma         0                0                0                0                
! Port Impedance         50               0                50               0                
22.6                           0.361742035467558 47.7496890339627 0.888318213328047 141.978901595984 0.88831821332805 141.978901595984 0.361726756173767 47.7603963875325 
! Gamma         0                0                0                0                
! Port Impedance         50               0                50               0                
22.7                           0.369778490900571 46.8607094171027 0.885171216626904 140.978585491603 0.885171216626907 140.978585491603 0.369764133342534 46.8703972408769 
! Gamma         0                0                0                0                
! Port Impedance         50               0                50               0                
22.8                           0.377651235645645 45.9733370917001 0.882015462068978 139.985063354729 0.882015462068981 139.985063354729 0.377637774192257 45.9820403169229 
! Gamma         0                0                0                0                
! Port Impedance         50               0                50               0                
22.9                           0.385360207365215 45.0879828995189 0.878854825747189 138.998327323179 0.878854825747191 138.998327323179 0.385347617094629 45.0957333799515 
! Gamma         0                0                0                0                
! Port Impedance         50               0                50               0                
23                             0.392905526798359 44.2050060960575 0.875693074220314 138.018360950005 0.875693074220317 138.018360950006 0.392893783422569 44.2118329127209 
! Gamma         0                0                0                0                
! Port Impedance         50               0                50               0                
23.1                           0.400287485655256 43.3247201457806 0.872533861279795 137.045139563056 0.872533861279797 137.045139563056 0.400276565459582 43.3306498733626 
! Gamma         0                0                0                0                
! Port Impedance         50               0                50               0                
23.2                           0.407506534761353 42.4473977167785 0.869380725388938 136.078630626823 0.86938072538894 136.078630626823 0.407496414556139 42.4524546572528 
! Gamma         0                0                0                0                
! Port Impedance         50               0                50               0                
23.3                           0.414563272472575 41.5732750078535 0.866237087756548 135.118794104708 0.86623708775655 135.118794104708 0.414553929554863 41.5774813959473 
! Gamma         0                0                0                0                
! Port Impedance         50               0                50               0                
23.4                           0.421458433382979 40.7025555159238 0.863106251005636 134.165582819953 0.863106251005638 134.165582819953 0.42144984550632 40.7059317003277 
! Gamma         0                0                0                0                
! Port Impedance         50               0                50               0                
23.5                           0.428192877345134 39.8354133317389 0.859991398397039 133.218942813669 0.859991398397043 133.218942813669 0.428185022695947 39.837977935337  
! Gamma         0                0                0                0                
! Port Impedance         50               0                50               0                
23.6                           0.434767578821874 38.9719960360126 0.856895593567401 132.278813698525 0.856895593567403 132.278813698525 0.434760436001068 38.9737660979111 
! Gamma         0                0                0                0                
! Port Impedance         50               0                50               0                
23.7                           0.441183616585831 38.112427255365  0.853821780740955 131.345129006829 0.853821780740956 131.345129006829 0.441177164594615 38.1134183570755 
! Gamma         0                0                0                0                
! Port Impedance         50               0                50               0                
23.8                           0.447442163780778 37.2568089272092 0.850772785375039 130.417816531857 0.850772785375041 130.417816531857 0.447436382009723 37.2570353049946 
! Gamma         0                0                0                0                
! Port Impedance         50               0                50               0                
23.9                           0.453544478356165 36.4052233144209 0.84775131519991 129.496798661443 0.847751315199912 129.496798661443 0.453539346576794 36.4046979595246 
! Gamma         0                0                0                0                
! Port Impedance         50               0                50               0                
24                             0.459491893883614 35.5577348038903 0.844759961614457 128.581992702965 0.844759961614459 128.581992702965 0.459487392241866 35.5564695521199 
! Gamma         0                0                0                0                
! Port Impedance         50               0                50               0                
24.1                           0.465285810761508 34.7143915175452 0.841801201400652 127.673311198996 0.841801201400654 127.673311198996 0.465281919772561 34.7123971294804 
! Gamma         0                0                0                0                
! Port Impedance         50               0                50               0                
24.2                           0.470927687811333 33.8752267599223 0.838877398720969 126.770662233003 0.83887739872097 126.770662233003 0.470924388355359 33.8725129928419 
! Gamma         0                0                0                0                
! Port Impedance         50               0                50               0                
24.3                           0.476419034266984 33.0402603226512 0.835990807364553 125.873949724579 0.835990807364555 125.873949724579 0.476416307585487 33.0368359951229 
! Gamma         0                0                0                0                
! Port Impedance         50               0                50               0                
24.4                           0.481761402156102 32.2094996631416 0.833143573209651 124.98307371383  0.833143573209653 124.98307371383  0.481759229848529 32.2053727131007 
! Gamma         0                0                0                0                
! Port Impedance         50               0                50               0                
24.5                           0.486956379070392 31.3829409722264 0.830337736871511 124.097930634591 0.830337736871512 124.097930634591 0.486954743090808 31.3781185092529 
! Gamma         0                0                0                0                
! Port Impedance         50               0                50               0                
24.6                           0.492005581320078 30.5605701433867 0.827575236506826 123.218413576261 0.827575236506827 123.218413576261 0.49200446397371 30.555058495808  
! Gamma         0                0                0                0                
! Port Impedance         50               0                50               0                
24.7                           0.496910647465973 29.7423636544276 0.824857910747611 122.344412534121 0.824857910747611 122.344412534121 0.496910031405469 29.7361684117872 
! Gamma         0                0                0                0                
! Port Impedance         50               0                50               0                
24.8                           0.501673232221209 28.9282893709774 0.822187501739267 121.475814648078 0.822187501739268 121.475814648078 0.501673100442505 28.9214154223489 
! Gamma         0                0                0                0                
! Port Impedance         50               0                50               0                
24.9                           0.506295000713375 28.1183072799499 0.819565658259423 120.612504429815 0.819565658259424 120.612504429815 0.506295336551084 28.110758848511  
! Gamma         0                0                0                0                
! Port Impedance         50               0                50               0                
25                             0.510777623096801 27.3123701600457 0.816993938895927 119.754363978438 0.816993938895928 119.754363978438 0.510778410219062 27.3041508342808 
! Gamma         0                0                0                0                
! Port Impedance         50               0                50               0                
25.1                           0.515122769503763 26.5104241954845 0.814473815264167 118.901273184699 0.814473815264167 118.901273184699 0.5151239919065  26.5015369573398 
! Gamma         0                0                0                0                
! Port Impedance         50               0                50               0                
25.2                           0.519332105322705 25.712409538402  0.812006675245564 118.053109923983 0.812006675245564 118.053109923983 0.519333747323273 25.7028567886749 
! Gamma         0                0                0                0                
! Port Impedance         50               0                50               0                
25.3                           0.523407286790974 24.918260824697  0.809593826230743 117.209750238237 0.809593826230743 117.209750238237 0.523409333021185 24.908044405913  
! Gamma         0                0                0                0                
! Port Impedance         50               0                50               0                
25.4                           0.527349956889158 24.1279076475639 0.807236498352457 116.371068507079 0.807236498352457 116.371068507079 0.527352392287667 24.1170288645633 
! Gamma         0                0                0                0                
! Port Impedance         50               0                50               0                
25.5                           0.531161741523803 23.3412749924727 0.804935847694821 115.536937608353 0.80493584769482 115.536937608353 0.531164551327868 23.3297346309017 
! Gamma         0                0                0                0                
! Port Impedance         50               0                50               0                
25.6                           0.534844245985093 22.5582836369474 0.802692959466819 114.707229068411 0.802692959466819 114.707229068411 0.534847415721723 22.5460819798283 
! Gamma         0                0                0                0                
! Port Impedance         50               0                50               0                
25.7                           0.538399051666055 21.7788505181428 0.800508851129396 113.881813202429 0.800508851129396 113.881813202428 0.538402567142554 21.7659873606767 
! Gamma         0                0                0                0                
! Port Impedance         50               0                50               0                
25.8                           0.541827713029814 21.0028890709113 0.798384475466659 113.060559245083 0.798384475466658 113.060559245083 0.541831560323744 20.9893637336508 
! Gamma         0                0                0                0                
! Port Impedance         50               0                50               0                
25.9                           0.545131754811565 20.2303095387875 0.796320723592861 112.243335471926 0.796320723592861 112.243335471925 0.545135920260149 20.2161208792974 
! Gamma         0                0                0                0                
! Port Impedance         50               0                50               0                
26                             0.548312669442098 19.4610192600811 0.79431842788796 111.430009311792 0.79431842788796 111.430009311792 0.548317139631093 19.4461656831969 
! Gamma         0                0                0                0                
! Port Impedance         50               0                50               0                
26.1                           0.551371914679959 18.6949229310688 0.792378364855451 110.620447450611 0.79237836485545 110.620447450611 0.551376676432008 18.6794023978454 
! Gamma         0                0                0                0                
! Port Impedance         50               0                50               0                
26.2                           0.55431091143962 17.9319228480925 0.790501257897151 109.814515926961 0.790501257897151 109.814515926961 0.554315951802126 17.915732883528  
! Gamma         0                0                0                0                
! Port Impedance         50               0                50               0                
26.3                           0.557131041803368 17.1719191302158 0.788687780000394 109.012080219739 0.788687780000392 109.012080219739 0.557136348035904 17.1550568298224 
! Gamma         0                0                0                0                
! Port Impedance         50               0                50               0                
26.4                           0.559833647205031 16.4148099239468 0.78693855633385 108.213005328297 0.786938556333849 108.213005328297 0.559839206766302 16.3972719592354 
! Gamma         0                0                0                0                
! Port Impedance         50               0                50               0                
26.5                           0.56242002677402 15.6604915914144 0.785254166748885 107.41715584541  0.785254166748883 107.41715584541  0.562425827308419 15.6422742143481 
! Gamma         0                0                0                0                
! Port Impedance         50               0                50               0                
26.6                           0.564891435828654 14.9088588832708 0.783635148183947 106.624396023425 0.783635148183946 106.624396023425 0.564897465152414 14.8899579297381 
! Gamma         0                0                0                0                
! Port Impedance         50               0                50               0                
26.7                           0.567249084508153 14.1598050974972 0.782081996970052 105.834589833945 0.782081996970051 105.834589833945 0.567255330595118 14.1402159898458 
! Gamma         0                0                0                0                
! Port Impedance         50               0                50               0                
26.8                           0.569494136533157 13.4132222251975 0.780595171035881 105.047601021389 0.780595171035879 105.047601021389 0.569500587500197 13.3929399738678 
! Gamma         0                0                0                0                
! Port Impedance         50               0                50               0                
26.9                           0.571627708085124 12.6690010843873 0.779175092011462 104.263293150777 0.77917509201146 104.263293150777 0.571634352177195 12.6480202886757 
! Gamma         0                0                0                0                
! Port Impedance         50               0                50               0                
27                             0.573650866795418 11.9270314427145 0.777822147229756 103.48152965006  0.777822147229754 103.48152965006  0.57365769237029 11.9053462906925 
! Gamma         0                0                0                0                
! Port Impedance         50               0                50               0                
27.1                           0.575564630835398 11.1872021299814 0.776536691625809 102.702173847337 0.776536691625807 102.702173847337 0.575571626348056 11.1648063975923 
! Gamma         0                0                0                0                
! Port Impedance         50               0                50               0                
27.2                           0.577369968099308 10.4494011412805 0.775319049533378 101.925089003259 0.775319049533377 101.925089003259 0.577377122086029 10.426288190631  
! Gamma         0                0                0                0                
! Port Impedance         50               0                50               0                
27.3                           0.579067795472222 9.7135157315065  0.774169516379202 101.150138338944 0.7741695163792  101.150138338944 0.579075096534347 9.68967850836496 
! Gamma         0                0                0                0                
! Port Impedance         50               0                50               0                
27.4                           0.580658978175822 8.97943250195457 0.773088360275251 100.377185059699 0.77308836027525 100.377185059699 0.580666414963205 8.95486353246625 
! Gamma         0                0                0                0                
! Port Impedance         50               0                50               0                
27.5                           0.582144329185209 8.2470374796777  0.772075823509476 99.6060923748496 0.772075823509474 99.6060923748496 0.582151890379362 8.22172886630081 
! Gamma         0                0                0                0                
! Port Impedance         50               0                50               0                
27.6                           0.583524608710445 7.5162161902332  0.771132123935662 98.8367235139535 0.77113212393566 98.8367235139535 0.583532283007366 7.49015960689801 
! Gamma         0                0                0                0                
! Port Impedance         50               0                50               0                
27.7                           0.58480052373697 6.78685372441544 0.77025745626312 98.0689417396898 0.770257456263117 98.0689417396898 0.58480829982965 6.76004041090433 
! Gamma         0                0                0                0                
! Port Impedance         50               0                50               0                
27.8                           0.585972727619481 6.05883479954111 0.769451993246991 97.3026103576863 0.769451993246989 97.3026103576863 0.585980594180087 6.03125555508386 
! Gamma         0                0                0                0                
! Port Impedance         50               0                50               0                
27.9                           0.5870418197243  5.33204381582346 0.768715886779989 96.5375927235539 0.768715886779986 96.5375927235538 0.587049765386017 5.30368899189941 
! Gamma         0                0                0                0                
! Port Impedance         50               0                50               0                
28                             0.5880083451157  4.6063649083491  0.768049268886406 95.7737522473849 0.768049268886404 95.7737522473848 0.588016358454227 4.5772244006837  
! Gamma         0                0                0                0                
! Port Impedance         50               0                50               0                
28.1                           0.588872794282056 3.88168199514568 0.767452252619252 95.0109523959669 0.76745225261925 95.0109523959669 0.588880863796737 3.85174523488612 
! Gamma         0                0                0                0                
! Port Impedance         50               0                50               0                
28.2                           0.589635602898118 3.15787882181342 0.766924932861293 94.2490566929592 0.76692493286129 94.2490566929592 0.589643716992689 3.12713476586483 
! Gamma         0                0                0                0                
! Port Impedance         50               0                50               0                
28.3                           0.590297151620105 2.43483900317099 0.766467387030819 93.4879287172689 0.766467387030817 93.4879287172688 0.590305298583042 2.40327612367054 
! Gamma         0                0                0                0                
! Port Impedance         50               0                50               0                
28.4                           0.590857765910698 1.71244606235601 0.766079675692838 92.7274320998656 0.766079675692835 92.7274320998656 0.590865933895144 1.68005233525957 
! Gamma         0                0                0                0                
! Port Impedance         50               0                50               0                
28.5                           0.591317715891428 0.990583467804836 0.765761843076383 91.9674305192636 0.76576184307638 91.9674305192636 0.59132589289466 0.95734636055643 
! Gamma         0                0                0                0                
! Port Impedance         50               0                50               0                
28.6                           0.591677216220301 0.269134668527356 0.765513917498518 91.2077876958997 0.765513917498516 91.2077876958997 0.591685390062735 0.235041126779241 
! Gamma         0                0                0                0                
! Port Impedance         50               0                50               0                
28.7                           0.591936425992915 -0.452016871916656 0.765335911695567 90.4483673856299 0.765335911695565 90.4483673856298 0.591944584296592 -0.486980438571137 
! Gamma         0                0                0                0                
! Port Impedance         50               0                50               0                
28.8                           0.592095448665666 -1.17298764233948 0.765227823062009 89.6890333725671 0.765227823062007 89.6890333725672 0.592103578832209 -1.20883537566045 
! Gamma         0                0                0                0                
! Port Impedance         50               0                50               0                
28.9                           0.592154332000037 -1.89389405134869 0.765189633797348 88.9296494614796 0.765189633797346 88.9296494614796 0.592162421188024 -1.93064066081722 
! Gamma         0                0                0                0                
! Port Impedance         50               0                50               0                
29                             0.592113068027297 -2.61485239487888 0.765221310961246 88.1700794699658 0.765221310961244 88.1700794699658 0.592121103129023 -2.65251317518722 
! Gamma         0                0                0                0                
! Port Impedance         50               0                50               0                
29.1                           0.591971593033333 -3.33597882343878 0.765322806437034 87.410187220627  0.765322806437031 87.410187220627  0.59197956065092 -3.37456967315742 
! Gamma         0                0                0                0                
! Port Impedance         50               0                50               0                
29.2                           0.591729787563684 -4.05738930867775 0.765494056803669 86.6498365334501 0.765494056803666 86.6498365334501 0.591737673984483 -4.09692675015926 
! Gamma         0                0                0                0                
! Port Impedance         50               0                50               0                
29.3                           0.591387476449209 -4.77919960887503 0.765734983116086 85.8888912186219 0.765734983116083 85.8888912186219 0.591395267620462 -4.81970080945966 
! Gamma         0                0                0                0                
! Port Impedance         50               0                50               0                
29.4                           0.590944428853208 -5.50152523294729 0.766045490593812 85.1272150699911 0.766045490593809 85.1272150699911 0.590952110355902 -5.54300802754102 
! Gamma         0                0                0                0                
! Port Impedance         50               0                50               0                
29.5                           0.590400358341145 -6.22448140256304 0.766425468217599 84.3646718593997 0.766425468217597 84.3646718593997 0.590407915363014 -6.26696431766542 
! Gamma         0                0                0                0                
! Port Impedance         50               0                50               0                
29.6                           0.58975492297454 -6.94818301194416 0.766874788233783 83.6011253321057 0.766874788233781 83.6011253321057 0.589762340282154 -6.99168529120973 
! Gamma         0                0                0                0                
! Port Impedance         50               0                50               0                
29.7                           0.589007725430942 -7.67274458492071 0.767393305565947 82.8364392035225 0.767393305565945 82.8364392035225 0.589014987340809 -7.71728621634533 
! Gamma         0                0                0                0                
! Port Impedance         50               0                50               0                
29.8                           0.588158313152286 -8.39828022879393 0.767980857133447 82.0704771575053 0.767980857133444 82.0704771575054 0.588165403500915 -8.44388197362503 
! Gamma         0                0                0                0                
! Port Impedance         50               0                50               0                
29.9                           0.587206178524325 -9.12490358454359 0.76863726107627 81.3031028464155 0.768637261076267 81.3031028464155 0.58721308063717 -9.17158700802209 
! Gamma         0                0                0                0                
! Port Impedance         50               0                50               0                
30                             0.58615075909025 -9.85272777289913 0.769362315885645 80.5341798932016 0.769362315885642 80.5341798932017 0.586157455749445 -9.90051527695014 
! Gamma         0                0                0                0                
! Port Impedance         50               0                50               0                
30.1                           0.584991437801956 -10.5818653357705 0.770155799439812 79.7635718957413 0.770155799439809 79.7635718957413 0.584997911212781 -10.6307801937698 
! Gamma         0                0                0                0                
! Port Impedance         50               0                50               0                
30.2                           0.583727543312898 -11.3124281725131 0.771017467944317 78.9911424336878 0.771017467944315 78.9911424336879 0.583733775068863 -11.3624945662675 
! Gamma         0                0                0                0                
! Port Impedance         50               0                50               0                
30.3                           0.582358350316853 -12.0445274704715 0.771947054776208 78.2167550780807 0.771947054776206 78.2167550780808 0.582364321363317 -12.0957705295642 
! Gamma         0                0                0                0                
! Port Impedance         50               0                50               0                
30.4                           0.580883079937351 -12.778273629219 0.77294426923152 77.4402734039773 0.772944269231518 77.4402734039773 0.58088877053357 -12.8307194728816 
! Gamma         0                0                0                0                
! Port Impedance         50               0                50               0                
30.5                           0.579300900172993 -13.5137761778732 0.774008795175486 76.6615610063735 0.774008795175484 76.6615610063735 0.579306289852481 -13.5674519595651 
! Gamma         0                0                0                0                
! Port Impedance         50               0                50               0                
30.6                           0.577610926404314 -14.2511436848347 0.775140289594966 75.880481519689  0.775140289594964 75.8804815196891 0.577615993933391 -14.3060776397207 
! Gamma         0                0                0                0                
! Port Impedance         50               0                50               0                
30.7                           0.575812221968302 -14.9904836592501 0.776338381052686 75.0968986410974 0.776338381052685 75.0968986410974 0.575816945302719 -15.0467051547898 
! Gamma         0                0                0                0                
! Port Impedance         50               0                50               0                
30.8                           0.573903798807192 -15.7319024434587 0.77760266804299 74.3106761579895 0.777602668042988 74.3106761579896 0.573908155046668 -15.7894420333363 
! Gamma         0                0                0                0                
! Port Impedance         50               0                50               0                
30.9                           0.57188461819859 -16.4755050956279 0.778932717248967 73.5216779798692 0.778932717248965 73.5216779798692 0.571888583539123 -16.5343945772761 
! Gamma         0                0                0                0                
! Port Impedance         50               0                50               0                
31                             0.569753591574507 -17.2213952617308 0.780328061701014 72.7297681749812 0.780328061701012 72.7297681749813 0.569757141258288 -17.2816677377207 
! Gamma         0                0                0                0                
! Port Impedance         50               0                50               0                
31.1                           0.567509581437359 -17.9696750359515 0.781788198837094 71.934811011987  0.781788198837092 71.934811011987  0.567512689700112 -18.0313649795519 
! Gamma         0                0                0                0                
! Port Impedance         50               0                50               0                
31.2                           0.565151402381497 -18.7204448085422 0.783312588465255 71.1366710070023 0.783312588465254 71.1366710070024 0.565154042397049 -18.7835881337753 
! Gamma         0                0                0                0                
! Port Impedance         50               0                50               0                
31.3                           0.562677822229339 -19.4738031000734 0.784900650629248 70.3352129763259 0.784900650629246 70.3352129763259 0.562679966051201 -19.538437236628 
! Gamma         0                0                0                0                
! Port Impedance         50               0                50               0                
31.4                           0.560087563291671 -20.2298463809384 0.786551763378487 69.5303020951871 0.786551763378486 69.5303020951871 0.560089181791408 -20.2960103543363 
! Gamma         0                0                0                0                
! Port Impedance         50               0                50               0                
31.5                           0.557379303762198 -20.9886688748783 0.788265260443964 68.7218039628519 0.788265260443963 68.7218039628519 0.557380366564326 -21.0564033923278 
! Gamma         0                0                0                0                
! Port Impedance         50               0                50               0                
31.6                           0.554551679256919 -21.750362345189 0.790040428822231 67.9095846744278 0.790040428822229 67.9095846744279 0.554552154670049 -21.8197098876026 
! Gamma         0                0                0                0                
! Port Impedance         50               0                50               0                
31.7                           0.551603284509387 -22.5150158621553 0.791876506270078 67.0935108997145 0.791876506270077 67.0935108997145 0.551603139453319 -22.5860207828574 
! Gamma         0                0                0                0                
! Port Impedance         50               0                50               0                
31.8                           0.548532675233395 -23.2827155501268 0.793772678713123 66.2734499694467 0.793772678713122 66.2734499694467 0.548531875161817 -23.3554241808307 
! Gamma         0                0                0                0                
! Port Impedance         50               0                50               0                
31.9                           0.545338370165092 -24.053544312505 0.79572807757218 65.4492699692808 0.795728077572179 65.4492699692808 0.545336878983515 -24.1280050771979 
! Gamma         0                0                0                0                
! Port Impedance         50               0                50               0                
32                             0.542018853296937 -24.8275815327455 0.797741777012014 64.6208398418732 0.797741777012014 64.6208398418733 0.54201663327546 -24.9038450701878 
! Gamma         0                0                0                0                
! Port Impedance         50               0                50               0                
32.1                           0.538572576316349 -25.6049027492955 0.799812791117854 63.7880294973971 0.799812791117853 63.7880294973972 0.538569587996795 -25.6830220449158 
! Gamma         0                0                0                0                
! Port Impedance         50               0                50               0                
32.2                           0.534997961262216 -26.3855793021755 0.801940071005942 62.9507099328399 0.801940071005941 62.95070993284   0.534994163359151 -26.4656098302274 
! Gamma         0                0                0                0                
! Port Impedance         50               0                50               0                
32.3                           0.531293403412815 -27.1696779486801 0.804122501875311 62.1087533604171 0.80412250187531 62.1087533604172 0.531288752707873 -27.251677825621 
! Gamma         0                0                0                0                
! Port Impedance         50               0                50               0                
32.4                           0.527457274418887 -27.9572604453997 0.806358900009025 61.2620333454273 0.806358900009024 61.2620333454273 0.527451725647799 -28.0412905955605 
! Gamma         0                0                0                0                
! Port Impedance         50               0                50               0                
32.5                           0.523487925695876 -28.7483830934599 0.808648009734224 60.4104249538613 0.808648009734223 60.4104249538613 0.523481431427502 -28.8345074281929 
! Gamma         0                0                0                0                
! Port Impedance         50               0                50               0                
32.6                           0.519383692089437 -29.5430962435216 0.810988500351469 59.5538049100612 0.810988500351468 59.5538049100612 0.519376202596032 -29.6313818551535 
! Gamma         0                0                0                0                
! Port Impedance         50               0                50               0                
32.7                           0.515142895828377 -30.3414437566822 0.813378963045206 58.6920517647063 0.813378963045204 58.6920517647063 0.515134358946229 -30.4319611287512 
! Gamma         0                0                0                0                
! Port Impedance         50               0                50               0                
32.8                           0.510763850779159 -31.1434624169529 0.815817907788438 57.8250460733773 0.815817907788437 57.8250460733773 0.510754211758628 -31.2362856523857 
! Gamma         0                0                0                0                
! Port Impedance         50               0                50               0                
32.9                           0.506244867015943 -31.9491812904487 0.818303760256188 56.9526705859209 0.818303760256187 56.9526705859209 0.506234068359806 -32.0443883595333 
! Gamma         0                0                0                0                
! Port Impedance         50               0                50               0                
33                             0.501584255719877 -32.7586210258065 0.820834858763749 56.0748104468068 0.820834858763748 56.0748104468068 0.501572237008764 -32.8562940360446 
! Gamma         0                0                0                0                
! Port Impedance         50               0                50               0                
33.1                           0.496780334420984 -33.5717930896235 0.823409451247358 55.1913534066247 0.823409451247357 55.1913534066247 0.496767032124509 -33.6720185798043 
! Gamma         0                0                0                0                
! Port Impedance         50               0                50               0                
33.2                           0.491831432595452 -34.3886989298614 0.826025692306465 54.3021900448286 0.826025692306465 54.3021900448286 0.491816779867476 -34.4915681910004 
! Gamma         0                0                0                0                
! Port Impedance         50               0                50               0                
33.3                           0.486735897630493 -35.2093290591776 0.828681640328507 53.4072140037836 0.828681640328506 53.4072140037836 0.48671982408674 -35.3149384853014 
! Gamma         0                0                0                0                
! Port Impedance         50               0                50               0                
33.4                           0.481492101168099 -36.0336620489855 0.83137525471874 52.5063222341121 0.831375254718739 52.5063222341121 0.481474532644112 -36.1421135211384 
! Gamma         0                0                0                0                
! Port Impedance         50               0                50               0                
33.5                           0.476098445838096 -36.8616634236774 0.834104393259474 51.5994152512755 0.834104393259474 51.5994152512755 0.476079304125223 -36.9730647309804 
! Gamma         0                0                0                0                
! Port Impedance         50               0                50               0                
33.6                           0.470553372389704 -37.6932844428398 0.836866809624734 50.6863974032528 0.836866809624733 50.6863974032528 0.4705325749465  -37.8077497449509 
! Gamma         0                0                0                0                
! Port Impedance         50               0                50               0                
33.7                           0.464855367229593 -38.5284607573718 0.839660151078151 49.7671771491045 0.83966015107815 49.7671771491045 0.46483282686563 -38.646111093308 
! Gamma         0                0                0                0                
! Port Impedance         50               0                50               0                
33.8                           0.459002970372913 -39.3671109231551 0.842481956383559 48.8416673481192 0.842481956383559 48.8416673481192 0.458978594901551 -39.4880747721389 
! Gamma         0                0                0                0                
! Port Impedance         50               0                50               0                
33.9                           0.452994783812242 -40.2091347532091 0.845329653959425 47.9097855591536 0.845329653959424 47.9097855591536 0.452968475668404 -40.3335486540208 
! Gamma         0                0                0                0                
! Port Impedance         50               0                50               0                
34                             0.446829480307652 -41.0544114860263 0.848200560309795 46.9714543496705 0.848200560309795 46.9714543496705 0.44680113612603 -41.1824207223056 
! Gamma         0                0                0                0                
! Port Impedance         50               0                50               0                
34.1                           0.440505812599278 -41.9027977438873 0.851091878765903 46.0266016138758 0.851091878765902 46.0266016138758 0.4404753227477  -42.0345571039483 
! Gamma         0                0                0                0                
! Port Impedance         50               0                50               0                
34.2                           0.434022623041955 -42.754125250261 0.854000698573869 45.0751608992389 0.854000698573868 45.0751608992389 0.433989871103781 -42.8897998713073 
! Gamma         0                0                0                0                
! Port Impedance         50               0                50               0                
34.3                           0.427378853659567 -43.6081982697199 0.856923994365042 44.1170717405569 0.856923994365042 44.1170717405569 0.427343715858006 -43.7479645778985 
! Gamma         0                0                0                0                
! Port Impedance         50               0                50               0                
34.4                           0.420573556615015 -44.4647907268987 0.859858626046449 43.1522800005988 0.859858626046448 43.1522800005987 0.420535901171064 -44.6088374864796 
! Gamma         0                0                0                0                
! Port Impedance         50               0                50               0                
34.5                           0.41360590509008 -45.3236429526258 0.862801339149416 42.1807382162259 0.862801339149415 42.1807382162259 0.413565591504373 -45.4721724397728 
! Gamma         0                0                0                0                
! Port Impedance         50               0                50               0                
34.6                           0.40647520456815 -46.1844579950586 0.865748765674799 41.2024059487496 0.865748765674799 41.2024059487496 0.406432082815339 -46.3376873142663 
! Gamma         0                0                0                0                
! Port Impedance         50               0                50               0                
34.7                           0.399180904511998 -47.0468974210071 0.868697425473189 40.2172501371387 0.868697425473188 40.2172501371387 0.399134814134228 -47.2050599853895 
! Gamma         0                0                0                0                
! Port Impedance         50               0                50               0                
34.8                           0.391722610428619 -47.9105765170073 0.87164372819808 39.2252454525464 0.871643728198079 39.2252454525465 0.391673379512264 -48.0739237173623 
! Gamma         0                0                0                0                
! Port Impedance         50               0                50               0                
34.9                           0.384100096314035 -48.7750587803226 0.874583975869105 38.2263746524733 0.874583975869104 38.2263746524733 0.384047540330869 -48.9438618723983 
! Gamma         0                0                0                0                
! Port Impedance         50               0                50               0                
35                             0.376313317473156 -49.6398495658893 0.877514366081084 37.2206289327356 0.877514366081084 37.2206289327355 0.376257237963555 -49.8144018107316 
! Gamma         0                0                0                0                
! Port Impedance         50               0                50               0                
35.1                           0.36836242371383 -50.5043887249418 0.8804309958928  36.2080082752593 0.8804309958928  36.2080082752593 0.368302606785202 -50.685007823823 
! Gamma         0                0                0                0                
! Port Impedance         50               0                50               0                
35.2                           0.360247772920657 -51.3680420328936 0.8833298664269  35.1885217895778 0.8833298664269  35.1885217895777 0.360183987528898 -51.5550729064134 
! Gamma         0                0                0                0                
! Port Impedance         50               0                50               0                
35.3                           0.351969945023847 -52.2300911557024 0.886206888209335 34.162188045767  0.886206888209335 34.1621880457669 0.351901940998957 -52.4239091265673 
! Gamma         0                0                0                0                
! Port Impedance         50               0                50               0                
35.4                           0.343529756392459 -53.0897218422914 0.889057887273017 33.1290353964279 0.889057887273017 33.1290353964278 0.343457262161168 -53.2907362935079 
! Gamma         0                0                0                0                
! Port Impedance         50               0                50               0                
35.5                           0.334928274701037 -53.9460099514916 0.891878612046051 32.0891022851993 0.891878612046051 32.0891022851993 0.33485099464896 -54.1546685468554 
! Gamma         0                0                0                0                
! Port Impedance         50               0                50               0                
35.6                           0.326166834346068 -54.7979048197656 0.894664741039862 31.0424375391798 0.894664741039863 31.0424375391798 0.32608444574891 -55.0146983923842 
! Gamma         0                0                0                0                
! Port Impedance         50               0                50               0                
35.7                           0.317247052526185 -55.6442093429825 0.897411891346873 29.9891006425444 0.897411891346873 29.9891006425444 0.317159201963079 -55.8696775811887 
! Gamma         0                0                0                0                
! Port Impedance         50               0                50               0                
35.8                           0.308170846151342 -56.4835559711342 0.900115627950985 28.9291619885705 0.900115627950985 28.9291619885704 0.308077145292485 -56.7182940608751 
! Gamma         0                0                0                0                
! Port Impedance         50               0                50               0                
35.9                           0.2989404498159  -57.314377584387 0.902771473847142 27.8627031072336 0.902771473847142 27.8627031072336 0.298840470449806 -57.5590440048263 
! Gamma         0                0                0                0                
! Port Impedance         50               0                50               0                
36                             0.289558435165813 -58.1348719115566 0.905374920958615 26.7898168655088 0.905374920958615 26.7898168655087 0.289451703296788 -58.3901976285862 
! Gamma         0                0                0                0                
! Port Impedance         50               0                50               0                
36.1                           0.280027732120231 -58.9429577386341 0.907921441832451 25.7106076375121 0.907921441832451 25.7106076375121 0.279913720921491 -59.2097571024608 
! Gamma         0                0                0                0                
! Port Impedance         50               0                50               0                
36.2                           0.270351652586906 -59.7362205932668 0.910406502084879 24.6251914416491 0.910406502084879 24.6251914416491 0.270229773935275 -60.0154043254945 
! Gamma         0                0                0                0                
! Port Impedance         50               0                50               0                
36.3                           0.260533917558778 -60.5118448200287 0.912825573559342 23.5336960419966 0.912825573559342 23.5336960419965 0.26040351179819 -60.8044355784607 
! Gamma         0                0                0                0                
! Port Impedance         50               0                50               0                
36.4                           0.250578688825882 -61.2665278911028 0.915174148150449 22.4362610112428 0.915174148150448 22.4362610112428 0.250439012301266 -61.5736790346601 
! Gamma         0                0                0                0                
! Port Impedance         50               0                50               0                
36.5                           0.240490607026493 -61.9963712940183 0.917447752237511 21.3330377526434 0.917447752237511 21.3330377526434 0.240340816786954 -62.3193896461953 
! Gamma         0                0                0                0                
! Port Impedance         50               0                50               0                
36.6                           0.230274838461893 -62.6967402005372 0.919641961661727 20.2241894786191 0.919641961661726 20.2241894786191 0.230113973336825 -63.0371138419359 
! Gamma         0                0                0                0                
! Port Impedance         50               0                50               0                
36.7                           0.219937134114396 -63.3620810395244 0.921752417171436 19.10989114383   0.921752417171435 19.10989114383   0.21976409109617 -63.7215134671826 
! Gamma         0                0                0                0                
! Port Impedance         50               0                50               0                
36.8                           0.209483905802165 -63.9856815904108 0.923774840250605 17.9903293308082 0.923774840250605 17.9903293308082 0.209297410290928 -64.3661339888202 
! Gamma         0                0                0                0                
! Port Impedance         50               0                50               0                
36.9                           0.198922326638922 -64.5593515209693 0.925705049236766 16.8657020865098 0.925705049236766 16.8657020865098 0.198720894568991 -64.9630954284987 
! Gamma         0                0                0                0                
! Port Impedance         50               0                50               0                
37                             0.188260466370103 -65.0729911864416 0.927538975626303 15.7362187084713 0.927538975626303 15.7362187084713 0.188042355466954 -65.5026745483801 
! Gamma         0                0                0                0                
! Port Impedance         50               0                50               0                
37.1                           0.177507477442863 -65.5140009725529 0.929272680457472 14.6020994796068 0.929272680457471 14.6020994796068 0.177270623737121 -65.972731483753 
! Gamma         0                0                0                0                
! Port Impedance         50               0                50               0                
37.2                           0.166673856054249 -65.8664591320605 0.930902370654888 13.4635753510662 0.930902370654888 13.4635753510662 0.166415790120042 -66.35790990011  
! Gamma         0                0                0                0                
! Port Impedance         50               0                50               0                
37.3                           0.155771816040553 -66.1099571789135 0.932424415213793 12.3208875729909 0.932424415213793 12.3208875729909 0.155489550939507 -66.6385010094653 
! Gamma         0                0                0                0                
! Port Impedance         50               0                50               0                
37.4                           0.144815836148697 -66.2179184430552 0.933835361098154 11.1742872734358 0.933835361098154 11.1742872734358 0.14450571528739 -66.7887981412459 
! Gamma         0                0                0                0                
! Port Impedance         50               0                50               0                
37.5                           0.133823480036636 -66.1551195615677 0.935131948723943 10.0240349861839 0.935131948723943 10.0240349861839 0.133480967359231 -66.7746615667994 
! Gamma         0                0                0                0                
! Port Impedance         50               0                50               0                
37.6                           0.122816656730735 -65.8739544073066 0.936311126897671 8.87040012864595 0.936311126897671 8.87040012864595 0.122436042759752 -66.5498290727136 
! Gamma         0                0                0                0                
! Port Impedance         50               0                50               0                
37.7                           0.111823613578034 -65.3086669171559 0.937370067080776 7.71366043151235 0.937370067080776 7.71366043151235 0.111397597223715 -66.0501833611861 
! Gamma         0                0                0                0                
! Port Impedance         50               0                50               0                
37.8                           0.100882187117384 -64.3662285134338 0.938306176852561 6.55410132229701 0.938306176852561 6.55410132229701 0.100401273259174 -65.1846051532779 
! Gamma         0                0                0                0                
! Port Impedance         50               0                50               0                
37.9                           0.0900452894153247 -62.9115686752902 0.939117112448437 5.39201526538099 0.939117112448437 5.39201526538099 0.0894969166555876 -63.8199876490755 
! Gamma         0                0                0                0                
! Port Impedance         50               0                50               0                
38                             0.0793905061269397 -60.7432376030894 0.939800790255892 4.22770106161459 0.939800790255892 4.2277010616146  0.0787578010245538 -61.7561211938271 
! Gamma         0                0                0                0                
! Port Impedance         50               0                50               0                
38.1                           0.0690374840568566 -57.5532582421133 0.940355397158179 3.06146311096684 0.940355397158179 3.06146311096686 0.0682975937398957 -58.6831804729979 
! Gamma         0                0                0                0                
! Port Impedance         50               0                50               0                
38.2                           0.0591802474452285 -52.8638793668903 0.940779399624874 1.89361064211362 0.940779399624874 1.89361064211363 0.058302600314491 -54.1117582791944 
! Gamma         0                0                0                0                
! Port Impedance         50               0                50               0                
38.3                           0.0501468987045802 -45.9466704087582 0.941071551459267 0.724456913219662 0.941071551459267 0.724456913219675 0.0490934396845907 -47.2742775659593 
! Gamma         0                0                0                0                
! Port Impedance         50               0                50               0                
38.4                           0.0424988684326613 -35.8098244151202 0.941230900124749 -0.445681611505372 0.941230900124749 -0.445681611505346 0.0412338660389251 -37.0752289395715 
! Gamma         0                0                0                0                
! Port Impedance         50               0                50               0                
38.5                           0.0371299985457429 -21.6147989828517 0.941256791585896 -1.61648610462239 0.941256791585896 -1.61648610462237 0.0356567093076092 -22.4867549917779 
! Gamma         0                0                0                0                
! Port Impedance         50               0                50               0                
38.6                           0.035120000360138 -4.07565921408186 0.941148873614485 -2.78763623257235 0.941148873614485 -2.78763623257233 0.033539966846465 -4.14431532113082 
! Gamma         0                0                0                0                
! Port Impedance         50               0                50               0                
38.7                           0.0370267449276653 13.5199612589898 0.940907097526083 -3.95881102183561 0.940907097526083 -3.95881102183559 0.0355149530258215 14.2816425542383 
! Gamma         0                0                0                0                
! Port Impedance         50               0                50               0                
38.8                           0.0423209516660116 27.8310585515068 0.940531718328843 -5.12968972879412 0.940531718328843 -5.12968972879409 0.0409912169013935 29.036697976282  
! Gamma         0                0                0                0                
! Port Impedance         50               0                50               0                
38.9                           0.049926274834534 38.0738911183815 0.940023293282412 -6.29995270790226 0.940023293282412 -6.29995270790224 0.0487934807097921 39.3821950748975 
! Gamma         0                0                0                0                
! Port Impedance         50               0                50               0                
39                             0.0589398449303731 45.0673272963704 0.939382678881203 -7.46928227279444 0.939382678881204 -7.46928227279442 0.0579749967472703 46.3218353821378 
! Gamma         0                0                0                0                
! Port Impedance         50               0                50               0                
39.1                           0.0687921064925896 49.8080875481824 0.938611026292368 -8.63736354503683 0.938611026292368 -8.6373635450368 0.0679606060979419 50.960689263673  
! Gamma         0                0                0                0                
! Port Impedance         50               0                50               0                
39.2                           0.0791500278507845 53.0326543596958 0.937709775294406 -9.80388528537487 0.937709775294406 -9.80388528537482 0.0784231079036805 54.0784008211134 
! Gamma         0                0                0                0                
! Port Impedance         50               0                50               0                
39.3                           0.0898168552759357 55.2247302877772 0.936680646777158 -10.9685407025276 0.936680646777159 -10.9685407025276 0.0891726614066339 56.1727302354326 
! Gamma         0                0                0                0                
! Port Impedance         50               0                50               0                
39.4                           0.100671438066087 56.6960943516237 0.935525633877755 -12.1310282348367 0.935525633877756 -12.1310282348366 0.100093686671428 57.5586582794979 
! Gamma         0                0                0                0                
! Port Impedance         50               0                50               0                
39.5                           0.111635346094923 57.650558064536  0.934246991839713 -13.2910523003817 0.934246991839714 -13.2910523003817 0.111111846283933 58.4395294314417 
! Gamma         0                0                0                0                
! Port Impedance         50               0                50               0                
39.6                           0.122655184098046 58.2246719830266 0.93284722669354 -14.4483240115245 0.932847226693541 -14.4483240115244 0.12217668674014 58.9503872354787 
! Gamma         0                0                0                0                
! Port Impedance         50               0                50               0                
39.7                           0.133692837391403 58.5124120734807 0.931329082866899 -15.6025618502326 0.931329082866899 -15.6025618502326 0.133252213011171 59.1835784749222 
! Gamma         0                0                0                0                
! Port Impedance         50               0                50               0                
39.8                           0.144719901620949 58.5801559304351 0.929695529840341 -16.7534923009523 0.929695529840342 -16.7534923009523 0.144311565896191 59.2040200823924 
! Gamma         0                0                0                0                
! Port Impedance         50               0                50               0                
39.9                           0.155714385226666 58.4759274931691 0.927949747970865 -17.9008504382448 0.927949747970866 -17.9008504382447 0.155333897073892 59.0585091036582 
! Gamma         0                0                0                0                
! Port Impedance         50               0                50               0                
40                             0.166658689557811 58.2352374384788 0.926095113610004 -19.044380466862 0.926095113610005 -19.044380466862 0.166302467054953 58.7815517572328 
! Gamma         0                0                0                0                
! Port Impedance         50               0                50               0                
40.1                           0.177538332286463 57.884864100969  0.924135183645814 -20.1838362124104 0.924135183645815 -20.1838362124103 0.17720344908146 58.3991113631732 
! Gamma         0                0                0                0                
! Port Impedance         50               0                50               0                
40.2                           0.188341117394881 57.4453601039642 0.922073679599048 -21.3189815612232 0.922073679599049 -21.3189815612232 0.188025154595832 57.9310799249656 
! Gamma         0                0                0                0                
! Port Impedance         50               0                50               0                
40.3                           0.199056581469798 56.9327518552407 0.919914471403001 -22.4495908485365 0.919914471403002 -22.4495908485364 0.198757518276878 57.3929467873281 
! Gamma         0                0                0                0                
! Port Impedance         50               0                50               0                
40.4                           0.209675615537714 56.3597160015273 0.91766156099417 -23.5754491945195 0.917661560994171 -23.5754491945195 0.20939174731597 56.7969497939131 
! Gamma         0                0                0                0                
! Port Impedance         50               0                50               0                
40.5                           0.220190201083599 55.7364095356628 0.915319065836993 -24.6963527881598 0.915319065836994 -24.6963527881598 0.219920077155162 56.152885262473  
! Gamma         0                0                0                0                
! Port Impedance         50               0                50               0                
40.6                           0.230593221907005 55.0710658854809 0.912891202500781 -25.8121091194196 0.912891202500782 -25.8121091194196 0.230335597715079 55.4686882569121 
! Gamma         0                0                0                0                
! Port Impedance         50               0                50               0                
40.7                           0.240878327278331 54.3704298979433 0.91038227040061 -26.9225371604809 0.910382270400611 -26.9225371604809 0.240632127167567 54.750855196104  
! Gamma         0                0                0                0                
! Port Impedance         50               0                50               0                
40.8                           0.251039830356094 53.6400799818775 0.907796635806571 -28.0274674972609 0.907796635806572 -28.0274674972609 0.250804118295594 54.0047563085428 
! Gamma         0                0                0                0                
! Port Impedance         50               0                50               0                
40.9                           0.261072631178449 52.8846699442543 0.905138716217648 -29.1267424127123 0.905138716217648 -29.1267424127122 0.260846587498481 53.2348698599861 
! Gamma         0                0                0                0                
! Port Impedance         50               0                50               0                
41                             0.270972156986387 52.1081128274142 0.902412965187652 -30.2202159237201 0.902412965187653 -30.2202159237201 0.270755059719449 52.4449599872198 
! Gamma         0                0                0                0                
! Port Impedance         50               0                50               0                
41.1                           0.280734314895915 51.3137222850159 0.899623857681388 -31.3077537736686 0.89962385768139 -31.3077537736686 0.280525524680116 51.6382133110403 
! Gamma         0                0                0                0                
! Port Impedance         50               0                50               0                
41.2                           0.290355453446563 50.5043224786528 0.896775876029646 -32.389233382972 0.896775876029647 -32.389233382972 0.290154401212096 50.8173450317925 
! Gamma         0                0                0                0                
! Port Impedance         50               0                50               0                
41.3                           0.299832330579138 49.6823343632178 0.893873496541923 -33.4645437600487 0.893873496541925 -33.4645437600487 0.299638507428924 49.984682162894  
! Gamma         0                0                0                0                
! Port Impedance         50               0                50               0                
41.4                           0.309162086302797 48.8498440698005 0.89092117682613 -34.533585375366 0.890921176826131 -34.533585375366 0.30897503513783 49.1422294485875 
! Gamma         0                0                0                0                
! Port Impedance         50               0                50               0                
41.5                           0.318342218805784 48.0086575771777 0.887923343854969 -35.5962700012906 0.88792334385497 -35.5962700012905 0.318161527348798 48.2917220322905 
! Gamma         0                0                0                0                
! Port Impedance         50               0                50               0                
41.6                           0.327370563113815 47.160344782641  0.884884382809515 -36.652520520557 0.884884382809516 -36.6525205205569 0.327195858062093 47.4346678902204 
! Gamma         0                0                0                0                
! Port Impedance         50               0                50               0                
41.7                           0.336245271650086 46.3062753047909 0.88180862672162 -37.7022707062091 0.881808626721621 -37.702270706209 0.336076213746404 46.5723822885233 
! Gamma         0                0                0                0                
! Port Impedance         50               0                50               0                
41.8                           0.344964796231278 45.4476477842604 0.878700346928446 -38.745464975879 0.878700346928448 -38.745464975879 0.344801076086315 45.7060159719426 
! Gamma         0                0                0                0                
! Port Impedance         50               0                50               0                
41.9                           0.353527871164926 44.5855140313459 0.875563744344598 -39.7820581232529 0.875563744344599 -39.7820581232529 0.353369205698582 44.836578387645  
! Gamma         0                0                0                0                
! Port Impedance         50               0                50               0                
42                             0.361933497209449 43.7207990596821 0.872402941550116 -40.8120150295305 0.872402941550117 -40.8120150295304 0.361779626604767 43.9649569476336 
! Gamma         0                0                0                0                
! Port Impedance         50               0                50               0                
42.1                           0.370180926228223 42.8543178127674 0.869221975686034 -41.8353103576198 0.869221975686036 -41.8353103576198 0.370031611312298 43.0919331082665 
! Gamma         0                0                0                0                
! Port Impedance         50               0                50               0                
42.2                           0.378269646420777 41.9867892144037 0.866024792143308 -42.8519282317234 0.866024792143309 -42.8519282317233 0.378124666403094 42.21819587544   
! Gamma         0                0                0                0                
! Port Impedance         50               0                50               0                
42.3                           0.386199368051893 41.1188480401403 0.86281523902569 -43.8618619048721 0.862815239025691 -43.8618619048721 0.386058518563372 41.3443532145029 
! Gamma         0                0                0                0                
! Port Impedance         50               0                50               0                
42.4                           0.393970009626978 40.2510550038506 0.859597062362624 -44.8651134168443 0.859597062362626 -44.8651134168443 0.393833101013174 40.4709417445298 
! Gamma         0                0                0                0                
! Port Impedance         50               0                50               0                
42.5                           0.401581684481995 39.3839053739033 0.856373902044327 -45.8616932447831 0.856373902044328 -45.861693244783 0.401448540312008 39.5984350196934 
! Gamma         0                0                0                0                
! Port Impedance         50               0                50               0                
42.6                           0.409034687770378 38.5178363713129 0.853149288448025 -46.8516199486856 0.853149288448026 -46.8516199486856 0.408905143529685 38.7272506405891 
! Gamma         0                0                0                0                
! Port Impedance         50               0                50               0                
42.7                           0.416329483839246 37.6532335535749 0.849926639721703 -47.8349198137991 0.849926639721704 -47.834919813799 0.416203385779869 37.8577563914401 
! Gamma         0                0                0                0                
! Port Impedance         50               0                50               0                
42.8                           0.4234666939938  36.790436349484  0.846709259689711 -48.8116264918061 0.846709259689712 -48.8116264918061 0.423343898119668 36.9902755620967 
! Gamma         0                0                0                0                
! Port Impedance         50               0                50               0                
42.9                           0.430447084652988 35.9297428797554 0.843500336343085 -49.7817806425389 0.843500336343086 -49.7817806425388 0.430327455821814 36.1250915843973 
! Gamma         0                0                0                0                
! Port Impedance         50               0                50               0                
43                             0.437271555901838 35.0714141739575 0.840302940876474 -50.7454295778065 0.840302940876475 -50.7454295778064 0.437154967027795 35.2624520890467 
! Gamma         0                0                0                0                
! Port Impedance         50               0                50               0                
43.1                           0.443941130446873 34.2156778747559 0.837120027233057 -51.7026269087753 0.837120027233058 -51.7026269087753 0.443827461790746 34.4025724704006 
! Gamma         0                0                0                0                
! Port Impedance         50               0                50               0                
43.2                           0.450456942981047 33.3627315047581 0.833954432118713 -52.6534321981956 0.833954432118715 -52.6534321981955 0.450346081516524 33.5456390314323 
! Gamma         0                0                0                0                
! Port Impedance         50               0                50               0                
43.3                           0.456820229963949 32.512745358514  0.830808875446983 -53.5979106186241 0.830808875446985 -53.5979106186241 0.456712068810404 32.6918117689122 
! Gamma         0                0                0                0                
! Port Impedance         50               0                50               0                
43.4                           0.463032319821859 31.6658650718756 0.827685961176926 -54.5361326176588 0.827685961176928 -54.5361326176587 0.46292675773535 31.8412268488913 
! Gamma         0                0                0                0                
! Port Impedance         50               0                50               0                
43.5                           0.469094623570799 30.822213912466  0.824588178506858 -55.4681735910674 0.82458817850686 -55.4681735910674 0.468991564486188 30.9939988144416 
! Gamma         0                0                0                0                
! Port Impedance         50               0                50               0                
43.6                           0.475008625864028 29.9818948280661 0.821517903388021 -56.3941135645697 0.821517903388022 -56.3941135645696 0.474907978482096 30.1502225609604 
! Gamma         0                0                0                0                
! Port Impedance         50               0                50               0                
43.7                           0.480775876463737 29.1449922840157 0.818477400323528 -57.3140368849123 0.818477400323529 -57.3140368849122 0.48067755387802 29.3099751088454 
! Gamma         0                0                0                0                
! Port Impedance         50               0                50               0                
43.8                           0.486397982134925 28.3115739160044 0.815468824419384 -58.2280319207675 0.815468824419385 -58.2280319207675 0.486301901493688 28.4733171988272 
! Gamma         0                0                0                0                
! Port Impedance         50               0                50               0                
43.9                           0.491876598957772 27.4816920207095 0.812494223655923 -59.136190773882 0.812494223655924 -59.1361907738819 0.491782681157159 27.6402947314822 
! Gamma         0                0                0                0                
! Port Impedance         50               0                50               0                
44                             0.497213425053211 26.6553849034741 0.809555541349667 -60.0386090008053 0.809555541349668 -60.0386090008053 0.497121594458076 26.8109400693202 
! Gamma         0                0                0                0                
! Port Impedance         50               0                50               0                
44.1                           0.502410193714911 25.8326780994938 0.806654618777345 -60.935385345443 0.806654618777347 -60.9353853454431 0.502320377904339 25.9852732172291 
! Gamma         0                0                0                0                
! Port Impedance         50               0                50               0                
44.2                           0.507468666939541 25.013585482693  0.803793197935533 -61.8266214825944 0.803793197935535 -61.8266214825944 0.507380796474392 25.1633028948666 
! Gamma         0                0                0                0                
! Port Impedance         50               0                50               0                
44.3                           0.512390629345969 24.1981102745535 0.80097292441117 -62.7124217725634 0.800972924411171 -62.7124217725634 0.512304637556125 24.3450275127502 
! Gamma         0                0                0                0                
! Port Impedance         50               0                50               0                
44.4                           0.517177882473039 23.386245963527  0.798195350339972 -63.5928930268667 0.798195350339973 -63.5928930268667 0.517093705262308 23.5304360622357 
! Gamma         0                0                0                0                
! Port Impedance         50               0                50               0                
44.5                           0.521832239444601 22.5779771442986 0.795461937431483 -64.4681442849996 0.795461937431484 -64.4681442849996 0.521749815111485 22.7195089282694 
! Gamma         0                0                0                0                
! Port Impedance         50               0                50               0                
44.6                           0.5263555199898  21.7732802849917 0.792774060041238 -65.3382866021703 0.792774060041239 -65.3382866021702 0.526274789062521 21.9122186326663 
! Gamma         0                0                0                0                
! Port Impedance         50               0                50               0                
44.7                           0.530749545805959 20.9721244294175 0.790133008272163 -66.2034328478652 0.790133008272164 -66.2034328478652 0.530670450890352 21.108530514731  
! Gamma         0                0                0                0                
! Port Impedance         50               0                50               0                
44.8                           0.535016136250968 20.1744718406143 0.787539991088923 -67.0636975150678 0.787539991088924 -67.0636975150678 0.534938621889976 20.308403355209  
! Gamma         0                0                0                0                
! Port Impedance         50               0                50               0                
44.9                           0.539157104351745 19.3802785911985 0.784996139430498 -67.9191965399162 0.7849961394305  -67.9191965399162 0.539081116895404 19.5117899488699 
! Gamma         0                0                0                0                
! Port Impedance         50               0                50               0                
45                             0.543174253115064 18.5894951054167 0.782502509307703 -68.7700471315563 0.782502509307705 -68.7700471315563 0.54309974060001 18.718637630412  
! Gamma         0                0                0                0                
! Port Impedance         50               0                50               0                
45.1                           0.547069372127023 17.8020666572464 0.780060084873784 -69.6163676119206 0.780060084873785 -69.6163676119206 0.546996284164609 17.9288887578705 
! Gamma         0                0                0                0                
! Port Impedance         50               0                50               0                
45.2                           0.550844234427309 17.017933828426  0.7776697814575  -70.4582772651416 0.777669781457501 -70.4582772651416 0.550772522099568 17.1424811572514 
! Gamma         0                0                0                0                
! Port Impedance         50               0                50               0                
45.3                           0.554500593644563 16.2370329298844 0.775332448549396 -71.2958961962903 0.775332448549397 -71.2958961962903 0.554430209407293 16.3593485317315 
! Gamma         0                0                0                0                
! Port Impedance         50               0                50               0                
45.4                           0.558040181379247 15.4592963896838 0.773048872733042 -72.1293451991189 0.773048872733043 -72.1293451991188 0.557971078971592 15.5794208384187 
! Gamma         0                0                0                0                
! Port Impedance         50               0                50               0                
45.5                           0.561464704820653 14.6846531102815 0.770819780554161 -72.9587456324738 0.770819780554163 -72.9587456324738 0.561396839180615 14.8026246353733 
! Gamma         0                0                0                0                
! Port Impedance         50               0                50               0                
45.6                           0.564775844584971 13.9130287976401 0.76864584132152 -73.7842193050394 0.768645841321522 -73.7842193050393 0.564709171770323 14.0288834013253 
! Gamma         0                0                0                0                
! Port Impedance         50               0                50               0                
45.7                           0.567975252761606 13.1443462644778 0.76652766983439 -74.6058883680653 0.766527669834391 -74.6058883680653 0.567909729875776 13.2581178302988 
! Gamma         0                0                0                0                
! Port Impedance         50               0                50               0                
45.8                           0.571064551155397 12.3785257097363 0.764465829032215 -75.4238752157324 0.764465829032216 -75.4238752157323 0.571000136277863 12.4902461031444 
! Gamma         0                0                0                0                
! Port Impedance         50               0                50               0                
45.9                           0.574045329712664 11.6154849761576 0.762460832562926 -76.2383023928054 0.762460832562927 -76.2383023928055 0.57398198183352 11.7251841378069 
! Gamma         0                0                0                0                
! Port Impedance         50               0                50               0                
46                             0.576919145119527 10.8551397876937 0.76051314726699 -77.0492925092285 0.760513147266992 -77.0492925092285 0.576856824077862 10.9628458199922 
! Gamma         0                0                0                0                
! Port Impedance         50               0                50               0                
46.1                           0.579687519561367 10.0974039683226 0.758623195574982 -77.8569681613166 0.758623195574983 -77.8569681613166 0.579626185987145 10.2031432157538 
! Gamma         0                0                0                0                
! Port Impedance         50               0                50               0                
46.2                           0.582351939632711 9.34218964371545 0.75679135781697 -78.6614518592045 0.756791357816971 -78.6614518592045 0.582291554891875 9.44598676739728 
! Gamma         0                0                0                0                
! Port Impedance         50               0                50               0                
46.3                           0.584913855387369 8.58940742707473 0.755017974442612 -79.4628659602185 0.755017974442613 -79.4628659602184 0.584854381529918 8.69128547397927 
! Gamma         0                0                0                0                
! Port Impedance         50               0                50               0                
46.4                           0.587374679519081 7.83896659036209 0.75330334815121 -80.2613326078409 0.753303348151211 -80.2613326078409 0.587316079229874 7.93894705758135 
! Gamma         0                0                0                0                
! Port Impedance         50               0                50               0                
46.5                           0.589735786663425 7.09077522203411 0.751647745931488 -81.0569736759499 0.751647745931489 -81.0569736759499 0.589678023215507 7.18887811644224 
! Gamma         0                0                0                0                
! Port Impedance         50               0                50               0                
46.6                           0.591998512812213 6.34474037231845 0.750051401011138 -81.8499107180167 0.750051401011139 -81.8499107180167 0.591941550022471 6.44098426595084 
! Gamma         0                0                0                0                
! Port Impedance         50               0                50               0                
46.7                           0.5941641548321  5.60076818698558 0.74851451471655 -82.6402649209597 0.748514514716551 -82.6402649209597 0.594107957019067 5.69517026842531 
! Gamma         0                0                0                0                
! Port Impedance         50               0                50               0                
46.8                           0.596233970079576 4.85876403049623 0.747037258243375 -83.4281570633557 0.747037258243376 -83.4281570633556 0.596178502023219 4.95134015253428 
! Gamma         0                0                0                0                
! Port Impedance         50               0                50               0                
46.9                           0.598209176104986 4.11863259934388 0.745619774338855 -84.2137074777237 0.745619774338856 -84.2137074777236 0.598154403008328 4.2093973231555  
! Gamma         0                0                0                0                
! Port Impedance         50               0                50               0                
47                             0.600090950438672 3.38027802634874 0.744262178897012 -84.997036016602 0.744262178897013 -84.997036016602 0.600036837891121 3.46924466240787 
! Gamma         0                0                0                0                
! Port Impedance         50               0                50               0                
47.1                           0.601880430452781 2.64360397660828 0.742964562467999 -85.77826202215  0.742964562468   -85.77826202215  0.601826944395025 2.73078462254249 
! Gamma         0                0                0                0                
! Port Impedance         50               0                50               0                
47.2                           0.603578713292698 1.90851373575874 0.741726991683031 -86.5575042990152 0.741726991683032 -86.5575042990151 0.60352581998306 1.99391931132966 
! Gamma         0                0                0                0                
! Port Impedance         50               0                50               0                
47.3                           0.605186855872491 1.17491029115623 0.740549510596457 -87.3348810902163 0.740549510596458 -87.3348810902162 0.605134521854637 1.25855057053547 
! Gamma         0                0                0                0                
! Port Impedance         50               0                50               0                
47.4                           0.606705874929162 0.442696406546614 0.739432141946605 -88.1105100558003 0.739432141946606 -88.1105100558002 0.606654067001055 0.524580048040932 
! Gamma         0                0                0                0                
! Port Impedance         50               0                50               0                
47.5                           0.608136747130858 -0.288225309246808 0.738374888337131 -88.8845082540422 0.738374888337132 -88.8845082540422 0.608085432314872 -0.208090735878762 
! Gamma         0                0                0                0                
! Port Impedance         50               0                50               0                
47.6                           0.609480409234607 -1.0179523391227 0.73737773334064 -89.6569921249647 0.737377733340641 -89.6569921249646 0.609429554748726 -0.939560327633155 
! Gamma         0                0                0                0                
! Port Impedance         50               0                50               0                
47.7                           0.61073775828948 -1.74658219952513 0.736440642526383 -90.4280774759625 0.736440642526384 -90.4280774759625 0.610687331519484 -1.66992728430124 
! Gamma         0                0                0                0                
! Port Impedance         50               0                50               0                
47.8                           0.611909651881436 -2.47421238685842 0.73556356441389 -91.1978794693261 0.735563564413891 -91.197879469326 0.611859620354018 -2.39929012209967 
! Gamma         0                0                0                0                
! Port Impedance         50               0                50               0                
47.9                           0.612996908416412 -3.20094032808688 0.734746431354363 -91.966512611467 0.734746431354364 -91.9665126114669 0.612947239773154 -3.12774726893765 
! Gamma         0                0                0                0                
! Port Impedance         50               0                50               0                
48                             0.614000307438592 -3.9268633351396 0.733989160341692 -92.7340907436533 0.733989160341693 -92.7340907436532 0.613950969410731 -3.85539702068711 
! Gamma         0                0                0                0                
! Port Impedance         50               0                50               0                
48.1                           0.614920589981017 -4.65207856276186 0.733291653754937 -93.5007270340747 0.733291653754938 -93.5007270340746 0.61487155036496 -4.58233750081808 
! Gamma         0                0                0                0                
! Port Impedance         50               0                50               0                
48.2                           0.615758458946054 -5.37668296947811 0.732653800034086 -94.2665339710597 0.732653800034087 -94.2665339710597 0.615709685579566 -5.30866662307156 
! Gamma         0                0                0                0                
! Port Impedance         50               0                50               0                
48.3                           0.61651457951348 -6.10077328134954 0.732075474290903 -95.0316233572782 0.732075474290904 -95.0316233572781 0.616466040252509 -6.0344820568602 
! Gamma         0                0                0                0                
! Port Impedance         50               0                50               0                
48.4                           0.617189579574202 -6.82444595822851 0.73155653885663 -95.7961063047659 0.73155653885663 -95.7961063047659 0.617141242270294 -6.75988119510511 
! Gamma         0                0                0                0                
! Port Impedance         50               0                50               0                
48.5                           0.617784050187905 -7.54779716222932 0.731096843768271 -96.5600932306165 0.731096843768272 -96.5600932306165 0.617735882666161 -7.4849611242346 
! Gamma         0                0                0                0                
! Port Impedance         50               0                50               0                
48.6                           0.618298546063145 -8.27092272814857 0.730696227195183 -97.3236938531903 0.730696227195184 -97.3236938531903 0.618250516100675 -8.20981859608402 
! Gamma         0                0                0                0                
! Port Impedance         50               0                50               0                
48.7                           0.618733586058625 -8.99391813558584 0.730354515807607 -98.0870171886963 0.730354515807608 -98.0870171886962 0.618685661363474 -8.93455000145244 
! Gamma         0                0                0                0                
! Port Impedance         50               0                50               0                
48.8                           0.619089653704632 -9.71687848252565 0.730071525088775 -98.8501715480082 0.730071525088777 -98.8501715480082 0.619041801895124 -9.65925134508216 
! Gamma         0                0                0                0                
! Port Impedance         50               0                50               0                
48.9                           0.619367197743798 -10.4398984601559 0.72984705959217 -99.6132645335816 0.729847059592171 -99.6132645335816 0.619319386328283 -10.3840182218414 
! Gamma         0                0                0                0                
! Port Impedance         50               0                50               0                
49                             0.619566632690557 -11.1630723287097 0.729680913145475 -100.376403036342 0.729680913145476 -100.376403036342 0.619518829047517 -11.1089457939011 
! Gamma         0                0                0                0                
! Port Impedance         50               0                50               0                
49.1                           0.619688339408863 -11.8864938941255 0.729572869002714 -101.139693232419 0.729572869002715 -101.139693232419 0.619640510767348 -11.8341287687055 
! Gamma         0                0                0                0                
! Port Impedance         50               0                50               0                
49.2                           0.619732665707897 -12.6102564853343 0.729522699946039 -101.90324057961 0.72952269994604 -101.90324057961 0.619684779128271 -12.559661377549 
! Gamma         0                0                0                0                
! Port Impedance         50               0                50               0                
49.3                           0.619699926955676 -13.3344529319884 0.729530168338587 -102.667149813452 0.729530168338587 -102.667149813452 0.619651949310637 -13.2856373545777 
! Gamma         0                0                0                0                
! Port Impedance         50               0                50               0                
49.4                           0.619590406710634 -14.0591755424552 0.729595026129801 -103.431524942794 0.729595026129802 -103.431524942793 0.619542304666495 -14.0121499160439 
! Gamma         0                0                0                0                
! Port Impedance         50               0                50               0                
49.5                           0.619404357371413 -14.7845160819099 0.729717014814578 -104.196469244751 0.729717014814579 -104.196469244751 0.619356097369605 -14.739291739649 
! Gamma         0                0                0                0                
! Port Impedance         50               0                50               0                
49.6                           0.619142000845217 -15.5105657503647 0.729895865347559 -104.962085258958 0.72989586534756 -104.962085258958 0.619093549084009 -15.4671549438183 
! Gamma         0                0                0                0                
! Port Impedance         50               0                50               0                
49.7                           0.618803529235269 -16.2374151604809 0.730131298013888 -105.728474780988 0.730131298013889 -105.728474780988 0.618754851651669 -16.1958310667559 
! Gamma         0                0                0                0                
! Port Impedance         50               0                50               0                
49.8                           0.618389105547996 -16.9651543150179 0.730423022257733 -106.495738854862 0.730423022257734 -106.495738854862 0.618340167799826 -16.9254110451377 
! Gamma         0                0                0                0                
! Port Impedance         50               0                50               0                
49.9                           0.617898864420744 -17.6938725837747 0.730770736469828 -107.263977764548 0.730770736469829 -107.263977764548 0.617849631868861 -17.6559851923016 
! Gamma         0                0                0                0                
! Port Impedance         50               0                50               0                
50                             0.617332912870896 -18.4236586798912 0.731174127735336 -108.033291024346 0.731174127735336 -108.033291024346 0.617283350561545 -18.3876431758053 
! Gamma         0                0                0                0                
! Port Impedance         50               0                50               0                
50.1                           0.616691331067416 -19.1546006353761 0.731632871543274 -108.803777368083 0.731632871543274 -108.803777368083 0.616641403714704 -19.1204739942215 
! Gamma         0                0                0                0                
! Port Impedance         50               0                50               0                
50.2                           0.615974173125941 -19.8867857757375 0.732146631458801 -109.575534737018 0.732146631458801 -109.575534737018 0.615923845094398 -19.8545659530504 
! Gamma         0                0                0                0                
! Port Impedance         50               0                50               0                
50.3                           0.615181467928617 -20.6203006935953 0.732715058759631 -110.348660266385 0.732715058759631 -110.348660266385 0.615130703215858 -20.5900066396312 
! Gamma         0                0                0                0                
! Port Impedance         50               0                50               0                
50.4                           0.614313219970027 -21.3552312211585 0.733337792037886 -111.123250270477 0.733337792037888 -111.123250270477 0.614261982189467 -21.3268828969404 
! Gamma         0                0                0                0                
! Port Impedance         50               0                50               0                
50.5                           0.613369410230574 -22.0916624014576 0.734014456768718 -111.899400226207 0.73401445676872 -111.899400226207 0.613317662594213 -22.0652807961673 
! Gamma         0                0                0                0                
! Port Impedance         50               0                50               0                
50.6                           0.612349997078831 -22.8296784582233 0.734744664847041 -112.677204755056 0.734744664847042 -112.677204755056 0.612297702380069 -22.805285607966 
! Gamma         0                0                0                0                
! Port Impedance         50               0                50               0                
50.7                           0.611254917204388 -23.5693627643102 0.73552801409379 -113.456757603344 0.735528014093791 -113.456757603344 0.611202037800881 -23.5469817722814 
! Gamma         0                0                0                0                
! Port Impedance         50               0                50               0                
50.8                           0.610084086582833 -24.3107978085671 0.736364087733146 -114.238151620753 0.736364087733147 -114.238151620753 0.610030584379362 -24.2904528666565 
! Gamma         0                0                0                0                
! Port Impedance         50               0                50               0                
50.9                           0.608837401474538 -25.0540651610593 0.737252453842209 -115.021478737023 0.73725245384221 -115.021478737023 0.608783237905883 -25.0357815729307 
! Gamma         0                0                0                0                
! Port Impedance         50               0                50               0                
51                             0.607514739458983 -25.7992454365537 0.738192664774711 -115.806829936771 0.738192664774712 -115.806829936771 0.607459875472794 -25.7830496422413 
! Gamma         0                0                0                0                
! Port Impedance         50               0                50               0                
51.1                           0.606115960506378 -26.5464182561827 0.739184256560362 -116.594295232374 0.739184256560362 -116.594295232374 0.606060356546035 -26.5323378582503 
! Gamma         0                0                0                0                
! Port Impedance         50               0                50               0                
51.2                           0.604640908088407 -27.2956622072051 0.74022674828158 -117.383963634834 0.740226748281581 -117.383963634834 0.604584524075845 -27.2837259985166 
! Gamma         0                0                0                0                
! Port Impedance         50               0                50               0                
51.3                           0.603089410329893 -28.0470548007898 0.741319641429375 -118.175923122609 0.741319641429375 -118.175923122609 0.603032205648399 -28.0372927939452 
! Gamma         0                0                0                0                
! Port Impedance         50               0                50               0                
51.4                           0.601461281203244 -28.8006724277503 0.74246241924028 -118.970260608333 0.742462419240281 -118.970260608333 0.601403214680203 -28.7931158862448 
! Gamma         0                0                0                0                
! Port Impedance         50               0                50               0                
51.5                           0.599756321767509 -29.5565903121675 0.743654546016353 -119.767061903388 0.743654546016354 -119.767061903388 0.599697351657097 -29.5512717833348 
! Gamma         0                0                0                0                
! Port Impedance         50               0                50               0                
51.6                           0.597974321453871 -30.3148824628373 0.744895466430314 -120.566411680299 0.744895466430315 -120.566411680299 0.597914405419686 -30.3118358126451 
! Gamma         0                0                0                0                
! Port Impedance         50               0                50               0                
51.7                           0.59611505939939 -31.0756216224925 0.746184604818093 -121.368393432906 0.746184604818094 -121.368393432906 0.596054154497003 -31.0748820722606 
! Gamma         0                0                0                0                
! Port Impedance         50               0                50               0                
51.8                           0.594178305830759 -31.83887921475  0.747521364461103 -122.173089434288 0.747521364461104 -122.173089434288 0.594116368490192 -31.8404833798674 
! Gamma         0                0                0                0                
! Port Impedance         50               0                50               0                
51.9                           0.592163823499801 -32.6047252887408 0.74890512686075 -122.980580692419 0.748905126860751 -122.980580692419 0.5921008095079  -32.608711219465 
! Gamma         0                0                0                0                
! Port Impedance         50               0                50               0                
52                             0.590071369172343 -33.3732284613913 0.750335251007805 -123.790946903543 0.750335251007806 -123.790946903543 0.59000723365507 -33.3796356858145 
! Gamma         0                0                0                0                
! Port Impedance         50               0                50               0                
52.1                           0.587900695172064 -34.1444558573266 0.751811072649414 -124.604266403251 0.751811072649415 -124.604266403251 0.587835392576664 -34.1533254266048 
! Gamma         0                0                0                0                
! Port Impedance         50               0                50               0                
52.2                           0.585651550980769 -34.9184730463782 0.753331903556684 -125.420616115264 0.753331903556685 -125.420616115264 0.585585035057831 -34.9298475823203 
! Gamma         0                0                0                0                
! Port Impedance         50               0                50               0                
52.3                           0.583323684896454 -35.6953439786844 0.754897030795931 -126.240071497937 0.754897030795931 -126.240071497937 0.583255908681841 -35.7092677238086 
! Gamma         0                0                0                0                
! Port Impedance         50               0                50               0                
52.4                           0.580916845750385 -36.4751309173826 0.756505716006846 -127.062706488482 0.756505716006847 -127.062706488483 0.580847761547039 -36.4916497875519 
! Gamma         0                0                0                0                
! Port Impedance         50               0                50               0                
52.5                           0.578430784684259 -37.2578943689001 0.758157194691017 -127.888593444955 0.758157194691017 -127.888593444955 0.578360344043857 -37.2770560086572 
! Gamma         0                0                0                0                
! Port Impedance         50               0                50               0                
52.6                           0.575865256988332 -38.0436930108607 0.75985067551437 -128.71780308602 0.75985067551437 -128.71780308602 0.575793410692798 -38.0655468515908 
! Gamma         0                0                0                0                
! Port Impedance         50               0                50               0                
52.7                           0.573220024001212 -38.8325836176357 0.761585339627327 -129.550404428567 0.761585339627327 -129.550404428567 0.573146722044072 -38.8571809386922 
! Gamma         0                0                0                0                
! Port Impedance         50               0                50               0                
52.8                           0.57049485507179 -39.6246209835776 0.763360340006595 -130.3864647232  0.763360340006596 -130.3864647232  0.570420046639358 -39.6520149765162 
! Gamma         0                0                0                0                
! Port Impedance         50               0                50               0                
52.9                           0.567689529583543 -40.419857843987 0.765174800822705 -131.2260493877  0.765174800822706 -131.2260493877  0.56761316303594 -40.4501036800613 
! Gamma         0                0                0                0                
! Port Impedance         50               0                50               0                
53                             0.564803839041176 -41.2183447938754 0.767027816837569 -132.069221938522 0.767027816837569 -132.069221938522 0.56472586189316 -41.2514996949592 
! Gamma         0                0                0                0                
! Port Impedance         50               0                50               0                
53.1                           0.561837589219266 -42.0201302045992 0.768918452836497 -132.916043920424 0.768918452836497 -132.916043920424 0.561757948120878 -42.0562535177084 
! Gamma         0                0                0                0                
! Port Impedance         50               0                50               0                
53.2                           0.558790602372281 -42.8252601384545 0.770845743099278 -133.766574834341 0.770845743099278 -133.766574834341 0.558709243089292 -42.8644134140553 
! Gamma         0                0                0                0                
! Port Impedance         50               0                50               0                
53.3                           0.55566271950499 -43.6337782613334 0.772808690915056 -134.620872063615 0.772808690915057 -134.620872063615 0.555579586899142 -43.6760253356337 
! Gamma         0                0                0                0                
! Port Impedance         50               0                50               0                
53.4                           0.552453802701911 -44.4457257535606 0.774806268145898 -135.478990798727 0.774806268145898 -135.478990798727 0.55236884071094 -44.4911328349947 
! Gamma         0                0                0                0                
! Port Impedance         50               0                50               0                
53.5                           0.549163737514072 -45.2611412190411 0.776837414844059 -136.340983960669 0.77683741484406 -136.340983960669 0.549076889131513 -45.3097769791719 
! Gamma         0                0                0                0                
! Port Impedance         50               0                50               0                
53.6                           0.545792435400918 -46.0800605928661 0.778901038928073 -137.206902123138 0.778901038928073 -137.206902123138 0.545703642655676 -46.1319962619428 
! Gamma         0                0                0                0                
! Port Impedance         50               0                50               0                
53.7                           0.542339836224791 -46.9025170475403 0.780996015922882 -138.07679343372 0.780996015922883 -138.07679343372 0.54224904016047 -46.9578265149654 
! Gamma         0                0                0                0                
! Port Impedance         50               0                50               0                
53.8                           0.538805910794915 -47.7285408980093 0.7831211887693  -138.950703534275 0.7831211887693  -138.950703534275 0.538713051448902 -47.7873008179853 
! Gamma         0                0                0                0                
! Port Impedance         50               0                50               0                
53.9                           0.535190663457368 -48.5581595056808 0.785275367708148 -139.828675480723 0.785275367708148 -139.828675480723 0.535095679839656 -48.6204494083249 
! Gamma         0                0                0                0                
! Port Impedance         50               0                50               0                
54                             0.531494134726974 -49.3913971816536 0.787457330244451 -140.710749662482 0.787457330244451 -140.710749662483 0.531396964798717 -49.4572995898876 
! Gamma         0                0                0                0                
! Port Impedance         50               0                50               0                
54.1                           0.527716403956577 -50.2282750893805 0.789665821197034 -141.596963721799 0.789665821197033 -141.596963721799 0.527616984608373 -50.2978756419233 
! Gamma         0                0                0                0                
! Port Impedance         50               0                50               0                
54.2                           0.523857592038571 -51.06881114701  0.791899552838883 -142.487352473227 0.791899552838883 -142.487352473227 0.523755859068459 -51.1421987278221 
! Gamma         0                0                0                0                
! Port Impedance         50               0                50               0                
54.3                           0.519917864133046 -51.9130199296696 0.794157205133532 -143.381947823565 0.794157205133532 -143.381947823565 0.5198137522242  -51.9902868042229 
! Gamma         0                0                0                0                
! Port Impedance         50               0                50               0                
54.4                           0.515897432416301 -52.7609125719652 0.796437426072632 -144.280778692524 0.796437426072632 -144.280778692524 0.51579087511443 -52.8421545307359 
! Gamma         0                0                0                0                
! Port Impedance         50               0                50               0                
54.5                           0.511796558842949 -53.6124966709935 0.798738832119744 -145.183870934463 0.798738832119744 -145.183870934463 0.511687488533379 -53.6978131806029 
! Gamma         0                0                0                0                
! Port Impedance         50               0                50               0                
54.6                           0.507615557914236 -54.4677761901732 0.801060008765191 -146.091247261514 0.80106000876519 -146.091247261514 0.507503905798666 -54.5572705526316 
! Gamma         0                0                0                0                
! Port Impedance         50               0                50               0                
54.7                           0.5033547994446  -55.3267513642211 0.803399511196572 -147.002927168453 0.803399511196571 -147.002927168453 0.503240495517522 -55.4205308847588 
! Gamma         0                0                0                0                
! Port Impedance         50               0                50               0                
54.8                           0.499014711317977 -56.189418605609 0.805755865089299 -147.918926859669 0.805755865089299 -147.918926859669 0.498897684342758 -56.2875947696152 
! Gamma         0                0                0                0                
! Port Impedance         50               0                50               0                
54.9                           0.494595782224746 -57.0557704128548 0.808127567521148 -148.83925917862 0.808127567521147 -148.83925917862 0.494475959709345 -57.1584590724781 
! Gamma         0                0                0                0                
! Port Impedance         50               0                50               0                
55                             0.490098564369679 -57.9257952810088 0.810513088014477 -149.763933540157 0.810513088014477 -149.763933540157 0.489975872542007 -58.0331168520147 
! Gamma         0                0                0                0                
! Port Impedance         50               0                50               0                
55.1                           0.485523676140753 -58.7994776147122 0.812910869709331 -150.692955866114 0.812910869709331 -150.692955866114 0.485398039923648 -58.911557284232 
! Gamma         0                0                0                0                
! Port Impedance         50               0                50               0                
55.2                           0.480871804728134 -59.6767976442092 0.815319330670168 -151.626328524587 0.815319330670167 -151.626328524587 0.480743147713953 -59.7937655900645 
! Gamma         0                0                0                0                
! Port Impedance         50               0                50               0                
55.3                           0.476143708682236 -60.5577313447064 0.81773686532841 -152.564050273301 0.81773686532841 -152.564050273301 0.476011953107046 -60.6797229670372 
! Gamma         0                0                0                0                
! Port Impedance         50               0                50               0                
55.4                           0.471340220399278 -61.4422503594789 0.820161846062468 -153.506116207503 0.820161846062467 -153.506116207503 0.471205287116625 -61.5694065254592 
! Gamma         0                0                0                0                
! Port Impedance         50               0                50               0                
55.5                           0.466462248522406 -62.3303219271243 0.822592624916204 -154.452517712802 0.822592624916204 -154.452517712803 0.466324056976678 -62.4627892296041 
! Gamma         0                0                0                0                
! Port Impedance         50               0                50               0                
55.6                           0.461510780246135 -63.2219088133738 0.825027535456167 -155.403242423392 0.825027535456166 -155.403242423392 0.461369248445479 -63.3598398443497 
! Gamma         0                0                0                0                
! Port Impedance         50               0                50               0                
55.7                           0.456486883511566 -64.1169692478638 0.827464894767154 -156.358274186071 0.827464894767153 -156.358274186071 0.456341928000358 -64.2605228877451 
! Gamma         0                0                0                0                
! Port Impedance         50               0                50               0                
55.8                           0.451391709079655 -65.0154568662789 0.829903005584907 -157.317593030502 0.829903005584906 -157.317593030502 0.451243244910513 -65.1647985899885 
! Gamma         0                0                0                0                
! Port Impedance         50               0                50               0                
55.9                           0.446226492469684 -65.9173206582634 0.832340158563908 -158.281175146124 0.832340158563907 -158.281175146124 0.446074433175009 -66.07262285929  
! Gamma         0                0                0                0                
! Port Impedance         50               0                50               0                
56                             0.440992555750034 -66.8225049215033 0.834774634677387 -159.248992866116 0.834774634677386 -159.248992866116 0.440836813313073 -66.9839472551055 
! Gamma         0                0                0                0                
! Port Impedance         50               0                50               0                
56.1                           0.435691309168405 -67.730949222364 0.837204707745756 -160.221014658831 0.837204707745755 -160.221014658831 0.435531793993816 -67.8987189692184 
! Gamma         0                0                0                0                
! Port Impedance         50               0                50               0                
56.2                           0.430324252608756 -68.642588363466 0.839628647088762 -161.197205127061 0.839628647088761 -161.197205127061 0.43016087349268 -68.8168808151483 
! Gamma         0                0                0                0                
! Port Impedance         50               0                50               0                
56.3                           0.424892976862477 -69.5573523585662 0.842044720295712 -162.177525015515 0.842044720295711 -162.177525015515 0.424725640962091 -69.7383712263618 
! Gamma         0                0                0                0                
! Port Impedance         50               0                50               0                
56.4                           0.419399164701627 -70.4751664150969 0.844451196107145 -163.16193122684 0.844451196107144 -163.16193122684 0.419227777504189 -70.6631242637529 
! Gamma         0                0                0                0                
! Port Impedance         50               0                50               0                
56.5                           0.413844591742517 -71.395950924705 0.846846347400386 -164.150376846511 0.846846347400385 -164.150376846511 0.413669057033886 -71.5910696328613 
! Gamma         0                0                0                0                
! Port Impedance         50               0                50               0                
56.6                           0.408231127088455 -72.3196214621103 0.849228454270429 -165.14281117687 0.849228454270428 -165.14281117687 0.408051346921104 -72.5221327112809 
! Gamma         0                0                0                0                
! Port Impedance         50               0                50               0                
56.7                           0.402560733741128 -73.246088792592 0.85159580719666 -166.139179780578 0.851595807196658 -166.139179780578 0.402376608401625 -73.4562345867184 
! Gamma         0                0                0                0                
! Port Impedance         50               0                50               0                
56.8                           0.396835468770856 -74.1752588883869 0.853946710284966 -167.139424533697 0.853946710284965 -167.139424533697 0.396646896746847 -74.3932921061417 
! Gamma         0                0                0                0                
! Port Impedance         50               0                50               0                
56.9                           0.391057483236809 -75.1070329542716 0.85627948457393 -168.143483688592 0.856279484573928 -168.143483688592 0.39086436118352 -75.333217936469 
! Gamma         0                0                0                0                
! Port Impedance         50               0                50               0                
57                             0.385229021849304 -76.0413074625803 0.858592471392855 -169.151291946787 0.858592471392854 -169.151291946787 0.385031244555559 -76.2759206372313 
! Gamma         0                0                0                0                
! Port Impedance         50               0                50               0                
57.1                           0.379352422367303 -76.9779741978939 0.860884035758657 -170.162780541882 0.860884035758656 -170.162780541882 0.379149882721123 -77.2213047456581 
! Gamma         0                0                0                0                
! Port Impedance         50               0                50               0                
57.2                           0.373430114725479 -77.9169203116272 0.863152569797805 -171.177877332575 0.863152569797804 -171.177877332575 0.373222703679294 -78.1692708746261 
! Gamma         0                0                0                0                
! Port Impedance         50               0                50               0                
57.3                           0.367464619886462 -78.8580283867244 0.865396496178869 -172.196506905811 0.865396496178868 -172.196506905811 0.367252226421991 -79.1197158239327 
! Gamma         0                0                0                0                
! Port Impedance         50               0                50               0                
57.4                           0.361458548415203 -79.8011765126785 0.867614271540627 -173.218590689982 0.867614271540626 -173.218590689982 0.361241059508102 -80.072532705363 
! Gamma         0                0                0                0                
! Port Impedance         50               0                50               0                
57.5                           0.355414598773882 -80.7462383710782 0.869804389900118 -174.244047078109 0.869804389900116 -174.244047078109 0.355191899358243 -81.0276110820495 
! Gamma         0                0                0                0                
! Port Impedance         50               0                50               0                
57.6                           0.349335555337217 -81.6930833319103 0.871965386024685 -175.272791560838 0.871965386024684 -175.272791560838 0.349107528270053 -81.984837122656 
! Gamma         0                0                0                0                
! Port Impedance         50               0                50               0                
57.7                           0.343224286129622 -82.6415765608505 0.874095838751675 -176.304736869045 0.874095838751673 -176.304736869045 0.342990812155494 -82.9440937709616 
! Gamma         0                0                0                0                
! Port Impedance         50               0                50               0                
57.8                           0.337083740287203 -83.5915791378183 0.876194374239308 -177.339793125793 0.876194374239307 -177.339793125793 0.336844698003196 -83.9052609314858 
! Gamma         0                0                0                0                
! Port Impedance         50               0                50               0                
57.9                           0.330916945249255 -84.5429481871057 0.878259669132143 -178.37786800732 0.878259669132142 -178.37786800732 0.330672211070526 -84.8682156718655 
! Gamma         0                0                0                0                
! Port Impedance         50               0                50               0                
58                             0.32472700368546 -85.4955370194614 0.880290453624591 -179.418866912693 0.880290453624589 -179.418866912693 0.324476451811658 -85.8328324428005 
! Gamma         0                0                0                0                
! Port Impedance         50               0                50               0                
58.1                           0.31851709016667 -86.4491952865852 0.882285514406141 179.537306858293 0.88228551440614 179.537306858293 0.318260592549587 -86.7989833164958 
! Gamma         0                0                0                0                
! Port Impedance         50               0                50               0                
58.2                           0.312290447588733 -87.4037691485987 0.884243697472241 178.49075191946  0.884243697472239 178.49075191946  0.312027873901599 -87.7665382446796 
! Gamma         0                0                0                0                
! Port Impedance         50               0                50               0                
58.3                           0.306050383360351 -88.3591014551915 0.886163910785213 177.441568605347 0.886163910785211 177.441568605347 0.305781600969287 -88.7353653374553 
! Gamma         0                0                0                0                
! Port Impedance         50               0                50               0                
58.4                           0.299800265367504 -89.3150319413014 0.888045126770177 176.389858771635 0.888045126770176 176.389858771635 0.299525139305734 -89.7053311644536 
! Gamma         0                0                0                0                
! Port Impedance         50               0                50               0                
58.5                           0.293543517728372 -90.2713974384005 0.889886384631605 175.335725589533 0.889886384631603 175.335725589533 0.293261910673929 -90.6763010800127 
! Gamma         0                0                0                0                
! Port Impedance         50               0                50               0                
58.6                           0.287283616354063 -91.2280321026956 0.891686792476979 174.279273334767 0.891686792476978 174.279273334767 0.286995388611823 -91.6481395744109 
! Gamma         0                0                0                0                
! Port Impedance         50               0                50               0                
58.7                           0.281024084331667 -92.1847676618569 0.893445529234957 173.220607171863 0.893445529234956 173.220607171863 0.280729093820733 -92.6207106535389 
! Gamma         0                0                0                0                
! Port Impedance         50               0                50               0                
58.8                           0.274768487147312 -93.1414336822424 0.895161846356466 172.159832934479 0.895161846356465 172.159832934479 0.274466589394941 -93.5938782498125 
! Gamma         0                0                0                0                
! Port Impedance         50               0                50               0                
58.9                           0.268520427767881 -94.0978578590104 0.896835069288326 171.097056902519 0.896835069288324 171.097056902519 0.268211475911345 -94.5675066676255 
! Gamma         0                0                0                0                
! Port Impedance         50               0                50               0                
59                             0.262283541600913 -95.0538663320162 0.898464598710209 170.032385576819 0.898464598710208 170.032385576819 0.261967386398947 -95.5414610672149 
! Gamma         0                0                0                0                
! Port Impedance         50               0                50               0                
59.1                           0.256061491352927 -96.009284030984 0.900049911527078 168.965925452221 0.900049911527077 168.965925452221 0.255737981208682 -96.5156079914733 
! Gamma         0                0                0                0                
! Port Impedance         50               0                50               0                
59.2                           0.249857961806903 -96.963935054149 0.901590561610621 167.897782789828 0.90159056161062 167.897782789828 0.249526942804669 -97.4898159410362 
! Gamma         0                0                0                0                
! Port Impedance         50               0                50               0                
59.3                           0.243676654540113 -97.9176430853818 0.903086180284632 166.828063389288 0.90308618028463 166.828063389288 0.243337970498432 -98.4639560038541 
! Gamma         0                0                0                0                
! Port Impedance         50               0                50               0                
59.4                           0.23752128260361 -98.8702318557779 0.904536476550776 165.756872361923 0.904536476550776 165.756872361923 0.237174775147872 -99.4379025465262 
! Gamma         0                0                0                0                
! Port Impedance         50               0                50               0                
59.5                           0.231395565184786 -99.8215256568163 0.905941237052676 164.684313905531 0.905941237052675 164.684313905531 0.231041073842862 -100.411533975856 
! Gamma         0                0                0                0                
! Port Impedance         50               0                50               0                
59.6                           0.225303222274196 -100.771349913521 0.907300325777754 163.610491081689 0.907300325777753 163.610491081689 0.224940584599302 -101.384733580503 
! Gamma         0                0                0                0                
! Port Impedance         50               0                50               0                
59.7                           0.219247969357578 -101.719531827576 0.908613683497807 162.535505596353 0.908613683497806 162.535505596353 0.218877021083212 -102.357390464192 
! Gamma         0                0                0                0                
! Port Impedance         50               0                50               0                
59.8                           0.213233512153466 -102.665901102165 0.909881326950751 161.459457584556 0.909881326950751 161.459457584557 0.21285408738604 -103.329400583815 
! Gamma         0                0                0                0                
! Port Impedance         50               0                50               0                
59.9                           0.20726354141616 -103.61029076235 0.911103347767436 160.382445399965 0.911103347767435 160.382445399965 0.206875472871894 -104.300667907851 
! Gamma         0                0                0                0                
! Port Impedance         50               0                50               0                
60                             0.20134172782299 -104.552538087261 0.91227991114886 159.304565410032 0.912279911148859 159.304565410032 0.200944847116649 -105.271105713004 
! Gamma         0                0                0                0                
! Port Impedance         50               0                50               0                
60.1                           0.195471716963862 -105.492485673162 0.913411254300434 158.22591179746  0.913411254300434 158.225911797461 0.195065854958154 -106.240638039736 
! Gamma         0                0                0                0                
! Port Impedance         50               0                50               0                
60.2                           0.189657124450018 -106.429982649702 0.914497684631249 157.14657636865  0.914497684631248 157.14657636865  0.189242111675854 -107.209201330587 
! Gamma         0                0                0                0                
! Port Impedance         50               0                50               0                
60.3                           0.183901531157689 -107.364886075463 0.915539577727471 156.06664836975  0.915539577727471 156.06664836975  0.18347719831714 -108.176746278812 
! Gamma         0                0                0                0                
! Port Impedance         50               0                50               0                
60.4                           0.178208478621107 -108.297062543236 0.91653737511012 154.986214310924 0.916537375110119 154.986214310924 0.17777465718675 -109.143239919056 
! Gamma         0                0                0                0                
! Port Impedance         50               0                50               0                
60.5                           0.172581464587947 -109.226390030512 0.917491581788448 153.90535779936  0.917491581788447 153.90535779936  0.172137987514433 -110.1086679965  
! Gamma         0                0                0                0                
! Port Impedance         50               0                50               0                
60.6                           0.167023938748901 -110.15276003643 0.918402763621069 152.82415938153  0.91840276362107 152.82415938153  0.166570641315067 -111.073037656274 
! Gamma         0                0                0                0                
! Port Impedance         50               0                50               0                
60.7                           0.161539298651677 -111.076080053064 0.919271544497738 151.742696395144 0.919271544497738 151.742696395144 0.161076019454348 -112.036380500975 
! Gamma         0                0                0                0                
! Port Impedance         50               0                50               0                
60.8                           0.156130885808372 -111.996276426506 0.920098603355337 150.661042831198 0.920098603355337 150.661042831198 0.155657467932273 -112.998756070881 
! Gamma         0                0                0                0                
! Port Impedance         50               0                50               0                
60.9                           0.150801982003869 -112.913297671818 0.920884671042211 149.579269206467 0.920884671042211 149.579269206467 0.150318274395789 -113.960255808972 
! Gamma         0                0                0                0                
! Port Impedance         50               0                50               0                
61                             0.145555805811715 -113.827118315668 0.92163052704535 148.49744244672  0.921630527045349 148.49744244672  0.14506166489134 -114.921007581188 
! Gamma         0                0                0                0                
! Port Impedance         50               0                50               0                
61.1                           0.140395509323006 -114.737743351431 0.922336996095263 147.415625780924 0.922336996095264 147.415625780924 0.139890800867675 -115.881180831366 
! Gamma         0                0                0                0                
! Port Impedance         50               0                50               0                
61.2                           0.135324175093027 -115.645213403702 0.923004944663569 146.333878646603 0.923004944663568 146.333878646603 0.134808776439192 -116.840992460025 
! Gamma         0                0                0                0                
! Port Impedance         50               0                50               0                
61.3                           0.130344813310044 -116.549610712628 0.923635277368349 145.252256606513 0.923635277368349 145.252256606513 0.12981861592039 -117.800713526363 
! Gamma         0                0                0                0                
! Port Impedance         50               0                50               0                
61.4                           0.125460359190675 -117.451066062978 0.924228933302353 144.170811276704 0.924228933302353 144.170811276704 0.124923271642853 -118.760676883254 
! Gamma         0                0                0                0                
! Port Impedance         50               0                50               0                
61.5                           0.120673670606902 -118.349766798356 0.924786882298894 143.08959026603  0.924786882298894 143.08959026603  0.120125622067556 -119.721285865164 
! Gamma         0                0                0                0                
! Port Impedance         50               0                50               0                
61.6                           0.115987525951074 -119.245966076942 0.925310121150131 142.008637127089 0.925310121150132 142.008637127089 0.115428470207385 -120.683024158177 
! Gamma         0                0                0                0                
! Port Impedance         50               0                50               0                
61.7                           0.111404622247513 -120.139993540949 0.92579966979202 140.927991318564 0.92579966979202 140.927991318564 0.110834542377777 -121.646466988538 
! Gamma         0                0                0                0                
! Port Impedance         50               0                50               0                
61.8                           0.106927573522531 -121.03226758668 0.926256567469855 139.847688178856 0.926256567469855 139.847688178856 0.106346487297234 -122.612293769955 
! Gamma         0                0                0                0                
! Port Impedance         50               0                50               0                
61.9                           0.102558909449326 -121.923309434027 0.926681868897802 138.767758910912 0.926681868897802 138.767758910912 0.101966875564558 -123.581302348257 
! Gamma         0                0                0                0                
! Port Impedance         50               0                50               0                
62                             0.0983010742903464 -122.813759201363 0.927076640425296 137.68823057806  0.927076640425297 137.68823057806  0.0976981995459539 -124.554424971971 
! Gamma         0                0                0                0                
! Port Impedance         50               0                50               0                
62.1                           0.0941564261677878 -123.704394190938 0.927441956222546 136.609126110683 0.927441956222547 136.609126110683 0.093542873712773 -125.532746095193 
! Gamma         0                0                0                0                
! Port Impedance         50               0                50               0                
62.2                           0.0901272367030832 -124.596149576807 0.92777889449676 135.530464323496 0.92777889449676 135.530464323496 0.0895032354797812 -126.517522079472 
! Gamma         0                0                0                0                
! Port Impedance         50               0                50               0                
62.3                           0.0862156910789943 -125.49014165614 0.928088533750011 134.452259943185 0.928088533750012 134.452259943185 0.0855815466042794 -127.510202797557 
! Gamma         0                0                0                0                
! Port Impedance         50               0                50               0                
62.4                           0.0824238885933856 -126.387693767946 0.928371949088951 133.374523646144 0.928371949088952 133.374523646144 0.081779995218073 -128.512455044827 
! Gamma         0                0                0                0                
! Port Impedance         50               0                50               0                
62.5                           0.0787538437921831 -127.290364890393 0.928630208595847 132.297262106009 0.928630208595848 132.297262106009 0.0781006985767045 -129.526187522768 
! Gamma         0                0                0                0                
! Port Impedance         50               0                50               0                
62.6                           0.0752074882903608 -128.199980786401 0.928864369769691 131.220478050698 0.928864369769692 131.220478050698 0.0745457066227929 -130.553576958979 
! Gamma         0                0                0                0                
! Port Impedance         50               0                50               0                
62.7                           0.0717866734136594 -129.11866736069 0.92907547604539 130.144170328632 0.929075476045391 130.144170328633 0.0711170064713402 -131.59709465316 
! Gamma         0                0                0                0                
! Port Impedance         50               0                50               0                
62.8                           0.0684931738193204 -130.048885600702 0.929264553398313 129.068333983811 0.929264553398314 129.068333983811 0.0678165279325613 -132.659532368916 
! Gamma         0                0                0                0                
! Port Impedance         50               0                50               0                
62.9                           0.0653286922796372 -130.99346707627 0.929432607040772 127.992960339407 0.929432607040773 127.992960339407 0.0646461501889583 -133.744026006457 
! Gamma         0                0                0                0                
! Port Impedance         50               0                50               0                
63                             0.0622948658348126 -131.95564844423 0.929580618216307 126.91803708954  0.929580618216308 126.91803708954  0.0616077097337468 -134.854074871217 
! Gamma         0                0                0                0                
! Port Impedance         50               0                50               0                
63.1                           0.059393273537058 -132.939102720598 0.929709541097009 125.843548398887 0.92970954109701 125.843548398887 0.0587030096513618 -135.993553583451 
! Gamma         0                0                0                0                
! Port Impedance         50               0                50               0                
63.2                           0.0566254460094646 -133.947964225902 0.929820299788452 124.769475009789 0.929820299788453 124.769475009789 0.0559338302698542 -137.166712750906 
! Gamma         0                0                0                0                
! Port Impedance         50               0                50               0                
63.3                           0.0539928770220117 -134.986843072707 0.929913785446262 123.695794356504 0.929913785446263 123.695794356504 0.0533019411299917 -138.378163471287 
! Gamma         0                0                0                0                
! Port Impedance         50               0                50               0                
63.4                           0.0514970372309802 -136.060823867206 0.929990853507754 122.622480686283 0.929990853507755 122.622480686283 0.0508091140857437 -139.632839602624 
! Gamma         0                0                0                0                
! Port Impedance         50               0                50               0                
63.5                           0.0491393901222894 -137.175441998614 0.930052321041617 121.549505186925 0.930052321041618 121.549505186925 0.0484571371644331 -140.935930657287 
! Gamma         0                0                0                0                
! Port Impedance         50               0                50               0                
63.6                           0.0469214100268045 -138.336629614973 0.930098964218119 120.476836120493 0.93009896421812 120.476836120493 0.0462478285630503 -142.292777344578 
! Gamma         0                0                0                0                
! Port Impedance         50               0                50               0                
63.7                           0.0448446018196193 -139.55062234539 0.930131515901967 119.404438962871 0.930131515901967 119.404438962871 0.0441830498373234 -143.708721523613 
! Gamma         0                0                0                0                
! Port Impedance         50               0                50               0                
63.8                           0.0429105215627694 -140.823817357214 0.93015066336953 118.332276548855 0.930150663369531 118.332276548855 0.042264716961661 -145.188903075648 
! Gamma         0                0                0                0                
! Port Impedance         50               0                50               0                
63.9                           0.0411207968995903 -142.162573895168 0.93015704615191 117.260309222475 0.930157046151911 117.260309222475 0.0404948075310297 -146.737998522189 
! Gamma         0                0                0                0                
! Port Impedance         50               0                50               0                
64                             0.0394771454768894 -143.572949623699 0.930151254005021 116.188494992261 0.930151254005022 116.188494992261 0.0388753619995971 -148.359900714446 
! Gamma         0                0                0                0                
! Port Impedance         50               0                50               0                
64.1                           0.0379813891076419 -145.060370528677 0.930133825007712 115.116789691177 0.930133825007713 115.116789691177 0.0374084766010849 -150.057346121568 
! Gamma         0                0                0                0                
! Port Impedance         50               0                50               0                
64.2                           0.0366354608841941 -146.62923938987 0.930105243788765 114.045147140947 0.930105243788766 114.045147140947 0.0360962856038879 -151.831506327971 
! Gamma         0                0                0                0                
! Port Impedance         50               0                50               0                
64.3                           0.0354414021498646 -148.282498135907 0.930065939883541 112.97351932052  0.930065939883542 112.97351932052  0.0349409309731085 -153.681572803332 
! Gamma         0                0                0                0                
! Port Impedance         50               0                50               0                
64.4                           0.0344013463153609 -150.02117228035 0.930016286220961 111.901856538409 0.930016286220962 111.901856538409 0.0339445184804339 -155.604377265223 
! Gamma         0                0                0                0                
! Port Impedance         50               0                50               0                
64.5                           0.0335174871544246 -151.843939598942 0.929956597741548 110.830107608688 0.929956597741549 110.830107608688 0.033109060886026 -157.594101173696 
! Gamma         0                0                0                0                
! Port Impedance         50               0                50               0                
64.6                           0.0327920305700183 -153.746777446212 0.929887130147234 109.758220030382 0.929887130147235 109.758220030382 0.0324364109321022 -159.642133158032 
! Gamma         0                0                0                0                
! Port Impedance         50               0                50               0                
64.7                           0.0322271308962478 -155.722749704149 0.929808078783756 108.686140170052 0.929808078783757 108.686140170052 0.0319281892461488 -161.737128318119 
! Gamma         0                0                0                0                
! Port Impedance         50               0                50               0                
64.8                           0.0318248153886928 -157.761991060021 0.929719577656548 107.613813447326 0.929719577656549 107.613813447326 0.031585714350974 -163.865305495105 
! Gamma         0                0                0                0                
! Port Impedance         50               0                50               0                
64.9                           0.0315869032050776 -159.851930035228 0.929621698581177 106.541184523182 0.929621698581178 106.541184523182 0.0314099431944283 -166.010988001883 
! Gamma         0                0                0                0                
! Port Impedance         50               0                50               0                
65                             0.0315149272434584 -161.977762806951 0.929514450469529 105.46819749075  0.92951445046953 105.468197490749 0.0314014303860893 -168.157354528032 
! Gamma         0                0                0                0                
! Port Impedance         50               0                50               0                
65.1                           0.0316100680145702 -164.123151526352 0.929397778753159 104.394796068436 0.92939777875316 104.394796068436 0.0315603124083094 -170.287328593806 
! Gamma         0                0                0                0                
! Port Impedance         50               0                50               0                
65.2                           0.0318731078260305 -166.271081782884 0.929271564945384 103.320923795142 0.929271564945385 103.320923795142 0.0318863196815569 -172.384507295958 
! Gamma         0                0                0                0                
! Port Impedance         50               0                50               0                
65.3                           0.0323044109390468 -168.404784256807 0.929135626343945 102.246524227371 0.929135626343946 102.246524227371 0.0323788152189359 -174.43402137874 
! Gamma         0                0                0                0                
! Port Impedance         50               0                50               0                
65.4                           0.0329039315346988 -170.508613926739 0.92898971587626 101.171541138    0.928989715876261 101.171541138    0.0330368546878426 -176.423231659135 
! Gamma         0                0                0                0                
! Port Impedance         50               0                50               0                
65.5                           0.0336712471951257 -172.568789856843 0.928833522089543 100.09591871649  0.928833522089543 100.09591871649  0.0338592599288707 -178.342197669858 
! Gamma         0                0                0                0                
! Port Impedance         50               0                50               0                
65.6                           0.0346056121437923 -174.573926474816 0.928666669288225 99.0196017703118 0.928666669288225 99.0196017703117 0.0348446969055969 179.816105825799 
! Gamma         0                0                0                0                
! Port Impedance         50               0                50               0                
65.7                           0.0357060224214679 -176.515325115264 0.928488717821387 97.9425359273289 0.928488717821389 97.942535927329  0.0359917496944513 178.05581037471  
! Gamma         0                0                0                0                
! Port Impedance         50               0                50               0                
65.8                           0.0369712847579053 -178.387032405588 0.928299164523067 96.8646678388996 0.928299164523067 96.8646678388996 0.0372989840434879 176.378370457627 
! Gamma         0                0                0                0                
! Port Impedance         50               0                50               0                
65.9                           0.038400081919113 179.814298425663 0.928097443308448 95.7859453834194 0.928097443308448 95.7859453834193 0.0387649965760647 174.782916725688 
! Gamma         0                0                0                0                
! Port Impedance         50               0                50               0                
66                             0.0399910292448402 178.089690287397 0.927882925929149 94.706317870031  0.927882925929149 94.706317870031  0.0403884482499898 173.266684870436 
! Gamma         0                0                0                0                
! Port Impedance         50               0                50               0                
66.1                           0.0417427193389997 176.438211632046 0.927654922890869 93.6257362421962 0.927654922890869 93.6257362421962 0.0421680827495713 171.82546633107  
! Gamma         0                0                0                0                
! Port Impedance         50               0                50               0                
66.2                           0.0436537539424697 174.857380513536 0.927412684536737 92.5441532808155 0.927412684536738 92.5441532808155 0.0441027318742625 170.454039588198 
! Gamma         0                0                0                0                
! Port Impedance         50               0                50               0                
66.3                           0.045722763606568 173.34356229681  0.927155402299748 91.4615238065557 0.927155402299748 91.4615238065557 0.046191310688862 169.146554800278 
! Gamma         0                0                0                0                
! Port Impedance         50               0                50               0                
66.4                           0.0479484167987119 171.89233290555  0.926882210127594 90.3778048810293 0.926882210127594 90.3778048810293 0.0484328053430422 167.896857287884 
! Gamma         0                0                0                0                
! Port Impedance         50               0                50               0                
66.5                           0.0503294205564592 170.498791542157 0.92659218608316 89.292956006439  0.926592186083161 89.292956006439  0.0508262562307121 166.698745440071 
! Gamma         0                0                0                0                
! Port Impedance         50               0                50               0                
66.6                           0.0528645148853649 169.157816541103 0.926284354123749 88.206939323285  0.926284354123749 88.206939323285  0.0533707387147522 165.546165624    
! Gamma         0                0                0                0                
! Port Impedance         50               0                50               0                
66.7                           0.0555524629119504 167.86426495441  0.925957686061902 87.1197198057048 0.925957686061902 87.1197198057048 0.0560653431259008 164.433350896491 
! Gamma         0                0                0                0                
! Port Impedance         50               0                50               0                
66.8                           0.0583920384810178 166.613120801451 0.925611103710394 86.0312654539843 0.925611103710395 86.0312654539843 0.0589091552467808 163.354912327359 
! Gamma         0                0                0                0                
! Port Impedance         50               0                50               0                
66.9                           0.0613820125199538 165.399599151315 0.925243481213577 84.9415474837663 0.925243481213577 84.9415474837663 0.0619012380633342 162.305892197955 
! Gamma         0                0                0                0                
! Port Impedance         50               0                50               0                
67                             0.0645211391415641 164.219213935145 0.924853647566809 83.8505405114423 0.924853647566809 83.8505405114423 0.0650406152260416 161.281787812581 
! Gamma         0                0                0                0                
! Port Impedance         50               0                50               0                
67.1                           0.0678081421532861 163.067817144911 0.924440389325169 82.7582227352001 0.924440389325168 82.7582227352001 0.0683262564122221 160.278553606476 
! Gamma         0                0                0                0                
! Port Impedance         50               0                50               0                
67.2                           0.0712417023966315 161.941616288309 0.924002453502008 81.6645761111665 0.924002453502008 81.6645761111665 0.0717570646079294 159.292587969313 
! Gamma         0                0                0                0                
! Port Impedance         50               0                50               0                
67.3                           0.0748204461560115 160.837175939836 0.923538550657195 80.5695865240673 0.923538550657194 80.5695865240672 0.0753318652183958 158.320709930632 
! Gamma         0                0                0                0                
! Port Impedance         50               0                50               0                
67.4                           0.0785429347439237 159.751408151632 0.92304735817408 79.4732439517981 0.923047358174081 79.4732439517981 0.0790493968543386 157.360129688617 
! Gamma         0                0                0                0                
! Port Impedance         50               0                50               0                
67.5                           0.0824076552801881 158.681555479219 0.922527523723347 78.3755426232862 0.922527523723347 78.3755426232862 0.0829083036138969 156.408415960306 
! Gamma         0                0                0                0                
! Port Impedance         50               0                50               0                
67.6                           0.0864130126268145 157.625169493753 0.92197766891088 77.2764811689995 0.92197766891088 77.2764811689995 0.0869071286753568 155.463462305042 
! Gamma         0                0                0                0                
! Port Impedance         50               0                50               0                
67.7                           0.0905573224083099 156.580086913706 0.92139639310579 76.1760627634442 0.92139639310579 76.1760627634442 0.091044309025492 154.523453915839 
! Gamma         0                0                0                0                
! Port Impedance         50               0                50               0                
67.8                           0.0948388050325257 155.544404892744 0.920782277443517 75.0742952589859 0.920782277443517 75.0742952589859 0.0953181711660162 153.586835866302 
! Gamma         0                0                0                0                
! Port Impedance         50               0                50               0                
67.9                           0.0992555806238656 154.516456533112 0.92013388899776 73.9711913103086 0.920133888997761 73.9711913103086 0.0997269276620306 152.652283419959 
! Gamma         0                0                0                0                
! Port Impedance         50               0                50               0                
68                             0.103805664784475 153.494787336297 0.919449785113699 72.8667684888359 0.919449785113699 72.8667684888359 0.104268674418506 151.718674730592 
! Gamma         0                0                0                0                
! Port Impedance         50               0                50               0                
68.1                           0.108486965106957 152.478133035581 0.918728517893591 71.761049386422  0.918728517893591 71.761049386422  0.108941388592111 150.785066064599 
! Gamma         0                0                0                0                
! Port Impedance         50               0                50               0                
68.2                           0.113297278372007 151.465399059958 0.91796863882449 70.6540617076391 0.91796863882449 70.6540617076391 0.113742927065003 149.850669540755 
! Gamma         0                0                0                0                
! Port Impedance         50               0                50               0                
68.3                           0.118234288374803 150.455641739912 0.917168703536377 69.5458383499858 0.917168703536378 69.5458383499857 0.118671025424109 148.914833293712 
! Gamma         0                0                0                0                
! Port Impedance         50               0                50               0                
68.4                           0.123295564334024 149.448051269385 0.916327276677544 68.4364174713609 0.916327276677545 68.436417471361  0.123723297403798 147.977023912651 
! Gamma         0                0                0                0                
! Port Impedance         50               0                50               0                
68.5                           0.128478559846648 148.441936374158 0.915442936892628 67.3258425441712 0.915442936892628 67.3258425441712 0.128897234761762 147.036810976182 
! Gamma         0                0                0                0                
! Port Impedance         50               0                50               0                
68.6                           0.133780612359721 147.436710596356 0.914514281887255 66.2141623954555 0.914514281887254 66.2141623954555 0.134190207567494 146.093853491423 
! Gamma         0                0                0                0                
! Port Impedance         50               0                50               0                
68.7                           0.139198943137129 146.431880081282 0.913539933561807 65.1014312324593 0.913539933561807 65.1014312324593 0.139599464890297 145.147888043802 
! Gamma         0                0                0                0                
! Port Impedance         50               0                50               0                
68.8                           0.144730657705005 145.427032741295 0.91251854319547 63.9877086531129 0.91251854319547 63.9877086531129 0.145122135879508 144.19871847023  
! Gamma         0                0                0                0                
! Port Impedance         50               0                50               0                
68.9                           0.150372746763718 144.421828668255 0.911448796660377 62.8730596409308 0.911448796660377 62.8730596409307 0.150755231233691 143.246206879287 
! Gamma         0                0                0                0                
! Port Impedance         50               0                50               0                
69                             0.156122087557706 143.415991668391 0.910329419644476 61.7575545438846 0.910329419644476 61.7575545438846 0.156495645058459 142.290265855473 
! Gamma         0                0                0                0                
! Port Impedance         50               0                50               0                
69.1                           0.161975445696607 142.409301799292 0.90915918286057 60.6412690368775 0.90915918286057 60.6412690368775 0.162340157114132 141.330851699342 
! Gamma         0                0                0                0                
! Port Impedance         50               0                50               0                
69.2                           0.167929477422515 141.401588796669 0.907936907217981 59.5242840674963 0.907936907217982 59.5242840674963 0.168285435455225 140.367958570178 
! Gamma         0                0                0                0                
! Port Impedance         50               0                50               0                
69.3                           0.17398073231874 140.392726287548 0.906661468932458 58.4066857848032 0.906661468932459 58.4066857848032 0.174328039463575 139.401613412358 
! Gamma         0                0                0                0                
! Port Impedance         50               0                50               0                
69.4                           0.180125656455315 139.382626695975 0.905331804549169 57.2885654509935 0.905331804549169 57.2885654509935 0.180464423276194 138.43187156021  
! Gamma         0                0                0                0                
! Port Impedance         50               0                50               0                
69.5                           0.186360595965809 138.371236756612 0.903946915853156 56.1700193358346 0.903946915853156 56.1700193358347 0.186690939607547 137.458812928787 
! Gamma         0                0                0                0                
! Port Impedance         50               0                50               0                
69.6                           0.192681801048762 137.35853356061  0.902505874641259 55.0511485938864 0.902505874641259 55.0511485938864 0.19300384396419 136.482538709498 
! Gamma         0                0                0                0                
! Port Impedance         50               0                50               0                
69.7                           0.199085430385507 136.344521066506 0.901007827329383 53.9320591245889 0.901007827329383 53.9320591245889 0.199399299247583 135.503168499872 
! Gamma         0                0                0                0                
! Port Impedance         50               0                50               0                
69.8                           0.205567555964121 135.329227016705 0.899451999369107 52.812861415405  0.899451999369107 52.812861415405  0.205873380738396 134.520837806022 
! Gamma         0                0                0                0                
! Port Impedance         50               0                50               0                
69.9                           0.212124168297146 134.312700207147 0.897837699447921 51.6936703682928 0.897837699447922 51.6936703682928 0.212422081453075 133.535695864518 
! Gamma         0                0                0                0                
! Port Impedance         50               0                50               0                
70                             0.218751182018235 133.295008064205 0.896164323447985 50.5746051098894 0.896164323447985 50.5746051098894 0.219041317860581 132.547903737661 
! Gamma         0                0                0                0                
! Port Impedance         50               0                50               0                
70.1                           0.225444441840454 132.276234488568 0.894431358139061 49.4557887858773 0.894431358139061 49.4557887858773 0.225726935944422 131.557632642447 
! Gamma         0                0                0                0                
! Port Impedance         50               0                50               0                
70.2                           0.232199728856297 131.256477930996 0.892638384582397 48.3373483401115 0.892638384582397 48.3373483401115 0.232474717592154 130.565062479096 
! Gamma         0                0                0                0                
! Port Impedance         50               0                50               0                
70.3                           0.239012767156975 130.23584966939  0.890785081223545 47.2194142791769 0.890785081223546 47.219414279177  0.239280387291713 129.570380529838 
! Gamma         0                0                0                0                
! Port Impedance         50               0                50               0                
70.4                           0.245879230745897 129.21447226063  0.888871226653725 46.1021204231431 0.888871226653725 46.1021204231431 0.246139619111119 128.573780302863 
! Gamma         0                0                0                0                
! Port Impedance         50               0                50               0                
70.5                           0.252794750718848 128.19247814418  0.886896702021033 44.9856036433765 0.886896702021033 44.9856036433765 0.253048043935445 127.575460500024 
! Gamma         0                0                0                0                
! Port Impedance         50               0                50               0                
70.6                           0.25975492268106 127.170008377573 0.884861493074814 43.8700035883534 0.884861493074814 43.8700035883535 0.260001256932439 126.575624090016 
! Gamma         0                0                0                0                
! Port Impedance         50               0                50               0                
70.7                           0.266755314369141 126.147211486652 0.882765691828669 42.7554623985072 0.882765691828669 42.7554623985072 0.266994825215863 125.574477471536 
! Gamma         0                0                0                0                
! Port Impedance         50               0                50               0                
70.8                           0.273791473444   125.124242415796 0.880609497829935 41.6421244112083 0.880609497829935 41.6421244112084 0.274024295673577 124.572229713291 
! Gamma         0                0                0                0                
! Port Impedance         50               0                50               0                
70.9                           0.280858935419125 124.101261565497 0.878393219025967 40.5301358570583 0.878393219025968 40.5301358570583 0.281085202925549 123.569091859768 
! Gamma         0                0                0                0                
! Port Impedance         50               0                50               0                
71                             0.287953231687231 123.078433906469 0.876117272220206 39.4196445487247 0.876117272220206 39.4196445487247 0.288173077375524 122.565276293467 
! Gamma         0                0                0                0                
! Port Impedance         50               0                50               0                
71.1                           0.295069897607155 122.055928161044 0.873782183113737 38.3107995636122 0.873782183113738 38.3107995636122 0.295283453318818 121.560996145804 
! Gamma         0                0                0                0                
! Port Impedance         50               0                50               0                
71.2                           0.302204480612116 121.03391604404  0.871388585930887 37.2037509216923 0.871388585930888 37.2037509216924 0.302411877067935 120.556464750212 
! Gamma         0                0                0                0                
! Port Impedance         50               0                50               0                
71.3                           0.309352548300011 120.01257155645  0.868937222630198 36.0986492598599 0.868937222630199 36.0986492598599 0.309553915057113 119.551895132092 
! Gamma         0                0                0                0                
! Port Impedance         50               0                50               0                
71.4                           0.316509696466315 118.992070326356 0.86642894170506 34.9956455041998 0.866428941705061 34.9956455041998 0.316705161886828 118.547499531225 
! Gamma         0                0                0                0                
! Port Impedance         50               0                50               0                
71.5                           0.323671557040444 117.972588992379 0.86386469658104 33.8948905415597 0.86386469658104 33.8948905415597 0.32386124826944 117.543488953068 
! Gamma         0                0                0                0                
! Port Impedance         50               0                50               0                
71.6                           0.330833805887005 116.954304625745 0.861245543619765 32.7965348918305 0.861245543619766 32.7965348918305 0.33101784883776 116.540072746069 
! Gamma         0                0                0                0                
! Port Impedance         50               0                50               0                
71.7                           0.337992170434356 115.937394187689 0.858572639741909 31.7007283823188 0.85857263974191 31.7007283823188 0.338170689779232 115.53745820271  
! Gamma         0                0                0                0                
! Port Impedance         50               0                50               0                
71.8                           0.34514243709416 114.922034019523 0.855847239684362 30.6076198255834 0.855847239684362 30.6076198255834 0.345315556259669 114.535850182475 
! Gamma         0                0                0                0                
! Port Impedance         50               0                50               0                
71.9                           0.352280458437227 113.908399363138 0.853070692909129 29.5173567020682 0.853070692909129 29.5173567020682 0.352448299602058 113.535450755385 
! Gamma         0                0                0                0                
! Port Impedance         50               0                50               0                
72                             0.359402160092844 112.896663910122 0.850244440183715 28.4300848488312 0.850244440183715 28.4300848488312 0.359564844187836 112.536458865027 
! Gamma         0                0                0                0                
! Port Impedance         50               0                50               0                
72.1                           0.36650354734096 111.88699937802  0.847370009854808 27.3459481556107 0.847370009854808 27.3459481556107 0.366661194050163 111.539070010324 
! Gamma         0                0                0                0                
! Port Impedance         50               0                50               0                
72.2                           0.373580711368997 110.879575112533 0.844449013838902 26.2650882694162 0.844449013838902 26.2650882694162 0.373733439131144 110.543475945498 
! Gamma         0                0                0                0                
! Port Impedance         50               0                50               0                
72.3                           0.380629835167715 109.874557714671 0.841483143355089 25.1876443087595 0.84148314335509 25.1876443087595 0.380777761177524 109.549864397844 
! Gamma         0                0                0                0                
! Port Impedance         50               0                50               0                
72.4                           0.387647199043319 108.87211069206  0.838474164426566 24.1137525885667 0.838474164426566 24.1137525885668 0.387790439252216 108.558418803079 
! Gamma         0                0                0                0                
! Port Impedance         50               0                50               0                
72.5                           0.394629185725981 107.872394133755 0.835423913178516 23.0435463567327 0.835423913178517 23.0435463567327 0.394767854841872 107.56931805812  
! Gamma         0                0                0                0                
! Port Impedance         50               0                50               0                
72.6                           0.401572285057989 106.875564407996 0.832334290960798 21.9771555431849 0.832334290960798 21.9771555431849 0.401706496543869 106.582736291195 
! Gamma         0                0                0                0                
! Port Impedance         50               0                50               0                
72.7                           0.408473098247838 105.881773882436 0.829207259324431 20.9147065222409 0.829207259324431 20.9147065222409 0.408602964319058 105.598842649269 
! Gamma         0                0                0                0                
! Port Impedance         50               0                50               0                
72.8                           0.415328341679788 104.891170666415 0.826044834881127 19.8563218889373 0.826044834881127 19.8563218889374 0.415453973299891 104.617801102743 
! Gamma         0                0                0                0                
! Port Impedance         50               0                50               0                
72.9                           0.422134850271499 103.903898374901 0.822849084075151 18.8021202499194 0.822849084075152 18.8021202499194 0.422256357146593 103.639770267397 
! Gamma         0                0                0                0                
! Port Impedance         50               0                50               0                
73                             0.428889580375542 102.920095913699 0.819622117896505 17.7522160293706 0.819622117896505 17.7522160293706 0.42900707094722 102.66490324356  
! Gamma         0                0                0                0                
! Port Impedance         50               0                50               0                
73.1                           0.435589612223558 101.939897285566 0.816366086563972 16.7067192903708 0.816366086563972 16.7067192903708 0.435703193660437 101.693347472401 
! Gamma         0                0                0                0                
! Port Impedance         50               0                50               0                
73.2                           0.44223215191487 100.963431416827 0.813083174205843 15.6657355719626 0.813083174205843 15.6657355719626 0.442341930102826 100.72524460926  
! Gamma         0                0                0                0                
! Port Impedance         50               0                50               0                
73.3                           0.448814532954085 99.9908220040843 0.809775593565183 14.6293657421129 0.809775593565182 14.629365742113  0.448920612485335 99.7607304138572 
! Gamma         0                0                0                0                
! Port Impedance         50               0                50               0                
73.4                           0.455334217344968 99.0221873805771 0.806445580755408 13.597705866659  0.806445580755408 13.597705866659  0.455436701506122 98.7999346571704 
! Gamma         0                0                0                0                
! Port Impedance         50               0                50               0                
73.5                           0.461788796250321 98.0576404016989 0.803095390090639 12.5708470942298 0.803095390090639 12.5708470942298 0.461887787009584 97.8429810447311 
! Gamma         0                0                0                0                
! Port Impedance         50               0                50               0                
73.6                           0.468175990229912 97.0972883491764 0.799727289013837 11.5488755570547 0.799727289013837 11.5488755570547 0.468271588223615 96.8899871560253 
! Gamma         0                0                0                0                
! Port Impedance         50               0                50               0                
73.7                           0.474493649070623 96.1412328533408 0.796343553144172 10.5318722874743 0.796343553144172 10.5318722874743 0.474585953589261 95.9410643996302 
! Gamma         0                0                0                0                
! Port Impedance         50               0                50               0                
73.8                           0.48073975122482 95.1895698329048 0.792946461463397 9.51991314989851 0.792946461463397 9.51991314989851 0.4808288601988  94.9963179836699 
! Gamma         0                0                0                0                
! Port Impedance         50               0                50               0                
73.9                           0.486912402874666 94.2423894516127 0.789538291659225 8.51306878787446 0.789538291659225 8.5130687878745  0.486998412859947 94.0558469011133 
! Gamma         0                0                0                0                
! Port Impedance         50               0                50               0                
74                             0.493009836641455 93.299776091094  0.786121315641909 7.51140458586677 0.78612131564191 7.51140458586679 0.493092842805285 93.1197439293985 
! Gamma         0                0                0                0                
! Port Impedance         50               0                50               0                
74.1                           0.499030409960325 92.3618083392231 0.782697795248355 6.51498064528062 0.782697795248355 6.51498064528064 0.49911050606725 92.1880956438136 
! Gamma         0                0                0                0                
! Port Impedance         50               0                50               0                
74.2                           0.504972603141595 91.4285589932522 0.779269978146227 5.5238517742123  0.779269978146227 5.52385177421232 0.505049881539924 91.2609824440315 
! Gamma         0                0                0                0                
! Port Impedance         50               0                50               0                
74.3                           0.510835017140781 90.5000950769591 0.775840093948666 4.53806749035591 0.775840093948666 4.53806749035595 0.510909568749681 90.3384785931558 
! Gamma         0                0                0                0                
! Port Impedance         50               0                50               0                
74.4                           0.516616371059855 89.5764778710363 0.772410350548349 3.55767203645327 0.772410350548349 3.55767203645329 0.516688285357233 89.4206522686053 
! Gamma         0                0                0                0                
! Port Impedance         50               0                50               0                
74.5                           0.522315499402597 88.65776295592   0.768982930677863 2.58270440764254 0.768982930677863 2.58270440764252 0.522384864413926 88.5075656241398 
! Gamma         0                0                0                0                
! Port Impedance         50               0                50               0                
74.6                           0.527931349107098 87.7440002662529 0.765559988701589 1.61319839002447 0.76555998870159 1.61319839002451 0.527998251395314 87.5992748623103 
! Gamma         0                0                0                0                
! Port Impedance         50               0                50               0                
74.7                           0.53346297637831 86.8352341561658 0.76214364764263 0.649182609748987 0.762143647642631 0.649182609748987 0.533527501034915 86.6958303166    
! Gamma         0                0                0                0                
! Port Impedance         50               0                50               0                
74.8                           0.538909543343404 85.9315034745537 0.758735996446691 -0.309319408099019 0.75873599644669 -0.309319408098958 0.538971773980878 85.7972765425133 
! Gamma         0                0                0                0                
! Port Impedance         50               0                50               0                
74.9                           0.544270314552239 85.0328416495333 0.755339087483345 -1.26228917153989 0.755339087483345 -1.26228917153985 0.544330333297865 84.9036524168695 
! Gamma         0                0                0                0                
! Port Impedance         50               0                50               0                
75                             0.549544653344768 84.139276781263  0.751954934283695 -2.20971314540506 0.751954934283695 -2.20971314540503 0.549602540835949 84.0149912445495 
! Gamma         0                0                0                0                
! Port Impedance         50               0                50               0                
75.1                           0.554732018106524 83.2508317423259 0.748585509512093 -3.15158266743995 0.748585509512093 -3.15158266743991 0.554787853487658 83.131320871956  
! Gamma         0                0                0                0                
! Port Impedance         50               0                50               0                
75.2                           0.559831958432582 82.3675242848831 0.745232743168457 -4.08789385753824 0.745232743168457 -4.08789385753821 0.559885819353562 82.2526638064573 
! Gamma         0                0                0                0                
! Port Impedance         50               0                50               0                
75.3                           0.564844111219539 81.4893671538259 0.741898521016561 -5.01864752083108 0.741898521016561 -5.01864752083103 0.564896073835913 81.3790373410871 
! Gamma         0                0                0                0                
! Port Impedance         50               0                50               0                
75.4                           0.569768196704113 80.6163682051707 0.738584683232752 -5.94384904533915 0.738584683232751 -5.94384904533909 0.569818335678935 80.5104536838025 
! Gamma         0                0                0                0                
! Port Impedance         50               0                50               0                
75.5                           0.574604014465976 79.7485305289701 0.735293023268636 -6.86350829488707 0.735293023268636 -6.86350829488706 0.574652402973369 79.6469200906142 
! Gamma         0                0                0                0                
! Port Impedance         50               0                50               0                
75.6                           0.579351439411369 78.8858525760343 0.732025286920585 -7.77763949795048 0.732025286920586 -7.77763949795048 0.579398149141808 78.7884390019249 
! Gamma         0                0                0                0                
! Port Impedance         50               0                50               0                
75.7                           0.584010417752991 78.0283282877825 0.728783171598187 -8.68626113309552 0.728783171598187 -8.68626113309549 0.584055518920305 77.9350081814399 
! Gamma         0                0                0                0                
! Port Impedance         50               0                50               0                
75.8                           0.588580963000524 77.1759472285836 0.725568325783303 -9.58939581163396 0.725568325783303 -9.58939581163392 0.588624524350599 77.0866208570396 
! Gamma         0                0                0                0                
! Port Impedance         50               0                50               0                
75.9                           0.593063151975057 76.3286947199633 0.722382348670907 -10.4870701581037 0.722382348670907 -10.4870701581037 0.593105240796222 76.243265863028  
! Gamma         0                0                0                0                
! Port Impedance         50               0                50               0                
76                             0.597457120859522 75.4865519760962 0.719226789982554 -11.3793146891453 0.719226789982554 -11.3793146891453 0.597497802994594 75.4049277832109 
! Gamma         0                0                0                0                
! Port Impedance         50               0                50               0                
76.1                           0.60176306129618 74.6494962400321 0.716103149943065 -12.2661636913224 0.716103149943065 -12.2661636913223 0.601802401156119 74.5715870942741 
! Gamma         0                0                0                0                
! Port Impedance         50               0                50               0                
76.2                           0.605981216541071 73.8175009201359 0.713012879410853 -13.147655098405 0.713012879410853 -13.147655098405 0.606019277120221 73.7432203089768 
! Gamma         0                0                0                0                
! Port Impedance         50               0                50               0                
76.3                           0.610111877684269 72.9905357262597 0.709957380152222 -14.023830368597 0.709957380152222 -14.0238303685969 0.610148720577121 72.9198001186987 
! Gamma         0                0                0                0                
! Port Impedance         50               0                50               0                
76.4                           0.614155379943775 72.1685668051938 0.706938005249944 -14.8947343621671 0.706938005249945 -14.8947343621671 0.6141910653632  72.1012955349144 
! Gamma         0                0                0                0                
! Port Impedance         50               0                50               0                
76.5                           0.618112099039818 71.3515568749813 0.70395605963648 -15.7604152199035 0.70395605963648 -15.7604152199035 0.61814668583673 71.2876720292    
! Gamma         0                0                0                0                
! Port Impedance         50               0                50               0                
76.6                           0.62198244765542 70.5394653577111 0.701012800742284 -16.6209242427891 0.701012800742284 -16.6209242427891 0.622015993339795 70.4788916714098 
! Gamma         0                0                0                0                
! Port Impedance         50               0                50               0                
76.7                           0.625766871988138 69.732248510438  0.698109439249834 -17.4763157732557 0.698109439249835 -17.4763157732557 0.625799432751323 69.6749132656876 
! Gamma         0                0                0                0                
! Port Impedance         50               0                50               0                
76.8                           0.629465848397012 68.9298595539096 0.695247139944191 -18.3266470783544 0.695247139944192 -18.3266470783543 0.62949747913528 68.8756924840133 
! Gamma         0                0                0                0                
! Port Impedance         50               0                50               0                
76.9                           0.63307988014794 68.1322487988112 0.692427022651145 -19.171978235141 0.692427022651145 -19.1719782351409 0.633110634487204 68.0811819970112 
! Gamma         0                0                0                0                
! Port Impedance         50               0                50               0                
77                             0.636609494259921 67.339363769266  0.689650163254295 -20.0123720185564 0.689650163254296 -20.0123720185564 0.636639424581557 67.2913316017746 
! Gamma         0                0                0                0                
! Port Impedance         50               0                50               0                
77.1                           0.640055238453874 66.5511493233642 0.686917594782708 -20.8478937920467 0.686917594782708 -20.8478937920467 0.640084395921582 66.5060883464915 
! Gamma         0                0                0                0                
! Port Impedance         50               0                50               0                
77.2                           0.643417678205078 65.7675477705112 0.68423030856111 -21.6786114011448 0.684230308561111 -21.6786114011448 0.643446112792711 65.7253966516805 
! Gamma         0                0                0                0                
! Port Impedance         50               0                50               0                
77.3                           0.646697393899658 64.9884989854206 0.681589255414945 -22.5045950702129 0.681589255414946 -22.5045950702128 0.646725154419969 64.9491984278709 
! Gamma         0                0                0                0                
! Port Impedance         50               0                50               0                
77.4                           0.649894978094961 64.2139405185976 0.678995346922972 -23.3259173025145 0.678995346922972 -23.3259173025144 0.649922112229187 64.1774331895858 
! Gamma         0                0                0                0                
! Port Impedance         50               0                50               0                
77.5                           0.653011032883157 63.4438077031802 0.676449456710437 -24.1426527837711 0.676449456710438 -24.1426527837711 0.653037587211396 63.4100381655084 
! Gamma         0                0                0                0                
! Port Impedance         50               0                50               0                
77.6                           0.656046167356918 62.6780337580328 0.673952421776279 -24.9548782893266 0.673952421776279 -24.9548782893266 0.656072187389223 62.6469484047354 
! Gamma         0                0                0                0                
! Port Impedance         50               0                50               0                
77.7                           0.6590009951756  61.9165498870019 0.671505043848115 -25.762672595034 0.671505043848116 -25.762672595034 0.659026525383749 61.888096879036  
! Gamma         0                0                0                0                
! Port Impedance         50               0                50               0                
77.8                           0.661876132229971 61.1592853742664 0.669108090759247 -26.5661163919501 0.669108090759247 -26.56611639195  0.66190121607985 61.1334145810607 
! Gamma         0                0                0                0                
! Port Impedance         50               0                50               0                
77.9                           0.664672194403208 60.4061676757301 0.666762297842194 -27.3652922049146 0.666762297842194 -27.3652922049144 0.664696874387749 60.3828306184539 
! Gamma         0                0                0                0                
! Port Impedance         50               0                50               0                
78                             0.667389795425528 59.6571225064226 0.664468369333701 -28.1602843150675 0.664468369333702 -28.1602843150674 0.667414113098167 59.6362723038461 
! Gamma         0                0                0                0                
! Port Impedance         50               0                50               0                
78.1                           0.670029544819626 58.9120739238895 0.662226979786502 -28.9511786863487 0.662226979786503 -28.9511786863486 0.670053540828222 58.8936652407132 
! Gamma         0                0                0                0                
! Port Impedance         50               0                50               0                
78.2                           0.672592045933811 58.1709444075645 0.660038775483452 -29.7380628960074 0.660038775483453 -29.7380628960073 0.672615760054992 58.1549334051037 
! Gamma         0                0                0                0                
! Port Impedance         50               0                50               0                
78.3                           0.675077894059558 57.4336549341328 0.657904375850026 -30.5210260691373 0.657904375850027 -30.5210260691372 0.675101365233446 57.4199992232486 
! Gamma         0                0                0                0                
! Port Impedance         50               0                50               0                
78.4                           0.677487674630027 56.700125048902  0.655824374861457 -31.3001588172434 0.655824374861458 -31.3001588172433 0.677510940995306 56.6887836450785 
! Gamma         0                0                0                0                
! Port Impedance         50               0                50               0                
78.5                           0.67982196149595 55.9702729332129 0.653799342441146 -32.0755531808329 0.653799342441147 -32.0755531808329 0.679845060425255 55.9612062136842 
! Gamma         0                0                0                0                
! Port Impedance         50               0                50               0                
78.6                           0.682081315275207 55.2440154679257 0.651829825847215 -32.8473025760191 0.651829825847216 -32.8473025760191 0.682104283410783 55.2371851307627 
! Gamma         0                0                0                0                
! Port Impedance         50               0                50               0                
78.7                           0.684266281772274 54.5212682930304 0.649916351044433 -33.6155017451123 0.649916351044433 -33.6155017451122 0.684289155061893 54.5166373181045 
! Gamma         0                0                0                0                
! Port Impedance         50               0                50               0                
78.8                           0.686377390463716 53.8019458634369 0.64805942405892 -34.3802467111708 0.648059424058921 -34.3802467111708 0.686400204196821 53.7994784751788 
! Gamma         0                0                0                0                
! Port Impedance         50               0                50               0                
78.9                           0.688415153045798 53.0859615010042 0.646259532313377 -35.141634736476 0.646259532313378 -35.141634736476 0.688437941889858 53.0856231328845 
! Gamma         0                0                0                0                
! Port Impedance         50               0                50               0                
79                             0.690380062040298 52.3732274428787 0.644517145940729 -35.8997642848883 0.64451714594073 -35.8997642848883 0.690402860077349 52.3749847035402 
! Gamma         0                0                0                0                
! Port Impedance         50               0                50               0                
79.1                           0.692272589454572 51.663654886212  0.642832719074366 -36.6547349880413 0.642832719074367 -36.6547349880412 0.692295430217932 51.6674755271868 
! Gamma         0                0                0                0                
! Port Impedance         50               0                50               0                
79.2                           0.694093185491908 50.9571540293385 0.641206691113309 -37.4066476153218 0.64120669111331 -37.4066476153218 0.694116102003057 50.9630069142884 
! Gamma         0                0                0                0                
! Port Impedance         50               0                50               0                
79.3                           0.695842277308254 50.2536341094906 0.63963948796083 -38.1556040475857 0.639639487960832 -38.1556040475856 0.695865302113866 50.2614891849128 
! Gamma         0                0                0                0                
! Port Impedance         50               0                50               0                
79.4                           0.697520267811384 49.5530034371415 0.638131523235238 -38.9017072545511 0.638131523235239 -38.901707254551 0.697543433020504 49.5628317044845 
! Gamma         0                0                0                0                
! Port Impedance         50               0                50               0                
79.5                           0.699127534498616 48.8551694270577 0.636683199451646 -39.6450612758143 0.636683199451647 -39.6450612758143 0.699150871819988 48.8669429161976 
! Gamma         0                0                0                0                
! Port Impedance         50               0                50               0                
79.6                           0.700664428329248 48.1600386261579 0.63529490917372 -40.3857712054287 0.635294909173721 -40.3857712054286 0.700687969108775 48.1737303701854 
! Gamma         0                0                0                0                
! Port Impedance         50               0                50               0                
79.7                           0.702131272627889 47.4675167382667 0.633967036134491 -41.1239431799848 0.633967036134493 -41.1239431799848 0.702155047886244 47.4831007495425 
! Gamma         0                0                0                0                
! Port Impedance         50               0                50               0                
79.8                           0.703528362014927 46.7775086458616 0.632699956325427 -41.8596843701346 0.632699956325428 -41.8596843701345 0.703552402485318 46.7949598932969 
! Gamma         0                0                0                0                
! Port Impedance         50               0                50               0                
79.9                           0.704855961360454 46.0899184289085 0.631494039053043 -42.5931029754953 0.631494039053043 -42.5931029754953 0.704880297526536 46.1092128164332 
! Gamma         0                0                0                0                
! Port Impedance         50               0                50               0                
80                             0.706114304757974 45.4046493808845 0.630349647962398 -43.3243082228752 0.630349647962399 -43.3243082228751 0.706138966891933 45.4257637270661 
! Gamma         0                0                0                0                
! Port Impedance         50               0                50               0                
80.1                           0.707303594514315 44.7216040220895 0.629267142026907 -44.0534103677571 0.629267142026909 -44.0534103677571 0.70732861271513 44.7445160408711 
! Gamma         0                0                0                0                
! Port Impedance         50               0                50               0                
80.2                           0.708424000152238 44.0406841103467 0.628246876503886 -44.7805206989842 0.628246876503887 -44.7805206989843 0.708449404384131 44.0653723928724 
! Gamma         0                0                0                0                
! Port Impedance         50               0                50               0                
80.3                           0.709475657422247 43.3617906491978 0.627289203855323 -45.5057515465833 0.627289203855324 -45.5057515465832 0.709501477553347 43.3882346466979 
! Gamma         0                0                0                0                
! Port Impedance         50               0                50               0                
80.4                           0.710458667320237 42.684823893695  0.626394474633383 -46.2292162926716 0.626394474633385 -46.2292162926717 0.710484933161467 42.7130039014057 
! Gamma         0                0                0                0                
! Port Impedance         50               0                50               0                
80.5                           0.711373095107613 42.0096833538994 0.625563038330106 -46.9510293853868 0.625563038330108 -46.9510293853868 0.711399836451825 42.0395804959941 
! Gamma         0                0                0                0                
! Port Impedance         50               0                50               0                
80.6                           0.712218969330633 41.3362677961925 0.624795244190796 -47.6713063557836 0.624795244190797 -47.6713063557836 0.712246215992018 41.3678640117035 
! Gamma         0                0                0                0                
! Port Impedance         50               0                50               0                
80.7                           0.71299628083576 40.6644752425138 0.624091441990554 -48.3901638376423 0.624091441990556 -48.3901638376424 0.713024062689545 40.6977532722263 
! Gamma         0                0                0                0                
! Port Impedance         50               0                50               0                
80.8                           0.713704981777879 39.9942029676357 0.623451982773359 -49.1077195901336 0.623451982773361 -49.1077195901336 0.713733328800356 40.0291463419381 
! Gamma         0                0                0                0                
! Port Impedance         50               0                50               0                
80.9                           0.714344984618311 39.3253474945948 0.622877219553047 -49.8240925232851 0.622877219553049 -49.824092523285 0.714373926927205 39.3619405222715 
! Gamma         0                0                0                0                
! Port Impedance         50               0                50               0                
81                             0.714916161109603 38.6578045883975 0.622367507975499 -50.5394027261965 0.622367507975501 -50.5394027261964 0.714945729004833 38.6960323463527 
! Gamma         0                0                0                0                
! Port Impedance         50               0                50               0                
81.1                           0.71541834126415 37.9914692481247 0.621923206941228 -51.2537714979529 0.62192320694123 -51.2537714979529 0.715448565268993 38.0313175720273 
! Gamma         0                0                0                0                
! Port Impedance         50               0                50               0                
81.2                           0.715851312303765 37.3262356975635 0.621544679187493 -51.9673213811792 0.621544679187496 -51.9673213811792 0.715882223206476 37.3676911734081 
! Gamma         0                0                0                0                
! Port Impedance         50               0                50               0                
81.3                           0.716214817587379 36.6619973744997 0.621232291828948 -52.6801761981884 0.62123229182895 -52.6801761981883 0.71624644648329 36.7050473310758 
! Gamma         0                0                0                0                
! Port Impedance         50               0                50               0                
81.4                           0.716508555514126 35.9986469188103 0.620986416855702 -53.3924610896672 0.620986416855704 -53.3924610896672 0.716540933848268 36.0432794210808 
! Gamma         0                0                0                0                
! Port Impedance         50               0                50               0                
81.5                           0.716732178399115 35.3360761595024 0.620807431587563 -54.1043025558503 0.620807431587565 -54.1043025558503 0.716765338009401 35.3822800028887 
! Gamma         0                0                0                0                
! Port Impedance         50               0                50               0                
81.6                           0.716885291319305 34.6741761008525 0.620695719083044 -54.8158285001245 0.620695719083046 -54.8158285001245 0.716919264480314 34.7219408064308 
! Gamma         0                0                0                0                
! Port Impedance         50               0                50               0                
81.7                           0.716967450926912 34.0128369078086 0.620651668501589 -55.5271682750137 0.620651668501591 -55.5271682750137 0.717002270394327 34.0621527184207 
! Gamma         0                0                0                0                
! Port Impedance         50               0                50               0                
81.8                           0.716978164227928 33.351947890829  0.620675675417258 -56.2384527304824 0.62067567541726 -56.2384527304824 0.717013863283653 33.402805768116  
! Gamma         0                0                0                0                
! Port Impedance         50               0                50               0                
81.9                           0.716916887323343 32.6913974903408 0.620768142081937 -56.9498142645024 0.620768142081939 -56.9498142645025 0.716953499821372 32.7437891127098 
! Gamma         0                0                0                0                
! Port Impedance         50               0                50               0                
82                             0.716783024110816 32.0310732610156 0.620929477635933 -57.6613868758198 0.620929477635936 -57.6613868758198 0.716820584523875 32.0849910225526 
! Gamma         0                0                0                0                
! Port Impedance         50               0                50               0                
82.1                           0.716575924944578 31.3708618560736 0.62116009826354 -58.3733062188551 0.621160098263543 -58.3733062188552 0.716614468411623 31.4262988664175 
! Gamma         0                0                0                0                
! Port Impedance         50               0                50               0                
82.2                           0.716294885251527 30.7106490118427 0.621460427290979 -59.0857096606699 0.621460427290981 -59.08570966067  0.716334447626113 30.7675990970413 
! Gamma         0                0                0                0                
! Port Impedance         50               0                50               0                
82.3                           0.715939144101508 30.0503195328199 0.621830895223789 -59.7987363399219 0.621830895223791 -59.7987363399219 0.715979762001124 30.1087772371877 
! Gamma         0                0                0                0                
! Port Impedance         50               0                50               0                
82.4                           0.715507882729992 29.3897572774972 0.622271939720506 -60.5125272277297 0.622271939720509 -60.5125272277297 0.715549593586386 29.449717866503  
! Gamma         0                0                0                0                
! Port Impedance         50               0                50               0                
82.5                           0.71500022301143 28.7288451452441 0.622784005499126 -61.2272251903575 0.622784005499128 -61.2272251903576 0.715043065122006 28.7903046094557 
! Gamma         0                0                0                0                
! Port Impedance         50               0                50               0                
82.6                           0.714415225881795 28.0674650645564 0.623367544172544 -61.9429750536269 0.623367544172546 -61.9429750536269 0.71445923846213 28.1304201246759 
! Gamma         0                0                0                0                
! Port Impedance         50               0                50               0                
82.7                           0.713751889708944 27.4054979830139 0.624023014008817 -62.6599236689462 0.624023014008819 -62.6599236689462 0.713797112946499 27.4699460960421 
! Gamma         0                0                0                0                
! Port Impedance         50               0                50               0                
82.8                           0.713009148609672 26.7428238593194 0.624750879611702 -63.378219980846 0.624750879611705 -63.378219980846 0.713055623718759 26.8087632258891 
! Gamma         0                0                0                0                
! Port Impedance         50               0                50               0                
82.9                           0.712185870712573 26.0793216578263 0.625551611516552 -64.0980150958918 0.625551611516555 -64.0980150958919 0.71223363999065 26.1467512307519 
! Gamma         0                0                0                0                
! Port Impedance         50               0                50               0                
83                             0.71128085636603 25.4148693459996 0.62642568569623 -64.8194623528319 0.626425685696232 -64.8194623528319 0.711329963251396 25.4837888400932 
! Gamma         0                0                0                0                
! Port Impedance         50               0                50               0                
83.1                           0.710292836290994 24.7493438952964 0.627373582971253 -65.5427173938281 0.627373582971255 -65.5427173938281 0.710343325421969 24.8197537985093 
! Gamma         0                0                0                0                
! Port Impedance         50               0                50               0                
83.2                           0.709220469678555 24.082621286009  0.628395788317911 -66.2679382365929 0.628395788317913 -66.267938236593 0.709272386954208 24.154522871959  
! Gamma         0                0                0                0                
! Port Impedance         50               0                50               0                
83.3                           0.708062342232594 23.4145765166485 0.629492790067621 -66.995285347247 0.629492790067623 -66.995285347247 0.708115734875124 23.487971858604  
! Gamma         0                0                0                0                
! Port Impedance         50               0                50               0                
83.4                           0.706816964158334 22.7450836185256 0.630665078990246 -67.7249217136799 0.630665078990249 -67.7249217136801 0.706871880777182 22.8199756049228 
! Gamma         0                0                0                0                
! Port Impedance         50               0                50               0                
83.5                           0.705482768097993 22.0740156762346 0.631913147253579 -68.4570129191853 0.631913147253581 -68.4570129191854 0.705539258755783 22.1504080278093 
! Gamma         0                0                0                0                
! Port Impedance         50               0                50               0                
83.6                           0.70405810701531 21.4012448548271 0.633237487250586 -69.1917272161054 0.633237487250589 -69.1917272161054 0.704116223295714 21.4791421434565 
! Gamma         0                0                0                0                
! Port Impedance         50               0                50               0                
83.7                           0.702541252031291 20.7266424345391 0.634638590285457 -69.9292355992005 0.634638590285459 -69.9292355992006 0.70260104710893 20.8060501038931 
! Gamma         0                0                0                0                
! Port Impedance         50               0                50               0                
83.8                           0.700930390214189 20.0500788540231 0.636116945108827 -70.6697118784242 0.636116945108829 -70.6697118784243 0.700991918926688 20.1310032421361 
! Gamma         0                0                0                0                
! Port Impedance         50               0                50               0                
83.9                           0.699223622327484 19.3714237631386 0.637673036291946 -71.4133327507496 0.637673036291948 -71.4133327507498 0.699286941249788 19.4538721270248 
! Gamma         0                0                0                0                
! Port Impedance         50               0                50               0                
84                             0.697418960540442 18.6905460864593 0.639307342428834 -72.1602778706608 0.639307342428836 -72.1602778706609 0.697484128061537 18.7745266289046 
! Gamma         0                0                0                0                
! Port Impedance         50               0                50               0                
84.1                           0.695514326106766 18.0073140987797 0.641020334154836 -72.9107299188756 0.641020334154837 -72.9107299188758 0.695581402508936 18.0928359974586 
! Gamma         0                0                0                0                
! Port Impedance         50               0                50               0                
84.2                           0.693507547017898 17.3215955140403 0.642812471969219 -73.6648746688287 0.642812471969221 -73.6648746688288 0.693576594558685 17.408668953119  
! Gamma         0                0                0                0                
! Port Impedance         50               0                50               0                
84.3                           0.691396355638665 16.633257589236  0.644684203848776 -74.4229010503899 0.644684203848778 -74.42290105039  0.691467438635674 16.7218937936382 
! Gamma         0                0                0                0                
! Port Impedance         50               0                50               0                
84.4                           0.689178386334234 15.9421672450415 0.646635962638623 -75.1850012102448 0.646635962638625 -75.1850012102449 0.689251571252984 16.0323785175748 
! Gamma         0                0                0                0                
! Port Impedance         50               0                50               0                
84.5                           0.686851173098799 15.2481912050789 0.648668163205671 -75.9513705683047 0.648668163205673 -75.9513705683049 0.686926528643821 15.3399909666354 
! Gamma         0                0                0                0                
! Port Impedance         50               0                50               0                
84.6                           0.684412147197941 14.5511961559492 0.650781199339491 -76.722207869452 0.650781199339493 -76.722207869452 0.684489744407319 14.6445989890163 
! Gamma         0                0                0                0                
! Port Impedance         50               0                50               0                
84.7                           0.681858634838392 13.8510489303896 0.652975440384571 -77.4977152298625 0.652975440384572 -77.4977152298626 0.681938547182012 13.9460706261344 
! Gamma         0                0                0                0                
! Port Impedance         50               0                50               0                
84.8                           0.679187854880813 13.1476167161752 0.655251227587247 -78.2780981770719 0.655251227587249 -78.278098177072 0.679270158362573 13.2442743253863 
! Gamma         0                0                0                0                
! Port Impedance         50               0                50               0                
84.9                           0.676396916613351 12.4407672936668 0.657608870139931 -79.0635656828772 0.657608870139933 -79.0635656828773 0.676481689877645 12.5390791818751 
! Gamma         0                0                0                0                
! Port Impedance         50               0                50               0                
85                             0.673482817606026 11.7303693052373 0.660048640904584 -79.8543301880814 0.660048640904586 -79.8543301880815 0.673570142048824 11.8303552123631 
! Gamma         0                0                0                0                
! Port Impedance         50               0                50               0                
85.1                           0.670442441668613 11.0162925601651 0.662570771796872 -80.6506076180019 0.662570771796873 -80.650607618002 0.670532401553543 11.1179736650827 
! Gamma         0                0                0                0                
! Port Impedance         50               0                50               0                
85.2                           0.667272556937428 10.2984083789932 0.66517544881187 -81.4526173875647 0.665175448811872 -81.4526173875648 0.667365239517227 10.4018073694386 
! Gamma         0                0                0                0                
! Port Impedance         50               0                50               0                
85.3                           0.663969814119536 9.57658998180615 0.667862806671884 -82.2605823947136 0.667862806671886 -82.2605823947137 0.664065309763408 9.68173113010457 
! Gamma         0                0                0                0                
! Port Impedance         50               0                50               0                
85.4                           0.660530744926252 8.85071292539354 0.670632923076573 -83.0747290007445 0.670632923076574 -83.0747290007446 0.660629147253659 8.95762217053804 
! Gamma         0                0                0                0                
! Port Impedance         50               0                50               0                
85.5                           0.65695176073137 8.12065559484573 0.673485812535567 -83.8952869960791 0.673485812535569 -83.8952869960792 0.657053166752885 8.22936063151027 
! Gamma         0                0                0                0                
! Port Impedance         50               0                50               0                
85.6                           0.653229151493666 7.38629975578734 0.676421419763744 -84.722489549855 0.676421419763745 -84.7224895498551 0.653333661759571 7.49683013092635 
! Gamma         0                0                0                0                
! Port Impedance         50               0                50               0                
85.7                           0.649359084987394 6.64753117419634 0.679439612619678 -85.5565731416002 0.679439612619679 -85.5565731416004 0.649466803744852 6.7599183919587  
! Gamma         0                0                0                0                
! Port Impedance         50               0                50               0                
85.8                           0.645337606389095 5.90424031158569 0.682540174568324 -86.397777473126 0.682540174568326 -86.3977774731261 0.645448641748846 6.01851794735384 
! Gamma         0                0                0                0                
! Port Impedance         50               0                50               0                
85.9                           0.641160638274255 5.15632310430969 0.685722796649827 -87.2463453586311 0.685722796649828 -87.2463453586311 0.641275102387872 5.27252692876821 
! Gamma         0                0                0                0                
! Port Impedance         50               0                50               0                
86                             0.636823981082474 4.40368183682505 0.688987068937623 -88.1025225908867 0.688987068937625 -88.1025225908867 0.636941990331411 4.52184995107088 
! Gamma         0                0                0                0                
! Port Impedance         50               0                50               0                
86.1                           0.632323314115712 3.64622612000456 0.692332471470592 -88.9665577812176 0.692332471470593 -88.9665577812177 0.632444989313596 3.76639910283355 
! Gamma         0                0                0                0                
! Port Impedance         50               0                50               0                
86.2                           0.627654197140308 2.8838739870274  0.695758364646154 -89.838702170862 0.695758364646155 -89.8387021708622 0.627779663750077 3.00609505566994 
! Gamma         0                0                0                0                
! Port Impedance         50               0                50               0                
86.3                           0.622812072670034 2.11655312103509 0.699263979063848 -90.7192094111455 0.69926397906385 -90.7192094111456 0.622941461037829 2.24086830676741 
! Gamma         0                0                0                0                
! Port Impedance         50               0                50               0                
86.4                           0.617792269014301 1.34420223063243 0.702848404812221 -91.6083353097672 0.702848404812222 -91.6083353097672 0.617925714622307 1.47066057087666 
! Gamma         0                0                0                0                
! Port Impedance         50               0                50               0                
86.5                           0.612590004183109 0.56677259153826 0.706510580195788 -92.506337540359 0.706510580195788 -92.5063375403591 0.61272764792388 0.695426340261059 
! Gamma         0                0                0                0                
! Port Impedance         50               0                50               0                
86.6                           0.607200390747937 -0.21577022474662 0.710249279903577 -93.4134753123482 0.710249279903578 -93.4134753123482 0.607342379223182 -0.0848653662860753 
! Gamma         0                0                0                0                
! Port Impedance         50               0                50               0                
86.7                           0.601618441765942 -1.00344441138553 0.714063102626392 -94.3300089980384 0.714063102626393 -94.3300089980384 0.601764927613188 -0.870229041224873 
! Gamma         0                0                0                0                
! Port Impedance         50               0                50               0                
86.8                           0.595839077883249 -1.79624974839515 0.717950458136427 -95.256199713713 0.717950458136428 -95.256199713713 0.595990220134359 -1.66066048516451 
! Gamma         0                0                0                0                
! Port Impedance         50               0                50               0                
86.9                           0.589857135741845 -2.59416515505676 0.721909553850476 -96.1923088514829 0.721909553850477 -96.1923088514829 0.5900131002181  -2.4561343310074 
! Gamma         0                0                0                0                
! Port Impedance         50               0                50               0                
87                             0.583667377823818 -3.39714593617357 0.725938380906708 -97.1385975585291 0.725938380906708 -97.138597558529 0.583828337572983 -3.25660125854156 
! Gamma         0                0                0                0                
! Port Impedance         50               0                50               0                
87.1                           0.577264503875828 -4.20512068000272 0.730034699794864 -98.0953261603629 0.730034699794865 -98.0953261603629 0.577430639657442 -4.06198485685404 
! Gamma         0                0                0                0                
! Port Impedance         50               0                50               0                
87.2                           0.570643164066593 -5.01798775880111 0.734196025590991 -99.0627535247137 0.73419602559099 -99.0627535247136 0.570814664893104 -4.87217808493504 
! Gamma         0                0                0                0                
! Port Impedance         50               0                50               0                
87.3                           0.563797974039873 -5.83561137468941 0.738419612860356 -100.041136362702 0.738419612860357 -100.041136362702 0.563975037782101 -5.68703927256695 
! Gamma         0                0                0                0                
! Port Impedance         50               0                50               0                
87.4                           0.556723532035625 -6.65781708363864 0.742702440306252 -101.030728464039 0.742702440306252 -101.030728464039 0.556906366102913 -6.50638759353897 
! Gamma         0                0                0                0                
! Port Impedance         50               0                50               0                
87.5                           0.549414438262692 -7.48438671840993 0.747041195257768 -102.031779863138 0.747041195257769 -102.031779863138 0.549603260369504 -7.32999793118296 
! Gamma         0                0                0                0                
! Port Impedance         50               0                50               0                
87.6                           0.541865316716968 -8.31505261679064 0.751432258106599 -103.044535933243 0.751432258106598 -103.044535933242 0.542060355750222 -8.15759504154934 
! Gamma         0                0                0                0                
! Port Impedance         50               0                50               0                
87.7                           0.53407083965063 -9.1494910437791 0.755871686821222 -104.069236405939 0.755871686821222 -104.069236405939 0.534272336654189 -8.98884690171576 
! Gamma         0                0                0                0                
! Port Impedance         50               0                50               0                
87.8                           0.526025754910428 -9.98731467468928 0.760355201686597 -105.106114313831 0.760355201686597 -105.106114313831 0.526233964206328 -9.82335710883243 
! Gamma         0                0                0                0                
! Port Impedance         50               0                50               0                
87.9                           0.517724916376284 -10.8280639794927 0.764878170438396 -106.155394854574 0.764878170438396 -106.155394854574 0.517940106845903 -10.6606561685984 
! Gamma         0                0                0                0                
! Port Impedance         50               0                50               0                
88                             0.509163317747205 -11.6711973156725 0.76943559398299 -107.217294175075 0.769435593982989 -107.217294175075 0.509385774299782 -11.5001914785741 
! Gamma         0                0                0                0                
! Port Impedance         50               0                50               0                
88.1                           0.500336129939731 -12.5160794957734 0.774022092917171 -108.292018075333 0.77402209291717 -108.292018075333 0.500566155200811 -12.3413157702896 
! Gamma         0                0                0                0                
! Port Impedance         50               0                50               0                
88.2                           0.491238742386384 -13.3619685444363 0.778631895085188 -109.379760632202 0.778631895085188 -109.379760632202 0.491476658645114 -13.1832737223362 
! Gamma         0                0                0                0                
! Port Impedance         50               0                50               0                
88.3                           0.481866808550204 -14.2080002950078 0.783258824434119 -110.48070274431 0.78325882443412 -110.48070274431 0.482112960012019 -14.0251863914733 
! Gamma         0                0                0                0                
! Port Impedance         50               0                50               0                
88.4                           0.472216296008748 -15.0531703939758 0.787896291451856 -111.595010600454 0.787896291451856 -111.595010600453 0.472471051409047 -14.8660330264174 
! Gamma         0                0                0                0                
! Port Impedance         50               0                50               0                
88.5                           0.462283541509967 -15.8963131773143 0.7925372854942  -112.722834074988 0.7925372854942  -112.722834074988 0.462547297156154 -15.7046297241832 
! Gamma         0                0                0                0                
! Port Impedance         50               0                50               0                
88.6                           0.452065311470344 -16.7360767493747 0.797174369328049 -113.864305055146 0.797174369328049 -113.864305055145 0.452338494793059 -16.5396042547307 
! Gamma         0                0                0                0                
! Port Impedance         50               0                50               0                
88.7                           0.441558868476716 -17.5708934230069 0.801799676235732 -115.019535706692 0.801799676235733 -115.019535706692 0.441841942188974 -17.3693662068986 
! Gamma         0                0                0                0                
! Port Impedance         50               0                50               0                
88.8                           0.430762044480899 -18.3989444564556 0.806404910040092 -116.188616686012 0.806404910040092 -116.188616686012 0.431055511464929 -18.1920713846753 
! Gamma         0                0                0                0                
! Port Impedance         50               0                50               0                
88.9                           0.419673321551468 -19.2181177310949 0.810981348420124 -117.3716153085  0.810981348420124 -117.3716153085  0.419977730620193 -19.0055790904813 
! Gamma         0                0                0                0                
! Port Impedance         50               0                50               0                
89                             0.408291921291609 -20.0259566305181 0.815519849891523 -118.568573685013 0.815519849891523 -118.568573685013 0.408607874005523 -19.8074005478693 
! Gamma         0                0                0                0                
! Port Impedance         50               0                50               0                
89.1                           0.396617904372568 -20.8195978730639 0.820010864824444 -119.77950684016 0.820010864824446 -119.77950684016 0.396946063135497 -20.5946362071233 
! Gamma         0                0                0                0                
! Port Impedance         50               0                50               0                
89.2                           0.384652282108713 -21.5956953706062 0.8244444508607  -121.004400828236 0.8244444508607  -121.004400828236 0.384993379820275 -21.3638989981332 
! Gamma         0                0                0                0                
! Port Impedance         50               0                50               0                
89.3                           0.372397142668185 -22.3503262716034 0.828810293073594 -122.243210864703 0.828810293073595 -122.243210864702 0.372751994280194 -22.1112196815056 
! Gamma         0                0                0                0                
! Port Impedance         50               0                50               0                
89.4                           0.359855795455517 -23.0788741039287 0.833097729184228 -123.495859493158 0.833097729184227 -123.495859493157 0.360225311868528 -22.8319292100558 
! Gamma         0                0                0                0                
! Port Impedance         50               0                50               0                
89.5                           0.347032938535281 -23.7758822309235 0.837295780107612 -124.76223480976 0.837295780107613 -124.76223480976 0.347418143385899 -23.5205113187309 
! Gamma         0                0                0                0                
! Port Impedance         50               0                50               0                
89.6                           0.333934855867808 -24.4348684816554 0.841393186049369 -126.042188768904 0.84139318604937 -126.042188768904 0.334336905905179 -24.1704162238985 
! Gamma         0                0                0                0                
! Port Impedance         50               0                50               0                
89.7                           0.320569653856952 -25.0480885356724 0.845378448308597 -127.335535595616 0.845378448308598 -127.335535595615 0.320989863797901 -24.7738230609405 
! Gamma         0                0                0                0                
! Port Impedance         50               0                50               0                
89.8                           0.306947550665261 -25.6062310264265 0.8492398768645  -128.642050331548 0.849239876864502 -128.642050331548 0.307387423663306 -25.3213341252035 
! Gamma         0                0                0                0                
! Port Impedance         50               0                50               0                
89.9                           0.293081237537307 -26.0980207759209 0.852965643733664 -129.961467542492 0.852965643733665 -129.961467542492 0.293542502715671 -25.8015775235469 
! Gamma         0                0                0                0                
! Port Impedance         50               0                50               0                
90                             0.278986339930924 -26.5096972004626 0.856543841982203 -131.293480215955 0.856543841982204 -131.293480215955 0.279470998826766 -26.2006856392992 
! Gamma         0                0                0                0                
! Port Impedance         50               0                50               0                
90.1                           0.264682019066191 -26.8243214303984 0.859962550163462 -132.637738877504 0.859962550163464 -132.637738877504 0.265192403318967 -26.5016036183156 
! Gamma         0                0                0                0                
! Port Impedance         50               0                50               0                
90.2                           0.250191773914112 -27.0208461702584 0.863209901829497 -133.993850954125 0.8632099018295  -133.993850954124 0.250730617092191 -26.683163111646 
! Gamma         0                0                0                0                
! Port Impedance         50               0                50               0                
90.3                           0.235544533434074 -27.0728541131987 0.866274159635409 -135.361380411797 0.86627415963541 -135.361380411797 0.236115060457164 -26.7188292857035 
! Gamma         0                0                0                0                
! Port Impedance         50               0                50               0                
90.4                           0.220776175110945 -26.9468302747339 0.869143793422963 -136.73984769273 0.869143793422965 -136.739847692729 0.221382213087744 -26.5749904684618 
! Gamma         0                0                0                0                
! Port Impedance         50               0                50               0                
90.5                           0.205931678335356 -26.5997769662512 0.87180756153728 -138.128729975236 0.871807561537282 -138.128729975236 0.206577792270129 -26.2086064797196 
! Gamma         0                0                0                0                
! Port Impedance         50               0                50               0                
90.6                           0.191068235430162 -25.9759051262855 0.87425459450189 -139.52746177604 0.874254594501892 -139.52746177604 0.191759889920536 -25.5639628210695 
! Gamma         0                0                0                0                
! Port Impedance         50               0                50               0                
90.7                           0.17625982264357 -25.0020495275679 0.876474480057573 -140.935435910864 0.876474480057575 -140.935435910864 0.177003563551464 -24.5682029292861 
! Gamma         0                0                0                0                
! Port Impedance         50               0                50               0                
90.8                           0.161604009720144 -23.5813969289351 0.878457348463907 -142.35200482453 0.878457348463911 -142.35200482453 0.162407641497542 -23.125272277427 
! Gamma         0                0                0                0                
! Port Impedance         50               0                50               0                
90.9                           0.147232187365009 -21.5852187036856 0.880193956874037 -143.776482296581 0.880193956874042 -143.776482296581 0.148104878528761 -21.1080438338603 
! Gamma         0                0                0                0                
! Port Impedance         50               0                50               0                
91                             0.133324884056352 -18.842951799356 0.881675771527406 -145.208145522602 0.881675771527409 -145.208145522602 0.134277037380883 -18.3490918309995 
! Gamma         0                0                0                0                
! Port Impedance         50               0                50               0                
91.1                           0.120134133337429 -15.1331889535467 0.882895046466304 -146.646237565245 0.882895046466308 -146.646237565244 0.121176660115413 -14.6328184016706 
! Gamma         0                0                0                0                
! Port Impedance         50               0                50               0                
91.2                           0.108013797740268 -10.1841760714835 0.883844897473418 -148.089970162446 0.883844897473422 -148.089970162446 0.109156086620785 -9.69750210989221 
! Gamma         0                0                0                0                
! Port Impedance         50               0                50               0                
91.3                           0.0974530564614843 -3.70562506184244 0.884519369951739 -149.538526873757 0.884519369951743 -149.538526873757 0.0986985237668322 -3.26817281042238 
! Gamma         0                0                0                0                
! Port Impedance         50               0                50               0                
91.4                           0.0890913944129409 4.50804306748608 0.884913499526689 -150.99106653915 0.884913499526693 -150.99106653915 0.0904297975517856 4.84283739774557 
! Gamma         0                0                0                0                
! Port Impedance         50               0                50               0                
91.5                           0.0836630221224573 14.3724616024661 0.885023364243238 -152.446727018428 0.885023364243243 -152.446727018428 0.0850617225942266 14.5426932289778 
! Gamma         0                0                0                0                
! Port Impedance         50               0                50               0                
91.6                           0.081810016193859 25.2948965021071 0.884846127356954 -153.904629173561 0.884846127356959 -153.90462917356 0.0832127471435717 25.2588355166827 
! Gamma         0                0                0                0                
! Port Impedance         50               0                50               0                
91.7                           0.0838064154052157 36.2240838414809 0.884380069874708 -155.363881051104 0.884380069874713 -155.363881051103 0.0851484593048668 35.9901503842075 
! Gamma         0                0                0                0                
! Port Impedance         50               0                50               0                
91.8                           0.0894115749190193 46.104562642585  0.883624612184227 -156.823582217552 0.883624612184232 -156.823582217552 0.0906433894823245 45.7274873743613 
! Gamma         0                0                0                0                
! Port Impedance         50               0                50               0                
91.9                           0.0980076636566981 54.3352417871684 0.882580324316519 -158.282828197088 0.882580324316523 -158.282828197087 0.0991067366655314 53.882083321565  
! Gamma         0                0                0                0                
! Port Impedance         50               0                50               0                
92                             0.108873591311882 60.8254997399449 0.881248924605318 -159.740714958925 0.881248924605323 -159.740714958925 0.10983971210349 60.3486553919075 
! Gamma         0                0                0                0                
! Port Impedance         50               0                50               0                
92.1                           0.121375020388773 65.7783830843067 0.879633266736053 -161.196343400355 0.879633266736058 -161.196343400354 0.122219814914597 65.3095482118522 
! Gamma         0                0                0                0                
! Port Impedance         50               0                50               0                
92.2                           0.135023467782728 69.4840091995615 0.877737315406073 -162.648823771665 0.877737315406079 -162.648823771664 0.135762455656628 69.0390901416375 
! Gamma         0                0                0                0                
! Port Impedance         50               0                50               0                
92.3                           0.149463481208087 72.2148914294268 0.875566111040552 -164.097279990453 0.875566111040557 -164.097279990453 0.150111982563314 71.8002789565295 
! Gamma         0                0                0                0                
! Port Impedance         50               0                50               0                
92.4                           0.164440219523995 74.1933844916693 0.87312572421749 -165.540853795284 0.873125724217495 -165.540853795284 0.165011780388948 73.8104152694389 
! Gamma         0                0                0                0                
! Port Impedance         50               0                50               0                
92.5                           0.179769623414963 75.5909188307125 0.870423200644002 -166.978708692197 0.870423200644007 -166.978708692197 0.180275668227018 75.2384893535019 
! Gamma         0                0                0                0                
! Port Impedance         50               0                50               0                
92.6                           0.195316287583072 76.5369516244805 0.867466497689106 -168.410033652032 0.867466497689111 -168.410033652032 0.19576626287817 76.2129173093221 
! Gamma         0                0                0                0                
! Port Impedance         50               0                50               0                
92.7                           0.210978276469279 77.1288982782749 0.864264413611049 -169.834046521836 0.864264413611053 -169.834046521836 0.211379944134277 76.8307825373294 
! Gamma         0                0                0                0                
! Port Impedance         50               0                50               0                
92.8                           0.226676984961732 77.4404283795    0.860826510716823 -171.249997119483 0.860826510716828 -171.249997119483 0.227036726361313 77.1657640111631 
! Gamma         0                0                0                0                
! Port Impedance         50               0                50               0                
92.9                           0.242350398088036 77.527764200221  0.857163033756265 -172.657169986974 0.857163033756269 -172.657169986974 0.242673481377294 77.2742452570869 
! Gamma         0                0                0                0                
! Port Impedance         50               0                50               0                
93                             0.25794858046159 77.4342859923804 0.853284824882727 -174.054886784419 0.85328482488273 -174.054886784419 0.258239380630473 77.1998243542131 
! Gamma         0                0                0                0                
! Port Impedance         50               0                50               0                
93.1                           0.273430620663448 77.1938552257682 0.849203236508029 -175.442508313315 0.849203236508033 -175.442508313315 0.273692795517726 76.976590736448  
! Gamma         0                0                0                0                
! Port Impedance         50               0                50               0                
93.2                           0.288762529456221 76.8332095392921 0.844930043343358 -176.819436164174 0.844930043343362 -176.819436164174 0.288999158686197 76.631498752023  
! Gamma         0                0                0                0                
! Port Impedance         50               0                50               0                
93.3                           0.303915769214586 76.3736969736952 0.840477354853499 -178.185113989702 0.840477354853502 -178.185113989702 0.304129463938852 76.1860931825186 
! Gamma         0                0                0                0                
! Port Impedance         50               0                50               0                
93.4                           0.31886620583769 75.832541784924  0.835857529263211 -179.539028410448 0.835857529263213 -179.539028410448 0.319059195021228 75.657772623174  
! Gamma         0                0                0                0                
! Port Impedance         50               0                50               0                
93.5                           0.333593346805832 75.2237772178144 0.831083090146399 179.119290435001 0.831083090146401 179.119290435001 0.333767545719726 75.060722804339  
! Gamma         0                0                0                0                
! Port Impedance         50               0                50               0                
93.6                           0.348079775313367 74.5589399516335 0.826166646505798 177.79026867873  0.8261666465058  177.79026867873  0.348236840074695 74.4066128755024 
! Gamma         0                0                0                0                
! Port Impedance         50               0                50               0                
93.7                           0.36231072027519 73.8475925560876 0.821120817118162 176.4742888307   0.821120817118163 176.4742888307   0.36245209157579 73.7051201389464 
! Gamma         0                0                0                0                
! Port Impedance         50               0                50               0                
93.8                           0.376273721512563 73.0977206672242 0.815958159782054 175.171690181013 0.815958159782055 175.171690181013 0.376400659916213 72.9643295277518 
! Gamma         0                0                0                0                
! Port Impedance         50               0                50               0                
93.9                           0.389958362331896 72.316038017142  0.81069110596682 173.882769471411 0.81069110596682 173.882769471411 0.390071976959186 72.1910407741968 
! Gamma         0                0                0                0                
! Port Impedance         50               0                50               0                
94                             0.403356050359714 71.5082230243076 0.805331901225853 172.607781808596 0.805331901225853 172.607781808596 0.403457322354608 71.3910069034626 
! Gamma         0                0                0                0                
! Port Impedance         50               0                50               0                
94.1                           0.416459833360868 70.6791040618259 0.799892551608346 171.346941790958 0.799892551608345 171.346941790958 0.416549635212031 70.5691211559653 
! Gamma         0                0                0                0                
! Port Impedance         50               0                50               0                
94.2                           0.429264240788145 69.8328058782945 0.794384776183892 170.100424819997 0.79438477618389 170.100424819997 0.429343352335137 69.729564825984  
! Gamma         0                0                0                0                
! Port Impedance         50               0                50               0                
94.3                           0.441765144592087 68.9728663464574 0.788819965685624 168.868368567938 0.788819965685622 168.868368567938 0.441834266361824 68.875925216176  
! Gamma         0                0                0                0                
! Port Impedance         50               0                50               0                
94.4                           0.453959634758036 68.1023303491179 0.783209147181471 167.650874573732 0.783209147181469 167.650874573732 0.454019399137434 68.0112905448586 
! Gamma         0                0                0                0                
! Port Impedance         50               0                50               0                
94.5                           0.465845906395395 67.223825900237  0.777562954600277 166.448009940767 0.777562954600275 166.448009940767 0.465896887038715 67.1383269306938 
! Gamma         0                0                0                0                
! Port Impedance         50               0                50               0                
94.6                           0.477423156158161 66.3396263498745 0.771891604870389 165.259809111053 0.771891604870386 165.259809111053 0.47746587594506 66.2593413276867 
! Gamma         0                0                0                0                
! Port Impedance         50               0                50               0                
94.7                           0.488691486445644 65.4517016020964 0.766204879372495 164.086275692332 0.766204879372492 164.086275692332 0.488726424242618 65.3763333607829 
! Gamma         0                0                0                0                
! Port Impedance         50               0                50               0                
94.8                           0.499651816301901 64.5617605923773 0.760512110365679 162.927384316481 0.760512110365675 162.927384316481 0.499679412729926 64.4910383267216 
! Gamma         0                0                0                0                
! Port Impedance         50               0                50               0                
94.9                           0.51030579825869 63.671286760285  0.754822172014705 161.783082509533 0.754822172014701 161.783082509533 0.510326460631369 63.6049631112304 
! Gamma         0                0                0                0                
! Port Impedance         50               0                50               0                
95                             0.520655740591056 62.7815678683283 0.749143475626762 160.653292555761 0.749143475626758 160.653292555761 0.520669847156834 62.7194163862394 
! Gamma         0                0                0                0                
! Port Impedance         50               0                50               0                
95.1                           0.530704534606318 61.8937212254056 0.74348396869573 159.537913340294 0.743483968695725 159.537913340294 0.530712438204296 61.83553415624   
! Gamma         0                0                0                0                
! Port Impedance         50               0                50               0                
95.2                           0.540455586687139 61.008715149775  0.737851137350494 158.436822156827 0.737851137350487 158.436822156827 0.540457617906526 60.9543014975936 
! Gamma         0                0                0                0                
! Port Impedance         50               0                50               0                
95.3                           0.549912754872228 60.1273873344224 0.732252011809513 157.349876468912 0.732252011809507 157.349876468912 0.549909224790326 60.0765711610125 
! Gamma         0                0                0                0                
! Port Impedance         50               0                50               0                
95.4                           0.559080289796609 59.2504606443311 0.726693174455483 156.276915615246 0.726693174455477 156.276915615246 0.559071492357289 59.2030795729027 
! Gamma         0                0                0                0                
! Port Impedance         50               0                50               0                
95.5                           0.567962779832997 58.378556771398  0.721180770160402 155.217762451096 0.721180770160395 155.217762451096 0.567948993917872 58.3344606663677 
! Gamma         0                0                0                0                
! Port Impedance         50               0                50               0                
95.6                           0.576565100285389 57.5122080911915 0.715720518511444 154.172224919657 0.715720518511437 154.172224919657 0.576546591521307 57.4712578903593 
! Gamma         0                0                0                0                
! Port Impedance         50               0                50               0                
95.7                           0.584892366486852 56.6518680016562 0.710317727610888 153.140097548611 0.710317727610881 153.140097548611 0.584869388826694 56.6139346806061 
! Gamma         0                0                0                0                
! Port Impedance         50               0                50               0                
95.8                           0.592949890651089 55.7979199729364 0.704977309147876 152.121162868528 0.704977309147868 152.121162868528 0.592922687759187 55.7628836244794 
! Gamma         0                0                0                0                
! Port Impedance         50               0                50               0                
95.9                           0.600743142322362 54.9506854969547 0.699703794465394 151.115192750899 0.699703794465386 151.115192750899 0.600711948791094 54.918434510924  
! Gamma         0                0                0                0                
! Port Impedance         50               0                50               0                
96                             0.608277712262889 54.1104310929117 0.694501351371798 150.121949664713 0.694501351371789 150.121949664713 0.60824275468321 54.0808614237107 
! Gamma         0                0                0                0                
! Port Impedance         50               0                50               0                
96.1                           0.615559279611577 53.2773744987026 0.689373801471916 149.141187851339 0.689373801471907 149.141187851339 0.615520777516938 53.2503890097786 
! Gamma         0                0                0                0                
! Port Impedance         50               0                50               0                
96.2                           0.622593582143897 52.4516901570902 0.684324637817904 148.172654418313 0.684324637817894 148.172654418313 0.622551748844176 52.4271980330115 
! Gamma         0                0                0                0                
! Port Impedance         50               0                50               0                
96.3                           0.629386389459789 51.6335140882414 0.679357042704079 147.216090353248 0.679357042704069 147.216090353248 0.62934143277966 51.6114303063051 
! Gamma         0                0                0                0                
! Port Impedance         50               0                50               0                
96.4                           0.635943478925164 50.8229482261629 0.674473905452899 146.271231459682 0.674473905452889 146.271231459682 0.635895601859159 50.8031930805518 
! Gamma         0                0                0                0                
! Port Impedance         50               0                50               0                
96.5                           0.642270614192801 50.0200642849755 0.669677840060636 145.337809217065 0.669677840060625 145.337809217065 0.642220015487833 50.0025629574009 
! Gamma         0                0                0                0                
! Port Impedance         50               0                50               0                
96.6                           0.648373526129959 49.2249072114496 0.664971202591236 144.415551567496 0.664971202591225 144.415551567496 0.648320400804493 49.2095893829897 
! Gamma         0                0                0                0                
! Port Impedance         50               0                50               0                
96.7                           0.654257895983258 48.4374982722253 0.660356108225109 143.504183632048 0.660356108225097 143.504183632048 0.654202435791083 48.4242977717607 
! Gamma         0                0                0                0                
! Port Impedance         50               0                50               0                
96.8                           0.659929340615338 47.6578378175749 0.655834447886271 142.603428359724 0.655834447886259 142.603428359724 0.659871734460857 47.6466923027856 
! Gamma         0                0                0                0                
! Port Impedance         50               0                50               0                
96.9                           0.665393399653115 46.8859077579732 0.65140790438628 141.713007112228 0.651407904386269 141.713007112228 0.665333833964233 46.8767584253568 
! Gamma         0                0                0                0                
! Port Impedance         50               0                50               0                
97                             0.670655524393545 46.1216737850588 0.647077968036875 140.83264018779  0.647077968036863 140.83264018779  0.670594183457238 46.1144651058809 
! Gamma         0                0                0                0                
! Port Impedance         50               0                50               0                
97.1                           0.675721068319314 45.3650873646236 0.642845951695188 139.962047287318 0.642845951695176 139.962047287318 0.675658134584465 45.3597668440522 
! Gamma         0                0                0                0                
! Port Impedance         50               0                50               0                
97.2                           0.680595279084258 44.6160875258542 0.638713005215917 139.10094792614  0.638713005215905 139.10094792614  0.680530933435664 44.6126054828789 
! Gamma         0                0                0                0                
! Port Impedance         50               0                50               0                
97.3                           0.685283291835642 43.8746024681836 0.634680129294054 138.249061794534 0.634680129294042 138.249061794535 0.685217713842577 43.8729118341854 
! Gamma         0                0                0                0                
! Port Impedance         50               0                50               0                
97.4                           0.689790123748197 43.1405510046186 0.630748188689715 137.406109070188 0.630748188689702 137.406109070188 0.689723491890536 43.1406071387008 
! Gamma         0                0                0                0                
! Port Impedance         50               0                50               0                
97.5                           0.69412066965269 42.413843858248  0.626917924833446 136.571810685607 0.626917924833434 136.571810685608 0.694053161527084 42.4156043776633 
! Gamma         0                0                0                0                
! Port Impedance         50               0                50               0                
97.6                           0.698279698649324 41.6943848267986 0.623189967816169 135.745888553398 0.623189967816157 135.745888553398 0.698211491157721 41.6978094509787 
! Gamma         0                0                0                0                
! Port Impedance         50               0                50               0                
97.7                           0.702271851604192 40.9820718284653 0.619564847772784 134.928065752203 0.619564847772772 134.928065752203 0.70220312112659 40.9871222353298 
! Gamma         0                0                0                0                
! Port Impedance         50               0                50               0                
97.8                           0.706101639434238 40.2767978408293 0.616043005672477 134.118066675928 0.616043005672465 134.118066675928 0.706032561987375 40.2834375341968 
! Gamma         0                0                0                0                
! Port Impedance         50               0                50               0                
97.9                           0.709773442093554 39.5784517434404 0.612624803532042 133.315617148769 0.612624803532031 133.315617148769 0.709704193476952 39.5866459304848 
! Gamma         0                0                0                0                
! Port Impedance         50               0                50               0                
98                             0.713291508180712 38.8869190735341 0.609310534071154 132.520444508368 0.609310534071142 132.520444508368 0.713222264111346 38.8966345513438 
! Gamma         0                0                0                0                
! Port Impedance         50               0                50               0                
98.1                           0.716659955093496 38.2020827033888 0.606100429830546 131.732277659293 0.606100429830535 131.732277659293 0.71659089133018 38.2132877537832 
! Gamma         0                0                0                0                
! Port Impedance         50               0                50               0                
98.2                           0.719882769663676 37.5238234469753 0.602994671775613 130.95084709888  0.602994671775602 130.950847098881 0.719814062122064 37.5364877388197 
! Gamma         0                0                0                0                
! Port Impedance         50               0                50               0                
98.3                           0.72296380921041 36.8520206027826 0.599993397408981 130.175884917313 0.599993397408971 130.175884917314 0.722895634069465 36.8661151011211 
! Gamma         0                0                0                0                
! Port Impedance         50               0                50               0                
98.4                           0.725906802956474 36.1865524390198 0.597096708416396 129.407124773668 0.597096708416386 129.407124773668 0.72583933675705 36.2020493204124 
! Gamma         0                0                0                0                
! Port Impedance         50               0                50               0                
98.5                           0.728715353756715 35.5272966268072 0.594304677870571 128.644301849508 0.594304677870561 128.644301849509 0.728648773492859 35.5441692003142 
! Gamma         0                0                0                0                
! Port Impedance         50               0                50               0                
98.6                           0.731392940092979 34.8741306263954 0.591617357017831 127.887152781464 0.591617357017821 127.887152781464 0.731327423296461 34.8923532597178 
! Gamma         0                0                0                0                
! Port Impedance         50               0                50               0                
98.7                           0.733942918294358 34.2269320309971 0.589034781672235 127.135415574082 0.589034781672226 127.135415574082 0.733878643112857 34.2464800813133 
! Gamma         0                0                0                0                
! Port Impedance         50               0                50               0                
98.8                           0.736368524945711 33.5855788723515 0.58655697824156 126.388829494117 0.586556978241551 126.388829494117 0.736305670214989 33.6064286214487 
! Gamma         0                0                0                0                
! Port Impedance         50               0                50               0                
98.9                           0.738672879451295 32.9499498917706 0.584183969409088 125.647134947278 0.584183969409079 125.647134947279 0.738611624761713 32.9720784850954 
! Gamma         0                0                0                0                
! Port Impedance         50               0                50               0                
99                             0.740858986723928 32.3199247800417 0.581915779494502 124.910073338337 0.581915779494494 124.910073338337 0.740799512481504 32.3433101693388 
! Gamma         0                0                0                0                
! Port Impedance         50               0                50               0                
99.1                           0.742929739973297 31.6953843892613 0.579752439516554 124.177386915367 0.579752439516548 124.177386915367 0.74287222745554 31.7200052784916 
! Gamma         0                0                0                0                
! Port Impedance         50               0                50               0                
99.2                           0.744887923570071 31.0762109193668 0.577693991979334 123.448818598781 0.577693991979328 123.448818598781 0.744832554976755 31.10204671363   
! Gamma         0                0                0                0                
! Port Impedance         50               0                50               0                
99.3                           0.746736215965112 30.4622880818932 0.575740495403157 122.724111795702 0.575740495403151 122.724111795702 0.746683174464114 30.4893188390996 
! Gamma         0                0                0                0                
! Port Impedance         50               0                50               0                
99.4                           0.748477192645635 29.8535012432236 0.573892028620166 122.003010200108 0.573892028620161 122.003010200108 0.748426662413945 29.8817076282876 
! Gamma         0                0                0                0                
! Port Impedance         50               0                50               0                
99.5                           0.750113329112336 29.249737549411  0.572148694853823 121.28525757908  0.572148694853819 121.28525757908  0.750065495372315 29.2791007907523 
! Gamma         0                0                0                0                
! Port Impedance         50               0                50               0                
99.6                           0.751647003863577 28.6508860344379 0.570510625600465 120.570597545377 0.570510625600461 120.570597545377 0.751602052914513 28.6813878826011 
! Gamma         0                0                0                0                
! Port Impedance         50               0                50               0                
99.7                           0.753080501374546 28.0568377136167 0.568977984330124 119.858773316473 0.56897798433012 119.858773316473 0.753038620619534 28.0884604018312 
! Gamma         0                0                0                0                
! Port Impedance         50               0                50               0                
99.8                           0.754416015060937 27.4674856636691 0.567550970022791 119.149527460079 0.56755097002279 119.149527460079 0.754377393029113 27.5002118701895 
! Gamma         0                0                0                0                
! Port Impedance         50               0                50               0                
99.9                           0.755655650218232 26.8827250908811 0.566229820555247 118.442601626094 0.566229820555246 118.442601626094 0.755620476582329 26.9165379029587 
! Gamma         0                0                0                0                
! Port Impedance         50               0                50               0                
100                            0.756801426928935 26.3024533885994 0.565014815952526 117.737736264836 0.565014815952526 117.737736264836 0.756769892518176 26.3373362679506 
! Gamma         -0               -0               0                0                
! Port Impedance         50               0                50               0                
