! Touchstone file exported from HFSS 2026.1.0
!        File:           C:/ffzhzh/LocalFiles/Ansys_Project_Files/temp_train_TSV_RDL_261_1783673386_29156.aedt
!        Generated:      04:58:38 PM Jul 10, 2026
!        Design:         TSV_RDL
!        Project:        temp_train_TSV_RDL_261_1783673386_29156
!
! Variables:
!        h_bsmrdl = 3.99um
!        h_ox = 20um
!        h_rdl = 5um
!        h_sub = 70.02um
!        h_tmrdl = 3.28um
!        h_tsv = 70.02um
!        h_via = 3um
!        l_bsmrdl = 680.04um
!        l_sub = 3969.86um
!        l_tmrdl = 348.55um
!        m_sub = 200um
!        pitch = 49.21um
!        r_tsv = 7.4um
!        s_tmrdl = 10um
!        w_bsmrdl = 29.94um
!        w_sub = 500um
!        w_tmrdl = 15.24um
!        x_tsv_center1 = 356.17um
!        x_tsv_center2 = 1066.15um
!        x_tsv_center3 = 1429.94um
!        x_tsv_center4 = 2139.92um
!        x_tsv_center5 = 2503.71um
!        x_tsv_center6 = 3213.69um
!
# GHz S MA R 50.000000
! Terminal data exported
! Port[1] = TM_RDL1_1_T1
! Port[2] = TM_RDL5_1_T1
0.1                            0.022395531313093 36.1868867155776 0.982170100037606 -1.44615827236095 0.982170100037607 -1.44615827236095 0.0223955862994809 36.1867613216909 
! Gamma         0                0                0                0                
! Port Impedance         50               0                50               0                
0.2                            0.0325418371823494 52.3340515487038 0.981064421576879 -2.85645595311243 0.98106442157688 -2.85645595311246 0.0325420146292813 52.3336619849622 
! Gamma         0                0                0                0                
! Port Impedance         50               0                50               0                
0.3                            0.0437474427066369 59.5330840466072 0.97988945996572 -4.23745607366592 0.979889459965721 -4.23745607366596 0.0437477806194758 59.532335272761  
! Gamma         0                0                0                0                
! Port Impedance         50               0                50               0                
0.4                            0.0552283794401483 63.2687641476145 0.978756328929459 -5.60476898316596 0.97875632892946 -5.60476898316601 0.0552288828908446 63.2676304085379 
! Gamma         0                0                0                0                
! Port Impedance         50               0                50               0                
0.5                            0.0668384006811573 65.3198867342801 0.977618436035241 -6.96607721523104 0.977618436035241 -6.96607721523109 0.0668390680074841 65.3183672390723 
! Gamma         0                0                0                0                
! Port Impedance         50               0                50               0                
0.6                            0.0785123797558583 66.4041947682353 0.97642414960968 -8.32376454736389 0.97642414960968 -8.32376454736394 0.0785132095893034 66.4022933757914 
! Gamma         0                0                0                0                
! Port Impedance         50               0                50               0                
0.7                            0.0902013911606595 66.8784550373103 0.975142299783493 -9.67817881709392 0.975142299783493 -9.67817881709396 0.0902023823738035 66.8761753507153 
! Gamma         0                0                0                0                
! Port Impedance         50               0                50               0                
0.8                            0.101867037469249 66.944385766565  0.973757417956806 -11.0290398262438 0.973757417956806 -11.0290398262438 0.101868188337098 66.9417306311451 
! Gamma         0                0                0                0                
! Port Impedance         50               0                50               0                
0.9                            0.113479625301154 66.725372046848  0.972263265959029 -12.3759269838632 0.972263265959029 -12.3759269838632 0.113480933132946 66.7223438611693 
! Gamma         0                0                0                0                
! Port Impedance         50               0                50               0                
1                              0.125016131481463 66.3010232664231 0.970658664928241 -13.7184280190161 0.970658664928241 -13.7184280190161 0.125017592702953 66.297624264638  
! Gamma         0                0                0                0                
! Port Impedance         50               0                50               0                
1.1                            0.136458364092508 65.7248151949201 0.968945164310462 -15.0561735988843 0.968945164310461 -15.0561735988843 0.136459974572618 65.7210475828592 
! Gamma         0                0                0                0                
! Port Impedance         50               0                50               0                
1.2                            0.147791543444471 65.0338644753872 0.967125801714795 -16.3888368619438 0.967125801714795 -16.3888368619438 0.147793298897014 65.0297304578203 
! Gamma         0                0                0                0                
! Port Impedance         50               0                50               0                
1.3                            0.159003290880829 64.2546626621398 0.965204460456355 -17.716124721255 0.965204460456354 -17.716124721255 0.159005187237012 64.250164413009  
! Gamma         0                0                0                0                
! Port Impedance         50               0                50               0                
1.4                            0.170082939668076 63.4065875319233 0.963185543714228 -19.0377694780392 0.963185543714228 -19.0377694780392 0.170084973368973 63.4017271447201 
! Gamma         0                0                0                0                
! Port Impedance         50               0                50               0                
1.5                            0.18102107904454 62.5041279420357 0.961073811608949 -20.3535228855825 0.961073811608949 -20.3535228855825 0.181023247238638 62.4989073815483 
! Gamma         0                0                0                0                
! Port Impedance         50               0                50               0                
1.6                            0.191809259331516 61.5583340657478 0.958874298774357 -21.6631526688325 0.958874298774357 -21.6631526688325 0.191811559983163 61.552755130921  
! Gamma         0                0                0                0                
! Port Impedance         50               0                50               0                
1.7                            0.202439804848545 60.5777859712532 0.956592269139498 -22.9664409149971 0.956592269139497 -22.9664409149971 0.202442236772791 60.5718502719367 
! Gamma         0                0                0                0                
! Port Impedance         50               0                50               0                
1.8                            0.212905697108703 59.5692545444771 0.954233185940889 -24.2631837031641 0.954233185940889 -24.2631837031641 0.212908259950826 59.5629634911769 
! Gamma         0                0                0                0                
! Port Impedance         50               0                50               0                
1.9                            0.22320050263046 58.5381613015296 0.951802686432523 -25.5531914594225 0.951802686432523 -25.5531914594225 0.223203196807381 58.5315161057262 
! Gamma         0                0                0                0                
! Port Impedance         50               0                50               0                
2                              0.233318328203363 57.4889040362958 0.949306556771177 -26.836289668736 0.949306556771177 -26.836289668736 0.233321154821383 57.4819057185265 
! Gamma         0                0                0                0                
! Port Impedance         50               0                50               0                
2.1                            0.243253792354303 56.4250913126569 0.946750705588633 -28.1123196993613 0.946750705588633 -28.1123196993613 0.243256753114405 56.4177407157879 
! Gamma         0                0                0                0                
! Port Impedance         50               0                50               0                
2.2                            0.253002005782123 55.3497139789185 0.944141136193007 -29.3811395894385 0.944141136193008 -29.3811395894385 0.253005102881043 55.3420117844948 
! Gamma         0                0                0                0                
! Port Impedance         50               0                50               0                
2.3                            0.262558556218797 54.265272491587  0.94148391793115 -30.6426247109964 0.941483917931151 -30.6426247109963 0.262561792251564 54.2572192376549 
! Gamma         0                0                0                0                
! Port Impedance         50               0                50               0                
2.4                            0.271919494949755 53.1738727766904 0.938785157411496 -31.8966682701093 0.938785157411497 -31.8966682701093 0.271922872817417 53.1654688759416 
! Gamma         0                0                0                0                
! Port Impedance         50               0                50               0                
2.5                            0.281081323380319 52.0772993805946 0.936050970257198 -33.1431816294482 0.936050970257198 -33.1431816294481 0.281084846205087 52.0685451380561 
! Gamma         0                0                0                0                
! Port Impedance         50               0                50               0                
2.6                            0.290040978775452 50.9770720122185 0.933287453950371 -34.3820944560038 0.933287453950372 -34.3820944560038 0.290044649824449 50.9679676419992 
! Gamma         0                0                0                0                
! Port Impedance         50               0                50               0                
2.7                            0.298795818766901 49.8744897869887 0.930500662198462 -35.6133547060557 0.930500662198463 -35.6133547060556 0.298799641384971 49.8650354278039 
! Gamma         0                0                0                0                
! Port Impedance         50               0                50               0                
2.8                            0.307343604509718 48.7706662554163 0.927696581130073 -36.8369284641305 0.927696581130074 -36.8369284641305 0.307347582061256 48.7608619847609 
! Gamma         0                0                0                0                
! Port Impedance         50               0                50               0                
2.9                            0.315682482542078 47.6665574475283 0.92488110752072 -38.0527996545208 0.924881107520722 -38.0527996545208 0.315686618361537 47.6564032944666 
! Gamma         0                0                0                0                
! Port Impedance         50               0                50               0                
3                              0.32381096549963 46.5629845663581 0.922060029161429 -39.2609696440641 0.92206002916143 -39.260969644064 0.323815262850193 46.5524805229665 
! Gamma         0                0                0                0                
! Port Impedance         50               0                50               0                
3.1                            0.33172791188554 45.4606525389279 0.919239007413801 -40.461456754068 0.919239007413802 -40.4614567540679 0.331732373925312 45.4497985704621 
! Gamma         0                0                0                0                
! Port Impedance         50               0                50               0                
3.2                            0.339432505117399 44.3601653281139 0.916423561941706 -41.6542956979623 0.916423561941708 -41.6542956979623 0.339437134872463 44.3489613819976 
! Gamma         0                0                0                0                
! Port Impedance         50               0                50               0                
3.3                            0.346924232073856 43.2620386874224 0.91361905756936 -42.8395369597396 0.913619057569361 -42.8395369597396 0.346929032417501 43.2504847011592 
! Gamma         0                0                0                0                
! Port Impedance         50               0                50               0                
3.4                            0.354202861354377 42.1667108784286 0.910830693185652 -44.0172461266847 0.910830693185653 -44.0172461266847 0.354207834991851 42.1548067865459 
! Gamma         0                0                0                0                
! Port Impedance         50               0                50               0                
3.5                            0.361268421449827 41.0745517505382 0.908063492593151 -45.1875031883678 0.908063492593153 -45.1875031883678 0.361273570907974 41.0622974906648 
! Gamma         0                0                0                0                
! Port Impedance         50               0                50               0                
3.6                            0.36812117900247 39.9858704930197 0.905322297185296 -46.3504018124433 0.905322297185298 -46.3504018124433 0.368126506623659 39.9732660111955 
! Gamma         0                0                0                0                
! Port Impedance         50               0                50               0                
3.7                            0.374761617313546 38.9009223016668 0.902611760325651 -47.5060486064694 0.902611760325652 -47.5060486064694 0.374767125253336 38.8879675569745 
! Gamma         0                0                0                0                
! Port Impedance         50               0                50               0                
3.8                            0.381190415235908 37.8199141510932 0.899936343297518 -48.6545623737534 0.89993634329752 -48.6545623737534 0.381196105463934 37.8066091196946 
! Gamma         0                0                0                0                
! Port Impedance         50               0                50               0                
3.9                            0.387408426569164 36.7430098243341 0.897300312689848 -49.796073370129 0.89730031268985 -49.796073370129 0.387414300872768 36.7293545029866 
! Gamma         0                0                0                0                
! Port Impedance         50               0                50               0                
4                              0.39341666005568 35.6703343210863 0.894707739085527 -50.9307225675788 0.894707739085528 -50.9307225675789 0.393422720045858 35.6563287302059 
! Gamma         0                0                0                0                
! Port Impedance         50               0                50               0                
4.1                            0.399216260058096 34.6019777423396 0.892162496920283 -52.0586609297253 0.892162496920285 -52.0586609297253 0.39922250717736 34.587621928673  
! Gamma         0                0                0                0                
! Port Impedance         50               0                50               0                
4.2                            0.404808487982692 33.5379987307097 0.889668265384067 -53.1800487034068 0.889668265384069 -53.1800487034068 0.404814923514482 33.5232927696679 
! Gamma         0                0                0                0                
! Port Impedance         50               0                50               0                
4.3                            0.410194704498145 32.4784275312566 0.887228530241564 -54.295054729841 0.887228530241566 -54.295054729841 0.410201329577463 32.4633715289606 
! Gamma         0                0                0                0                
! Port Impedance         50               0                50               0                
4.4                            0.415376352585958 31.4232687260737 0.884846586454175 -55.4038557782297 0.884846586454176 -55.4038557782297 0.415383168210917 31.4078628211556 
! Gamma         0                0                0                0                
! Port Impedance         50               0                50               0                
4.5                            0.420354941447025 30.3725036867643 0.882525541492068 -56.5066359040893 0.88252554149207 -56.5066359040893 0.420361948491061 30.356748051964  
! Gamma         0                0                0                0                
! Port Impedance         50               0                50               0                
4.6                            0.425132031278473 29.3260927815788 0.880268319231585 -57.6035858340767 0.880268319231587 -57.6035858340767 0.425139230502942 29.3099876251718 
! Gamma         0                0                0                0                
! Port Impedance         50               0                50               0                
4.7                            0.429709218925863 28.2839773680705 0.878077664340218 -58.6949023786287 0.878077664340219 -58.6949023786287 0.42971661099283 28.2675229351595 
! Gamma         0                0                0                0                
! Port Impedance         50               0                50               0                
4.8                            0.434088124408169 27.2460815973353 0.875956147058415 -59.7807878733316 0.875956147058417 -59.7807878733316 0.434095709893173 27.2292781710367 
! Gamma         0                0                0                0                
! Port Impedance         50               0                50               0                
4.9                            0.438270378306372 26.2123140520018 0.873906168294483 -60.861449649586 0.873906168294485 -60.8614496495861 0.438278157710998 26.1951619545531 
! Gamma         0                0                0                0                
! Port Impedance         50               0                50               0                
5                              0.442257610001116 25.1825692369458 0.87192996495575 -61.9370995348217 0.871929964955751 -61.9370995348218 0.442265583765205 25.1650688307612 
! Gamma         0                0                0                0                
! Port Impedance         50               0                50               0                
5.1                            0.446051436740422 24.1567289390814 0.8700296154459  -63.00795338225  0.870029615445901 -63.00795338225  0.446059605253786 24.1388806277779 
! Gamma         0                0                0                0                
! Port Impedance         50               0                50               0                
5.2                            0.449653453514985 23.1346634704102 0.868207045264851 -64.0742306299081 0.868207045264853 -64.0742306299082 0.449661817128498 23.1164676998287 
! Gamma         0                0                0                0                
! Port Impedance         50               0                50               0                
5.3                            0.453065223715889 22.1162328067124 0.866464032653743 -65.1361538885514 0.866464032653744 -65.1361538885515 0.453073782751842 22.0976900659542 
! Gamma         0                0                0                0                
! Port Impedance         50               0                50               0                
5.4                            0.456288270547669 21.1012876327602 0.86480221423345 -66.1939485577774 0.864802214233452 -66.1939485577774 0.4562970253093  21.0823984552596 
! Gamma         0                0                0                0                
! Port Impedance         50               0                50               0                
5.5                            0.459324069168398 20.089670303672  0.863223090590561 -67.247842469625 0.863223090590562 -67.2478424696251 0.4593330199485  20.0704352683272 
! Gamma         0                0                0                0                
! Port Impedance         50               0                50               0                
5.6                            0.462174039527778 19.0812157309683 0.861728031769883 -68.2980655587725 0.861728031769884 -68.2980655587726 0.462183186616338 19.061635463348  
! Gamma         0                0                0                0                
! Port Impedance         50               0                50               0                
5.7                            0.464839539874125 18.0757522009864 0.860318282637337 -69.344849558357 0.860318282637338 -69.3448495583571 0.464848883564908 18.055827374634  
! Gamma         0                0                0                0                
! Port Impedance         50               0                50               0                
5.8                            0.467321860901378 17.0731021325501 0.858994968081466 -70.3884277203634 0.858994968081468 -70.3884277203634 0.467331401497424 17.0528334704046 
! Gamma         0                0                0                0                
! Port Impedance         50               0                50               0                
5.9                            0.469622220507994 16.0730827801329 0.857759098025837 -71.4290345594649 0.857759098025838 -71.429034559465 0.469631958325992 16.0524710560871 
! Gamma         0                0                0                0                
! Port Impedance         50               0                50               0                
6                              0.471741759140606 15.0755068881948 0.856611572228264 -72.4669056191492 0.856611572228265 -72.4669056191493 0.471751694514104 15.0545529288115 
! Gamma         0                0                0                0                
! Port Impedance         50               0                50               0                
6.1                            0.473681535696628 14.0801833018852 0.855553184846131 -73.5022772589289 0.855553184846132 -73.502277258929 0.473691668978066 14.0588879882925 
! Gamma         0                0                0                0                
! Port Impedance         50               0                50               0                
6.2                            0.475442523961524 13.0869175388871 0.85458462875003 -74.5353864614104 0.85458462875003 -74.5353864614105 0.475452855523089 13.0652818088761 
! Gamma         0                0                0                0                
! Port Impedance         50               0                50               0                
6.3                            0.477025609558226 12.095512326811  0.853706499570662 -75.5664706579769 0.853706499570662 -75.566470657977 0.477036139791518 12.0735371771581 
! Gamma         0                0                0                0                
! Port Impedance         50               0                50               0                
6.4                            0.47843158738805 11.1057681102281 0.852919299466277 -76.5957675718339 0.852919299466277 -76.595767571834 0.478442316702566 11.0834545992679 
! Gamma         0                0                0                0                
! Port Impedance         50               0                50               0                
6.5                            0.479661159544486 10.1174835311544 0.852223440600062 -77.6235150771636 0.852223440600062 -77.6235150771636 0.479672088364956 10.0948327816277 
! Gamma         0                0                0                0                
! Port Impedance         50               0                50               0                
6.6                            0.480714933683367 9.13045588654973 0.851619248318717 -78.6499510731344 0.851619248318717 -78.6499510731345 0.480726062445947 9.10746908875621 
! Gamma         0                0                0                0                
! Port Impedance         50               0                50               0                
6.7                            0.481593421835053 8.14448156617981 0.851106964025071 -79.6753133715216 0.851106964025071 -79.6753133715216 0.48160475098244 8.12115998146416 
! Gamma         0                0                0                0                
! Port Impedance         50               0                50               0                
6.8                            0.482297039646541 7.15935647399927 0.850686747738996 -80.6998395966996 0.850686747738996 -80.6998395966997 0.482308569622032 7.13570143860267 
! Gamma         0                0                0                0                
! Port Impedance         50               0                50               0                
6.9                            0.482826106043579 6.17487643604124 0.85035868034209 -81.723767096784 0.85035868034209 -81.723767096784 0.482837837284153 6.150889365353   
! Gamma         0                0                0                0                
! Port Impedance         50               0                50               0                
7                              0.48318084330514 5.19083759765095 0.850122765502605 -82.7473328647049 0.850122765502605 -82.7473328647049 0.483192776233624 5.16651999089695 
! Gamma         0                0                0                0                
! Port Impedance         50               0                50               0                
7.1                            0.483361377544796 4.20703681276501 0.849978931278034 -83.7707734680165 0.849978931278033 -83.7707734680165 0.4833735125612  4.18239025817318 
! Gamma         0                0                0                0                
! Port Impedance         50               0                50               0                
7.2                            0.483367739595697 3.22327202781994 0.849927031393472 -84.7943249862515 0.849927031393472 -84.7943249862515 0.483380077067821 3.19829820830598 
! Gamma         0                0                0                0                
! Port Impedance         50               0                50               0                
7.3                            0.483199866297969 2.23934266276616 0.849966846194556 -85.8182229546476 0.849966846194555 -85.8182229546476 0.483212406551379 2.21404336218644 
! Gamma         0                0                0                0                
! Port Impedance         50               0                50               0                
7.4                            0.482857602189365 1.25504999156957 0.85009808327431 -86.8427023130816 0.850098083274309 -86.8427023130817 0.482870345496886 1.22942710159228 
! Gamma         0                0                0                0                
! Port Impedance         50               0                50               0                
7.5                            0.482340701601958 0.270197524498031 0.850320377773725 -87.8679973590598 0.850320377773724 -87.8679973590598 0.482353648172802 0.24425305214788 
! Gamma         0                0                0                0                
! Port Impedance         50               0                50               0                
7.6                            0.481648831169456 -0.715408605585024 0.850633292356315 -88.8943417036177 0.850633292356314 -88.8943417036178 0.48166198113816 -0.741672529648185 
! Gamma         0                0                0                0                
! Port Impedance         50               0                50               0                
7.7                            0.480781572751426 -1.70195925076414 0.851036316857286 -89.9219682289958 0.851036316857285 -89.9219682289959 0.480794926166776 -1.72854036316705 
! Gamma         0                0                0                0                
! Port Impedance         50               0                50               0                
7.8                            0.479738426782264 -2.68964184735549 0.851528867608332 -90.9511090469561 0.851528867608331 -90.9511090469561 0.479751983596395 -2.71653774206202 
! Gamma         0                0                0                0                
! Port Impedance         50               0                50               0                
7.9                            0.478518816054088 -3.67864000488485 0.852110286439422 -91.9819954566127 0.852110286439422 -91.9819954566127 0.478532576111983 -3.70584812229699 
! Gamma         0                0                0                0                
! Port Impedance         50               0                50               0                
8                              0.47712208994393 -4.66913308275754 0.852779839359366 -93.0148579006488 0.852779839359364 -93.0148579006488 0.477136052973559 -4.69665069778152 
! Gamma         0                0                0                0                
! Port Impedance         50               0                50               0                
8.1                            0.475547529096554 -5.661295752655  0.853536714917307 -94.049925918791 0.853536714917305 -94.0499259187911 0.475561694699902 -5.68911996163892 
! Gamma         0                0                0                0                
! Port Impedance         50               0                50               0                
8.2                            0.473794350574936 -6.65529754472088 0.854380022247838 -95.0874280974114 0.854380022247836 -95.0874280974115 0.473808718220224 -6.68342525116144 
! Gamma         0                0                0                0                
! Port Impedance         50               0                50               0                
8.3                            0.47186171349092 -7.65130237562033 0.855308788802896 -96.1275920141204 0.855308788802894 -96.1275920141205 0.47187628250631 -7.67973027452641 
! Gamma         0                0                0                0                
! Port Impedance         50               0                50               0                
8.4                            0.469748725128683 -8.64946805656755 0.856321957774274 -97.1706441762102 0.856321957774272 -97.1706441762101 0.469763494697803 -8.67819261735723 
! Gamma         0                0                0                0                
! Port Impedance         50               0                50               0                
8.5                            0.467454447573508 -9.64994577941671 0.857418385211281 -98.2168099517991 0.85741838521128 -98.2168099517991 0.46746941673316 -9.67896322721227 
! Gamma         0                0                0                0                
! Port Impedance         50               0                50               0                
8.6                            0.464977904857835 -10.6528795789003 0.858596836838951 -99.2663134925214 0.858596836838949 -99.2663134925214 0.464993072498267 -10.6821858740717 
! Gamma         0                0                0                0                
! Port Impedance         50               0                50               0                
8.7                            0.462318090635658 -11.6584057690707 0.85985598458316 -100.319377646594 0.859855984583158 -100.319377646594 0.462333455503799 -11.6879965848629 
! Gamma         0                0                0                0                
! Port Impedance         50               0                50               0                
8.8                            0.459473976395033 -12.6666523519563 0.861194402810193 -101.376223861086 0.861194402810191 -101.376223861086 0.45948953710113 -12.6965230500188 
! Gamma         0                0                0                0                
! Port Impedance         50               0                50               0                
8.9                            0.456444520216699 -13.6777383963745 0.862610564289575 -102.437072072211 0.862610564289573 -102.437072072211 0.456460275244807 -13.7078839999904 
! Gamma         0                0                0                0                
! Port Impedance         50               0                50               0                
9                              0.453228676084607 -14.6917733847477 0.864102835890522 -103.502140582445 0.86410283589052 -103.502140582445 0.453244623807402 -14.7221885495406 
! Gamma         0                0                0                0                
! Port Impedance         50               0                50               0                
9.1                            0.449825403751416 -15.708856525639 0.865669474024065 -104.571645923273 0.865669474024063 -104.571645923273 0.449841542449837 -15.7395355075067 
! Gamma         0                0                0                0                
! Port Impedance         50               0                50               0                
9.2                            0.446233679158792 -16.7290760295476 0.867308619844873 -105.645802702378 0.86730861984487 -105.645802702378 0.446250007047009 -16.7600126495484 
! Gamma         0                0                0                0                
! Port Impedance         50               0                50               0                
9.3                            0.442452505408552 -17.7525083452817 0.869018294228943 -106.724823434047 0.869018294228941 -106.724823434047 0.442469020664806 -17.7836959511609 
! Gamma         0                0                0                0                
! Port Impedance         50               0                50               0                
9.4                            0.438480924276385 -18.7792173539301 0.870796392545837 -107.808918351622 0.870796392545835 -107.808918351622 0.438497625080224 -18.8106487779412 
! Gamma         0                0                0                0                
! Port Impedance         50               0                50               0                
9.5                            0.434318028254964 -19.8092535170824 0.872640679246795 -108.8982952008  0.872640679246793 -108.8982952008  0.434334912831424 -19.8409210297133 
! Gamma         0                0                0                0                
! Port Impedance         50               0                50               0                
9.6                            0.429962973107817 -20.842652975475 0.874548782293123 -109.993159012612 0.874548782293121 -109.993159012612 0.429980039779105 -20.8745482346391 
! Gamma         0                0                0                0                
! Port Impedance         50               0                50               0                
9.7                            0.425414990909336 -21.8794365936402 0.876518187452517 -111.093711854941 0.876518187452516 -111.093711854941 0.425432238154549 -21.911550588836 
! Gamma         0                0                0                0                
! Port Impedance         50               0                50               0                
9.8                            0.420673403539716 -22.9196089453892 0.878546232494584 -112.200152561468 0.878546232494582 -112.200152561468 0.420690830063153 -22.9519319362652 
! Gamma         0                0                0                0                
! Port Impedance         50               0                50               0                
9.9                            0.415737636596637 -23.9631572340198 0.880630101320758 -113.31267643698 0.880630101320756 -113.31267643698 0.415755241405215 -23.9956786827032 
! Gamma         0                0                0                0                
! Port Impedance         50               0                50               0                
10                             0.410607233677965 -25.0100501399729 0.882766818067985 -114.431474938032 0.882766818067983 -114.431474938032 0.410625016168269 -25.0427586364302 
! Gamma         0                0                0                0                
! Port Impedance         50               0                50               0                
10.1                           0.405254836394021 -26.0646397836694 0.884928787642903 -115.55524832907 0.884928787642903 -115.55524832907 0.405272872715388 -26.097536604456 
! Gamma         0                0                0                0                
! Port Impedance         50               0                50               0                
10.2                           0.399700464422596 -27.1230982625467 0.887133559333785 -116.685309546295 0.887133559333786 -116.685309546296 0.399718747776646 -27.1561706674069 
! Gamma         0                0                0                0                
! Port Impedance         50               0                50               0                
10.3                           0.393943200149864 -28.1853791991359 0.889377497983029 -117.821787846069 0.889377497983031 -117.821787846069 0.393961724763761 -28.2186134410238 
! Gamma         0                0                0                0                
! Port Impedance         50               0                50               0                
10.4                           0.387982234399997 -29.2514100441222 0.891656814472672 -118.964803472571 0.891656814472675 -118.964803472572 0.388000995544377 -29.2847912729878 
! Gamma         0                0                0                0                
! Port Impedance         50               0                50               0                
10.5                           0.381816881737095 -30.3210893384802 0.893967565703019 -120.114467144936 0.893967565703023 -120.114467144936 0.381835875747186 -30.3546014923594 
! Gamma         0                0                0                0                
! Port Impedance         50               0                50               0                
10.6                           0.375446596325231 -31.3942836201354 0.896305655270443 -121.27087953435 0.896305655270447 -121.27087953435 0.375465820625964 -31.4279093016057 
! Gamma         0                0                0                0                
! Port Impedance         50               0                50               0                
10.7                           0.368870988312058 -32.4708239122122 0.898666834914454 -122.434130733368 0.898666834914459 -122.434130733368 0.368890441448096 -32.504544247915 
! Gamma         0                0                0                0                
! Port Impedance         50               0                50               0                
10.8                           0.362089840694644 -33.5505017158846 0.901046706804156 -123.604299719943 0.901046706804161 -123.604299719943 0.36210952236641 -33.5842961963774 
! Gamma         0                0                0                0                
! Port Impedance         50               0                50               0                
10.9                           0.355103126619551 -34.6330644131548 0.903440726733348 -124.781453819024 0.903440726733353 -124.781453819024 0.355123037726551 -34.6669107098228 
! Gamma         0                0                0                0                
! Port Impedance         50               0                50               0                
11                             0.347911027062907 -35.7182099624738 0.905844208291778 -125.965648164844 0.905844208291783 -125.965648164844 0.347931169755875 -35.752083717572 
! Gamma         0                0                0                0                
! Port Impedance         50               0                50               0                
11.1                           0.340513948830658 -36.8055807415744 0.908252328077221 -127.156925167371 0.908252328077226 -127.156925167371 0.340534326574363 -36.8394553266637 
! Gamma         0                0                0                0                
! Port Impedance         50               0                50               0                
11.2                           0.332912542814809 -37.8947563553044 0.910660132009131 -128.355313986664 0.910660132009136 -128.355313986665 0.332933160463737 -37.9286025923342 
! Gamma         0                0                0                0                
! Port Impedance         50               0                50               0                
11.3                           0.325107722438864 -38.985245179061 0.913062542799413 -129.560830019212 0.913062542799419 -129.560830019213 0.325128586328474 -39.0190310170983 
! Gamma         0                0                0                0                
! Port Impedance         50               0                50               0                
11.4                           0.317100682225628 -40.0764743471535 0.915454368629391 -130.773474400585 0.915454368629396 -130.773474400586 0.317121800282454 -40.1101644861744 
! Gamma         0                0                0                0                
! Port Impedance         50               0                50               0                
11.5                           0.308892916424072 -41.1677778152412 0.917830313074153 -131.993233529019 0.917830313074158 -131.99323352902 0.308914298298731 -41.2013332664047 
! Gamma         0                0                0                0                
! Port Impedance         50               0                50               0                
11.6                           0.300486237640477 -42.2583820202858 0.920184986306203 -133.220078614773 0.920184986306207 -133.220078614774 0.300507894868582 -42.2917595895619 
! Gamma         0                0                0                0                
! Port Impedance         50               0                50               0                
11.7                           0.291882795434436 -43.3473885208715 0.922512917599585 -134.453965260314 0.92251291759959 -134.453965260314 0.291904741631684 -43.3805401996297 
! Gamma         0                0                0                0                
! Port Impedance         50               0                50               0                
11.8                           0.283085094865072 -44.4337528121183 0.924808569143517 -135.694833076539 0.924808569143521 -135.694833076539 0.283107345964365 -44.4666250540559 
! Gamma         0                0                0                0                
! Port Impedance         50               0                50               0                
11.9                           0.274096015010573 -45.5162582538367 0.927066351160979 -136.942605340379 0.927066351160983 -136.942605340379 0.274118589551183 -45.5487911121213 
! Gamma         0                0                0                0                
! Port Impedance         50               0                50               0                
12                             0.264918827540092 -46.5934837006903 0.929280638312884 -138.197188699167 0.929280638312887 -138.197188699168 0.264941747021664 -46.6256097919439 
! Gamma         0                0                0                0                
! Port Impedance         50               0                50               0                
12.1                           0.255557215498349 -47.663762938729 0.93144578735234 -139.458472927175 0.931445787352343 -139.458472927175 0.255580504816291 -47.6954061908686 
! Gamma         0                0                0                0                
! Port Impedance         50               0                50               0                
12.2                           0.246015292581002 -48.7251333539279 0.933556155976439 -140.726330739644 0.933556155976442 -140.726330739645 0.246038980564886 -48.7562074819873 
! Gamma         0                0                0                0                
! Port Impedance         50               0                50               0                
12.3                           0.236297623349124 -49.7752702948628 0.935606122805043 -142.000617669511 0.935606122805046 -142.000617669512 0.23632174343265 -49.8056769314671 
! Gamma         0                0                0                0                
! Port Impedance         50               0                50               0                
12.4                           0.226409245078903 -50.8114022045746 0.937590108397493 -143.281172011786 0.937590108397495 -143.281172011787 0.226433836139573 -50.8410285878304 
! Gamma         0                0                0                0                
! Port Impedance         50               0                50               0                
12.5                           0.216355692306739 -51.8301995690814 0.939502597199321 -144.567814840271 0.939502597199323 -144.567814840271 0.216380799726902 -51.8589156575203 
! Gamma         0                0                0                0                
! Port Impedance         50               0                50               0                
12.6                           0.206143025672089 -52.8276277166268 0.941338160292197 -145.860350100897 0.941338160292199 -145.860350100898 0.206168702692173 -52.8552825543576 
! Gamma         0                0                0                0                
! Port Impedance         50               0                50               0                
12.7                           0.195777867481122 -53.79874894159  0.943091478801873 -147.158564785502 0.943091478801875 -147.158564785502 0.19580417694377 -53.8251660307291 
! Gamma         0                0                0                0                
! Port Impedance         50               0                50               0                
12.8                           0.185267447681148 -54.7374523881611 0.944757367801211 -148.462229189298 0.944757367801213 -148.462229189298 0.185294464305897 -54.7624237303389 
! Gamma         0                0                0                0                
! Port Impedance         50               0                50               0                
12.9                           0.174619665934793 -55.6360790253568 0.946330800528812 -149.771097254672 0.946330800528813 -149.771097254673 0.17464747932456 -55.6593573547645 
! Gamma         0                0                0                0                
! Port Impedance         50               0                50               0                
13                             0.163843178716848 -56.4848911042796 0.947806932728859 -151.084907003194 0.94780693272886 -151.084907003195 0.163871897391879 -56.5061796279053 
! Gamma         0                0                0                0                
! Port Impedance         50               0                50               0                
13.1                           0.152947525735621 -57.27130572004  0.949181126904827 -152.40338105697 0.949181126904828 -152.40338105697 0.152977282638724 -57.2902443693127 
! Gamma         0                0                0                0                
! Port Impedance         50               0                50               0                
13.2                           0.141943319209726 -57.9787612233395 0.950448976269203 -153.726227249589 0.950448976269204 -153.726227249589 0.141974279365022 -57.9949079461647 
! Gamma         0                0                0                0                
! Port Impedance         50               0                50               0                
13.3                           0.130842535927803 -58.5849953455052 0.951606328163613 -155.053139326032 0.951606328163614 -155.053139326032 0.130874907329659 -58.597800235332 
! Gamma         0                0                0                0                
! Port Impedance         50               0                50               0                
13.4                           0.119658982317777 -59.0593490939585 0.952649306719143 -156.383797729945 0.952649306719144 -156.383797729945 0.119693031799442 -59.0681180218134 
! Gamma         0                0                0                0                
! Port Impedance         50               0                50               0                
13.5                           0.108409061302677 -59.3583953139783 0.953574334525449 -157.71787047573 0.953574334525449 -157.71787047573 0.108445138320746 -59.3622380130857 
! Gamma         0                0                0                0                
! Port Impedance         50               0                50               0                
13.6                           0.0971130888188139 -59.4185587425519 0.954378153079666 -159.055014101919 0.954378153079667 -159.055014101919 0.0971516622580478 -59.4163138606883 
! Gamma         0                0                0                0                
! Port Impedance         50               0                50               0                
13.7                           0.0857976649346043 -59.1430565126192 0.955057841792333 -160.394874701324 0.955057841792333 -160.394874701324 0.0858393821463987 -59.1331834782095 
! Gamma         0                0                0                0                
! Port Impedance         50               0                50               0                
13.8                           0.0745001989954711 -58.3774795349579 0.955610835337571 -161.737089022513 0.955610835337572 -161.737089022513 0.0745459843199351 -58.3579078880184 
! Gamma         0                0                0                0                
! Port Impedance         50               0                50               0                
13.9                           0.0632781781761091 -56.8611088808782 0.956034939148576 -163.081285636263 0.956034939148576 -163.081285636263 0.0633294041044886 -56.8290589135023 
! Gamma         0                0                0                0                
! Port Impedance         50               0                50               0                
14                             0.0522298645572737 -54.1225494547167 0.956328342876938 -164.427086159789 0.956328342876939 -164.427086159789 0.0522886581544562 -54.0744755006316 
! Gamma         0                0                0                0                
! Port Impedance         50               0                50               0                
14.1                           0.0415455381344408 -49.2391870650972 0.956489631655232 -165.774106530804 0.956489631655233 -165.774106530804 0.0416153165322566 -49.1717099656121 
! Gamma         0                0                0                0                
! Port Impedance         50               0                50               0                
14.2                           0.0316490310532529 -40.2672872983099 0.956517795026267 -167.121958322768 0.956517795026268 -167.121958322768 0.0317351636241886 -40.183649099482 
! Gamma         0                0                0                0                
! Port Impedance         50               0                50               0                
14.3                           0.0236049508503326 -23.235532249281 0.956412233429132 -168.470250092152 0.956412233429134 -168.470250092152 0.0237130550687514 -23.1768893696337 
! Gamma         0                0                0                0                
! Port Impedance         50               0                50               0                
14.4                           0.0198492454230557 5.59664281148591 0.956172762161005 -169.818588748081 0.956172762161007 -169.818588748081 0.0199690582702995 5.50250979015529 
! Gamma         0                0                0                0                
! Port Impedance         50               0                50               0                
14.5                           0.0226368900396824 35.8566737977291 0.955799612764241 -171.166580934423 0.955799612764243 -171.166580934423 0.0227344463159696 35.6103251961409 
! Gamma         0                0                0                0                
! Port Impedance         50               0                50               0                
14.6                           0.030197353223655 54.6531045554136 0.955293431819821 -172.513834414206 0.955293431819823 -172.513834414206 0.0302648700942983 54.3949925481354 
! Gamma         0                0                0                0                
! Port Impedance         50               0                50               0                
14.7                           0.0398840424989443 64.5725742424794 0.954655277160211 -173.859959446231 0.954655277160213 -173.85995944623 0.0399308885951117 64.3434521433012 
! Gamma         0                0                0                0                
! Port Impedance         50               0                50               0                
14.8                           0.0504620140323581 69.9371963178619 0.953886611546385 -175.204570143825 0.953886611546387 -175.204570143824 0.0504956620535765 69.7354829424372 
! Gamma         0                0                0                0                
! Port Impedance         50               0                50               0                
14.9                           0.0614440884225597 72.9404418195859 0.952989293884625 -176.547285805976 0.952989293884628 -176.547285805976 0.0614689564092371 72.7595328237695 
! Gamma         0                0                0                0                
! Port Impedance         50               0                50               0                
15                             0.0726164913435052 74.6159154996622 0.951965568088031 -177.887732211421 0.951965568088034 -177.887732211421 0.0726352041988731 74.4504370212062 
! Gamma         0                0                0                0                
! Port Impedance         50               0                50               0                
15.1                           0.0838712809277482 75.4849296745691 0.950818049714938 -179.225542866798 0.950818049714941 -179.225542866798 0.0838854786154084 75.3310538225366 
! Gamma         0                0                0                0                
! Port Impedance         50               0                50               0                
15.2                           0.0951465832777377 75.8323863289681 0.949549710541114 179.43963979941  0.949549710541117 179.43963979941  0.0951573446711152 75.6874139300098 
! Gamma         0                0                0                0                
! Port Impedance         50               0                50               0                
15.3                           0.106402872713997 75.8253303252569 0.948163861244292 178.108163304701 0.948163861244295 178.108163304701 0.106410940141092 75.6873248085988 
! Gamma         0                0                0                0                
! Port Impedance         50               0                50               0                
15.4                           0.117612508968147 75.5675961286829 0.946664132397854 176.780364048888 0.946664132397857 176.780364048888 0.117618412758453 75.4351351046323 
! Gamma         0                0                0                0                
! Port Impedance         50               0                50               0                
15.5                           0.128754691193993 75.1269180480411 0.945054453985192 175.456566324821 0.945054453985196 175.456566324821 0.128758822266757 74.9989319922902 
! Gamma         0                0                0                0                
! Port Impedance         50               0                50               0                
15.6                           0.139812839413825 74.5492919217341 0.943339033657141 174.137081408435 0.943339033657144 174.137081408435 0.139815493556927 74.4249590146251 
! Gamma         0                0                0                0                
! Port Impedance         50               0                50               0                
15.7                           0.150773151366703 73.8670252028353 0.941522333961911 172.822206732102 0.941522333961915 172.822206732102 0.150774557354829 73.7457015260716 
! Gamma         0                0                0                0                
! Port Impedance         50               0                50               0                
15.8                           0.161623766380113 73.1034723207136 0.939609048780219 171.512225144297 0.939609048780223 171.512225144297 0.161624104467358 72.9846444937951 
! Gamma         0                0                0                0                
! Port Impedance         50               0                50               0                
15.9                           0.172354259997662 72.2759378526697 0.937604079197802 170.207404257604 0.937604079197805 170.207404257604 0.172353674456646 72.1591901725257 
! Gamma         0                0                0                0                
! Port Impedance         50               0                50               0                
16                             0.182955327053581 71.3975210980771 0.935512509043589 168.907995886137 0.935512509043592 168.907995886138 0.182953934907745 71.2825122535968 
! Gamma         0                0                0                0                
! Port Impedance         50               0                50               0                
16.1                           0.193418576161063 70.4783250043058 0.933339580314612 167.61423557252  0.933339580314616 167.61423557252  0.193416473410293 70.3647712492684 
! Gamma         0                0                0                0                
! Port Impedance         50               0                50               0                
16.2                           0.20373639210209 69.5262703357656 0.931090668698677 166.326342203699 0.93109066869868 166.326342203699 0.203733658254342 69.4139331085254 
! Gamma         0                0                0                0                
! Port Impedance         50               0                50               0                
16.3                           0.213901840623477 68.5476573118871 0.928771259393223 165.044517714052 0.928771259393226 165.044517714052 0.213898542054883 68.4363339761896 
! Gamma         0                0                0                0                
! Port Impedance         50               0                50               0                
16.4                           0.22390860022355 67.5475614015702 0.926386923404117 163.768946873472 0.926386923404121 163.768946873472 0.223904792711481 67.4370782173994 
! Gamma         0                0                0                0                
! Port Impedance         50               0                50               0                
16.5                           0.233750911355898 66.5301176276887 0.923943294491691 162.499797157478 0.923943294491694 162.499797157478 0.233746642017278 66.4203243417699 
! Gamma         0                0                0                0                
! Port Impedance         50               0                50               0                
16.6                           0.243423536970815 65.4987283353255 0.92144604691367 161.237218695773 0.921446046913673 161.237218695773 0.243418845765522 65.38949396582   
! Gamma         0                0                0                0                
! Port Impedance         50               0                50               0                
16.7                           0.252921730464173 64.4562174189357 0.918900874096102 159.981344295173 0.918900874096105 159.981344295173 0.252916651375597 64.3474269329024 
! Gamma         0                0                0                0                
! Port Impedance         50               0                50               0                
16.8                           0.262241208458811 63.4049464504091 0.916313468344359 158.73228953241  0.916313468344362 158.73228953241  0.262235770431411 63.2964981172397 
! Gamma         0                0                0                0                
! Port Impedance         50               0                50               0                
16.9                           0.2713781267173  62.3469032727497 0.91368950168723 157.490152911968 0.913689501687233 157.490152911968 0.271372354408956 62.2387065354689 
! Gamma         0                0                0                0                
! Port Impedance         50               0                50               0                
17                             0.280329058059235 61.2837704109031 0.911034607928217 156.255016083859 0.91103460792822 156.255016083859 0.280322972450777 61.1757441585259 
! Gamma         0                0                0                0                
! Port Impedance         50               0                50               0                
17.1                           0.289090971539848 60.2169784952151 0.908354365959883 155.026944116074 0.908354365959885 155.026944116074 0.289084590433257 60.1090496488241 
! Gamma         0                0                0                0                
! Port Impedance         50               0                50               0                
17.2                           0.297661212406534 59.1477484218058 0.905654284379567 153.805985816335 0.905654284379569 153.805985816335 0.297654550835504 59.0398507683155 
! Gamma         0                0                0                0                
! Port Impedance         50               0                50               0                
17.3                           0.306037482527424 58.0771249546173 0.902939787428302 152.592174097765 0.902939787428304 152.592174097765 0.306030553098251 57.9691981777842 
! Gamma         0                0                0                0                
! Port Impedance         50               0                50               0                
17.4                           0.31421782110824 57.0060037572641 0.900216202259465 151.385526383106 0.900216202259467 151.385526383106 0.314210634284861 56.897992627028  
! Gamma         0                0                0                0                
! Port Impedance         50               0                50               0                
17.5                           0.322200585597706 55.9351533324062 0.897488747529707 150.186045042234 0.897488747529708 150.186045042234 0.322193149941567 55.8270070222809 
! Gamma         0                0                0                0                
! Port Impedance         50               0                50               0                
17.6                           0.329984432739228 54.8652329783894 0.894762523292116 148.993717857834 0.894762523292117 148.993717857834 0.329976755112312 54.7569044871247 
! Gamma         0                0                0                0                
! Port Impedance         50               0                50               0                
17.7                           0.337568299765373 53.7968076045784 0.892042502160438 147.808518514319 0.892042502160439 147.808518514319 0.337560385502984 53.6882532632857 
! Gamma         0                0                0                0                
! Port Impedance         50               0                50               0                
17.8                           0.34495138575709 52.7303600490975 0.889333521703511 146.630407105273 0.889333521703511 146.630407105273 0.344943238815583 52.6215390988432 
! Gamma         0                0                0                0                
! Port Impedance         50               0                50               0                
17.9                           0.352133133205556 51.6663013955706 0.886640278020833 145.459330654971 0.886640278020833 145.459330654971 0.352124756289184 51.5571756233968 
! Gamma         0                0                0                0                
! Port Impedance         50               0                50               0                
18                             0.359113209823512 50.6049796749687 0.883967320443411 144.295223649789 0.883967320443411 144.295223649789 0.35910460449373 50.495513098615  
! Gamma         0                0                0                0                
! Port Impedance         50               0                50               0                
18.1                           0.365891490657039 49.5466872549962 0.881319047298537 143.138008575629 0.881319047298537 143.138008575629 0.365882657426967 49.4368458484063 
! Gamma         0                0                0                0                
! Port Impedance         50               0                50               0                
18.2                           0.372468040549314 48.4916671555624 0.878699702672987 141.987596457772 0.878699702672987 141.987596457772 0.372458978965569 48.3814186087027 
! Gamma         0                0                0                0                
! Port Impedance         50               0                50               0                
18.3                           0.378843097005891 47.4401184797466 0.876113374106105 140.843887399892 0.876113374106105 140.843887399892 0.378833805719587 47.3294319874071 
! Gamma         0                0                0                0                
! Port Impedance         50               0                50               0                
18.4                           0.385017053507503 46.3922011116015 0.873563991142318 139.706771119277 0.873563991142318 139.706771119277 0.385007530335897 46.2810471867694 
! Gamma         0                0                0                0                
! Port Impedance         50               0                50               0                
18.5                           0.390990443311604 45.3480398024672 0.871055324671672 138.576127475607 0.871055324671672 138.576127475607 0.390980685291606 45.2363901106051 
! Gamma         0                0                0                0                
! Port Impedance         50               0                50               0                
18.6                           0.396763923778472 44.307727744181  0.868590986986869 137.451826990947 0.868590986986869 137.451826990947 0.396753927213062 44.1955549553413 
! Gamma         0                0                0                0                
! Port Impedance         50               0                50               0                
18.7                           0.402338261252006 43.2713297092006 0.866174432485974 136.333731358914 0.866174432485974 136.333731358914 0.402328021750386 43.1586073653979 
! Gamma         0                0                0                0                
! Port Impedance         50               0                50               0                
18.8                           0.407714316519501 42.2388848230794 0.863808958951247 135.221693941242 0.863808958951247 135.221693941242 0.407703829031699 42.1255872187428 
! Gamma         0                0                0                0                
! Port Impedance         50               0                50               0                
18.9                           0.412893030869002 41.2104090231048 0.861497709336424 134.115560250267 0.861497709336424 134.115560250267 0.412882289715536 41.0965110967613 
! Gamma         0                0                0                0                
! Port Impedance         50               0                50               0                
19                             0.417875412757391 40.1858972475929 0.859243673997081 133.015168416091 0.85924367399708 133.015168416091 0.417864411654493 40.0713744832058 
! Gamma         0                0                0                0                
! Port Impedance         50               0                50               0                
19.1                           0.422662525097218 39.1653253928271 0.857049693301361 131.920349637424 0.85704969330136 131.920349637424 0.422651257178049 39.0501537294367 
! Gamma         0                0                0                0                
! Port Impedance         50               0                50               0                
19.2                           0.427255473165606 38.1486520685561 0.854918460561315 130.830928615351 0.854918460561314 130.830928615351 0.427243930997833 38.0328078170593 
! Gamma         0                0                0                0                
! Port Impedance         50               0                50               0                
19.3                           0.431655393134273 37.1358201780361 0.852852525228213 129.746723969446 0.852852525228212 129.746723969446 0.431643568734309 37.0192799440951 
! Gamma         0                0                0                0                
! Port Impedance         50               0                50               0                
19.4                           0.435863441215921 36.1267583445752 0.850854296298472 128.667548635876 0.850854296298471 128.667548635876 0.435851326060104 36.009498956779  
! Gamma         0                0                0                0                
! Port Impedance         50               0                50               0                
19.5                           0.43988078341894 35.1213822032457 0.848926045880203 127.593210247296 0.848926045880202 127.593210247296 0.439868368451869 35.0033806457545 
! Gamma         0                0                0                0                
! Port Impedance         50               0                50               0                
19.6                           0.443708585899506 34.1195955737183 0.847069912873715 126.523511494515 0.847069912873713 126.523511494515 0.443695861539736 34.0008289227128 
! Gamma         0                0                0                0                
! Port Impedance         50               0                50               0                
19.7                           0.44734800589779 33.1212915279341 0.845287906722683 125.458250470025 0.845287906722681 125.458250470025 0.447334962041037 33.0017368912704 
! Gamma         0                0                0                0                
! Port Impedance         50               0                50               0                
19.8                           0.45080018324301 32.1263533644823 0.84358191119595 124.397220993652 0.843581911195948 124.397220993652 0.450786809263017 32.0059878240158 
! Gamma         0                0                0                0                
! Port Impedance         50               0                50               0                
19.9                           0.454066232410592 31.1346555000101 0.841953688163134 123.34021292069  0.841953688163132 123.34021292069  0.454052517157764 31.0134560561046 
! Gamma         0                0                0                0                
! Port Impedance         50               0                50               0                
20                             0.457147235113489 30.1460642867066 0.840404881330262 122.287012432968 0.84040488133026 122.287012432968 0.457133166911398 30.0240078044934 
! Gamma         0                0                0                0                
! Port Impedance         50               0                50               0                
20.1                           0.460044233409008 29.1604387638349 0.838937019904622 121.237402313417 0.83893701990462 121.237402313417 0.460029800048841 29.0375019208201 
! Gamma         0                0                0                0                
! Port Impedance         50               0                50               0                
20.2                           0.46275822330199 28.1776313503811 0.837551522160772 120.19116220477  0.837551522160771 120.19116220477  0.46274341203501 28.0537905850311 
! Gamma         0                0                0                0                
! Port Impedance         50               0                50               0                
20.3                           0.465290148825095 27.1974884851374 0.836249698882305 119.148068853103 0.836249698882304 119.148068853103 0.465274946353154 27.0727199460998 
! Gamma         0                0                0                0                
! Port Impedance         50               0                50               0                
20.4                           0.467640896577062 26.2198512198983 0.835032756656407 118.107896336988 0.835032756656406 118.107896336988 0.467625289041202 26.0941307155313 
! Gamma         0                0                0                0                
! Port Impedance         50               0                50               0                
20.5                           0.469811290700199 25.2445557709137 0.833901801000558 117.070416283072 0.833901801000557 117.070416283072 0.469795263667359 25.1178587188157 
! Gamma         0                0                0                0                
! Port Impedance         50               0                50               0                
20.6                           0.471802088278997 24.2714340332887 0.832857839302848 116.035398068975 0.832857839302847 116.035398068975 0.471785626726837 24.1437354095286 
! Gamma         0                0                0                0                
! Port Impedance         50               0                50               0                
20.7                           0.473613975142538 23.3003140626408 0.831901783559344 115.002609014388 0.831901783559343 115.002609014388 0.473597063442364 23.1715883503998 
! Gamma         0                0                0                0                
! Port Impedance         50               0                50               0                
20.8                           0.475247562054396 22.3310205280042 0.831034452893776 113.97181456134  0.831034452893774 113.97181456134  0.475230183952181 22.2012416653396 
! Gamma         0                0                0                0                
! Port Impedance         50               0                50               0                
20.9                           0.476703381274853 21.3633751397017 0.830256575846445 112.942778444601 0.830256575846444 112.942778444601 0.476685519870311 21.2325164661499 
! Gamma         0                0                0                0                
! Port Impedance         50               0                50               0                
21                             0.477981883481556 20.3971970556836 0.82956879242082 111.915262853222 0.829568792420818 111.915262853222 0.47796352120523 20.265231257411  
! Gamma         0                0                0                0                
! Port Impedance         50               0                50               0                
21.1                           0.479083435036142 19.4323032696489 0.828971655877642 110.889028584236 0.828971655877641 110.889028584236 0.479064553624451 19.299202322859  
! Gamma         0                0                0                0                
! Port Impedance         50               0                50               0                
21.2                           0.480008315585888 18.468508984116  0.828465634267701 109.863835189575 0.8284656342677  109.863835189575 0.479988896054064 18.3342440964084 
! Gamma         0                0                0                0                
! Port Impedance         50               0                50               0                
21.3                           0.480756715991053 17.5056279714935 0.828051111695559 108.839441117248 0.828051111695559 108.839441117248 0.480736738603873 17.3701695208632 
! Gamma         0                0                0                0                
! Port Impedance         50               0                50               0                
21.4                           0.481328736570267 16.5434729261155 0.827728389307662 107.815603847875 0.827728389307661 107.815603847875 0.481308180810505 16.4067903972629 
! Gamma         0                0                0                0                
! Port Impedance         50               0                50               0                
21.5                           0.481724385658119 15.5818558101451 0.827497685999232 106.792080027657 0.827497685999231 106.792080027658 0.481703230192574 15.4439177277487 
! Gamma         0                0                0                0                
! Port Impedance         50               0                50               0                
21.6                           0.481943578470889 14.6205881962111 0.827359138835347 105.768625598897 0.827359138835346 105.768625598897 0.481921801113879 14.481362054798  
! Gamma         0                0                0                0                
! Port Impedance         50               0                50               0                
21.7                           0.481986136278295 13.6594816096383 0.827312803182509 104.744995929182 0.827312803182509 104.744995929182 0.481963713952461 13.5189337996555 
! Gamma         0                0                0                0                
! Port Impedance         50               0                50               0                
21.8                           0.481851785881025 12.6983478731383 0.827358652547882 103.720945940367 0.827358652547881 103.720945940367 0.481828694575269 12.5564436028041 
! Gamma         0                0                0                0                
! Port Impedance         50               0                50               0                
21.9                           0.481540159395831 11.7369994568683 0.827496578124285 102.696230238489 0.827496578124284 102.696230238489 0.481516374120201 11.5937026693457 
! Gamma         0                0                0                0                
! Port Impedance         50               0                50               0                
22                             0.481050794351921 10.775249836825  0.827726388039897 101.670603245775 0.827726388039896 101.670603245775 0.481026289089228 10.6305231222217 
! Gamma         0                0                0                0                
! Port Impedance         50               0                50               0                
22.1                           0.480383134104464 9.81291386462748 0.828047806312536 100.643819335896 0.828047806312535 100.643819335896 0.480357881758385 9.66671836628149 
! Gamma         0                0                0                0                
! Port Impedance         50               0                50               0                
22.2                           0.479536528573024 8.84980815185431 0.828460471509338 99.6156329736468 0.828460471509337 99.6156329736468 0.479510500912413 8.70210346631487 
! Gamma         0                0                0                0                
! Port Impedance         50               0                50               0                
22.3                           0.478510235314821 7.88575147224309 0.828963935113645 98.5857988602265 0.828963935113645 98.5857988602265 0.478483402913929 7.73649554229769 
! Gamma         0                0                0                0                
! Port Impedance         50               0                50               0                
22.4                           0.477303420944755 6.92056518523095 0.829557659602031 97.55407208531   0.829557659602031 97.55407208531   0.477275753119008 6.76971418526486 
! Gamma         0                0                0                0                
! Port Impedance         50               0                50               0                
22.5                           0.475915162916177 5.95407368452193 0.830241016235514 96.5202082871024 0.830241016235514 96.5202082871024 0.475886627653127 5.8015818974219  
! Gamma         0                0                0                0                
! Port Impedance         50               0                50               0                
22.6                           0.474344451678428 4.98610487560996 0.831013282570354 95.483963821578  0.831013282570353 95.483963821578  0.474315015563449 4.83192456033947 
! Gamma         0                0                0                0                
! Port Impedance         50               0                50               0                
22.7                           0.472590193229131 4.01649068647361 0.831873639695196 94.4450959421003 0.831873639695196 94.4450959421003 0.47255982136536 3.86057193535139 
! Gamma         0                0                0                0                
! Port Impedance         50               0                50               0                
22.8                           0.470651212081187 3.04506761599465 0.832821169202914 93.4033629906257 0.832821169202913 93.4033629906257 0.470619868003173 2.88735820059881 
! Gamma         0                0                0                0                
! Port Impedance         50               0                50               0                
22.9                           0.468526254666293 2.07167732504164 0.833854849907205 92.3585246016845 0.833854849907205 92.3585246016845 0.468493900246726 1.9121225295376  
! Gamma         0                0                0                0                
! Port Impedance         50               0                50               0                
23                             0.4662139931986  1.09616727561751 0.834973554315926 91.3103419203258 0.834973554315926 91.3103419203258 0.46618058854743 0.934709716166385 
! Gamma         0                0                0                0                
! Port Impedance         50               0                50               0                
23.1                           0.463713030023813 0.118391423998708 0.836176044875212 90.2585778351975 0.836176044875211 90.2585778351975 0.463678533378972 -0.0450291472594678 
! Gamma         0                0                0                0                
! Port Impedance         50               0                50               0                
23.2                           0.461021902480623 -0.861789025587516 0.837460970000765 89.2029972279149 0.837460970000765 89.2029972279149 0.460986270089449 -1.02723593366593 
! Gamma         0                0                0                0                
! Port Impedance         50               0                50               0                
23.3                           0.458139088302735 -1.84450479947989 0.83882685991521 88.1433672398406 0.83882685991521 88.1433672398406 0.458102274293109 -2.01204467869627 
! Gamma         0                0                0                0                
! Port Impedance         50               0                50               0                
23.4                           0.455063011591039 -2.82987765718403 0.840272122313166 87.0794575573643 0.840272122313166 87.0794575573642 0.455024967831063 -2.99958070447752 
! Gamma         0                0                0                0                
! Port Impedance         50               0                50               0                
23.5                           0.451792049386432 -3.81801940895603 0.841795037878696 86.0110407167252 0.841795037878695 86.0110407167251 0.451752725331368 -3.98995966079829 
! Gamma         0                0                0                0                
! Port Impedance         50               0                50               0                
23.6                           0.448324538874619 -4.80903083810821 0.843393755683037 84.9378924293633 0.843393755683036 84.9378924293633 0.448283881399591 -4.98328647376116 
! Gamma         0                0                0                0                
! Port Impedance         50               0                50               0                
23.7                           0.444658785254677 -5.80300051640231 0.845066288493997 83.8597919287153 0.845066288493997 83.8597919287153 0.444616738471439 -5.97965419065012 
! Gamma         0                0                0                0                
! Port Impedance         50               0                50               0                
23.8                           0.440793070303367 -6.80000349927704 0.846810508032143 82.7765223392912 0.846810508032143 82.7765223392912 0.440749575359197 -6.97914270819496 
! Gamma         0                0                0                0                
! Port Impedance         50               0                50               0                
23.9                           0.436725661666949 -7.80009988572707 0.848624140212863 81.6878710687653 0.848624140212862 81.6878710687653 0.436680656523438 -7.98181736955628 
! Gamma         0                0                0                0                
! Port Impedance         50               0                50               0                
24                             0.432454822911726 -8.80333322535974 0.850504760417586 80.5936302237051 0.850504760417585 80.5936302237051 0.43240824210089 -8.98772741314584 
! Gamma         0                0                0                0                
! Port Impedance         50               0                50               0                
24.1                           0.427978824363495 -9.80972875240567 0.852449788841818 79.4935970494243 0.852449788841817 79.4935970494243 0.427930598718259 -9.99690425375062 
! Gamma         0                0                0                0                
! Port Impedance         50               0                50               0                
24.2                           0.423295954764616 -10.8192914231669 0.854456485972192 78.387574394295  0.854456485972191 78.387574394295  0.423246011120239 -11.0093595732506 
! Gamma         0                0                0                0                
! Port Impedance         50               0                50               0                
24.3                           0.41840453377547 -11.8320037294084 0.856521948249452 77.2753711986799 0.856521948249452 77.2753711986798 0.418352794637946 -12.0250831943892 
! Gamma         0                0                0                0                
! Port Impedance         50               0                50               0                
24.4                           0.413302925344591 -12.8478232553862 0.858643103979003 76.1568030084457 0.858643103979002 76.1568030084457 0.413249308521398 -13.0440407064139 
! Gamma         0                0                0                0                
! Port Impedance         50               0                50               0                
24.5                           0.407989551968779 -13.8666799403596 0.860816709555503 75.0316925128025 0.860816709555502 75.0316925128025 0.407933970156611 -14.0661708057631 
! Gamma         0                0                0                0                
! Port Impedance         50               0                50               0                
24.6                           0.402462909861072 -14.8884730012891 0.863039346072678 73.899870105962  0.863039346072677 73.899870105962  0.402405270184226 -15.0913823080827 
! Gamma         0                0                0                0                
! Port Impedance         50               0                50               0                
24.7                           0.396721585040491 -15.9130674616698 0.86530741639418 72.7611744718422 0.865307416394179 72.7611744718422 0.396661788532519 -16.1195507794097 
! Gamma         0                0                0                0                
! Port Impedance         50               0                50               0                
24.8                           0.390764270353193 -16.9402902216654 0.867617142765682 71.6154531907437 0.867617142765681 71.6154531907437 0.390702211373097 -17.1505147239431 
! Gamma         0                0                0                0                
! Port Impedance         50               0                50               0                
24.9                           0.384589783430094 -17.9699255913639 0.869964565052502 70.4625633666036 0.869964565052501 70.4625633666036 0.384525349002755 -18.1840712529403 
! Gamma         0                0                0                0                
! Port Impedance         50               0                50               0                
25                             0.378197085581375 -19.0017101923895 0.872345539690629 69.3023722730792 0.872345539690627 69.3023722730792 0.378130154649962 -19.2199711432503 
! Gamma         0                0                0                0                
! Port Impedance         50               0                50               0                
25.1                           0.371585301623733 -20.0353271123734 0.874755739442066 68.1347580163463 0.874755739442065 68.1347580163464 0.371515744199519 -20.2579131739575 
! Gamma         0                0                0                0                
! Port Impedance         50               0                50               0                
25.2                           0.364753740632283 -21.0703991707529 0.87719065404775 66.9596102120946 0.877190654047749 66.9596102120946 0.3646814168244  -21.2975376044442 
! Gamma         0                0                0                0                
! Port Impedance         50               0                50               0                
25.3                           0.357701917605924 -22.1064811214839 0.879645591872676 65.776830673789  0.879645591872675 65.776830673789  0.357626676510051 -22.3384186253776 
! Gamma         0                0                0                0                
! Port Impedance         50               0                50               0                
25.4                           0.350429576033544 -23.1430505764824 0.882115682638287 64.5863341088317 0.882115682638285 64.5863341088317 0.350351254454199 -23.3800555737135 
! Gamma         0                0                0                0                
! Port Impedance         50               0                50               0                
25.5                           0.342936711349521 -24.1794973802367 0.884595881336363 63.3880488188087 0.884595881336361 63.3880488188087 0.34285513232515 -24.4218626511563 
! Gamma         0                0                0                0                
! Port Impedance         50               0                50               0                
25.6                           0.335223595271576 -25.2151110973791 0.887080973416434 62.1819173995516 0.887080973416432 62.1819173995517 0.335138566364884 -25.4631568190391 
! Gamma         0                0                0                0                
! Port Impedance         50               0                50               0                
25.7                           0.327290801024001 -26.2490661861086 0.889565581334989 60.967897436283  0.889565581334987 60.9678974362831 0.327202112331429 -26.5031434564879 
! Gamma         0                0                0                0                
! Port Impedance         50               0                50               0                
25.8                           0.319139229466469 -27.280404314424 0.892044172549355 59.74596218866   0.892044172549353 59.7459621886601 0.319046651289905 -27.540899256379 
! Gamma         0                0                0                0                
! Port Impedance         50               0                50               0                
25.9                           0.310770136176227 -28.3080131237445 0.894511069031737 58.516101260085  0.894511069031735 58.5161012600851 0.31067341628625 -28.5753516858738 
! Gamma         0                0                0                0                
! Port Impedance         50               0                50               0                
26                             0.302185159573292 -29.3306005426135 0.896960458369724 57.278321245231  0.896960458369722 57.2783212452311 0.302084019975552 -29.6052541424813 
! Gamma         0                0                0                0                
! Port Impedance         50               0                50               0                
26.1                           0.293386350240117 -30.3466634833394 0.899386406508113 56.0326463493329 0.899386406508111 56.032646349333  0.293280483333482 -30.6291556747066 
! Gamma         0                0                0                0                
! Port Impedance         50               0                50               0                
26.2                           0.284376201676861 -31.3544493904441 0.90178287217344 54.7791189724429 0.901782872173438 54.7791189724431 0.284265265662015 -31.6453637828648 
! Gamma         0                0                0                0                
! Port Impedance         50               0                50               0                
26.3                           0.275157682862329 -32.3519086138739 0.904143723006882 53.5178002515474 0.90414372300688 53.5178002515475 0.275041296220025 -32.6518983337075 
! Gamma         0                0                0                0                
! Port Impedance         50               0                50               0                
26.4                           0.26573427317522 -33.3366348971215 0.906462753413314 52.2487705531981 0.906462753413312 52.2487705531983 0.265612007980849 -33.6464339584719 
! Gamma         0                0                0                0                
! Port Impedance         50               0                50               0                
26.5                           0.256110000494672 -34.3057903194939 0.908733704114376 50.9721299091495 0.908733704114374 50.9721299091497 0.255981374265277 -34.6262273783908 
! Gamma         0                0                0                0                
! Port Impedance         50               0                50               0                
26.6                           0.246289483679488 -35.2560096912281 0.910950283371435 49.6879983874082 0.910950283371433 49.6879983874084 0.246153949353483 -35.5880247956929 
! Gamma         0                0                0                0                
! Port Impedance         50               0                50               0                
26.7                           0.236277981176614 -36.1832774854444 0.913106189820704 48.3965163911197 0.913106189820702 48.39651639112   0.236134914694823 -36.5279426207173 
! Gamma         0                0                0                0                
! Port Impedance         50               0                50               0                
26.8                           0.226081448316642 -37.0827676172077 0.915195136837599 47.0978448778378 0.915195136837597 47.097844877838  0.225930133090161 -37.4413120972847 
! Gamma         0                0                0                0                
! Port Impedance         50               0                50               0                
26.9                           0.215706607051248 -37.9486323002514 0.917210878321106 45.7921654919608 0.917210878321105 45.7921654919611 0.215546214343583 -38.3224743991704 
! Gamma         0                0                0                0                
! Port Impedance         50               0                50               0                
27                             0.205161033690314 -38.7737201117928 0.919147235761941 44.4796806034838 0.919147235761939 44.4796806034841 0.204990597572541 -39.1645067959384 
! Gamma         0                0                0                0                
! Port Impedance         50               0                50               0                
27.1                           0.194453272959412 -39.5491941111082 0.920998126430989 43.1606132467022 0.920998126430988 43.1606132467024 0.194271657962227 -39.9588513756181 
! Gamma         0                0                0                0                
! Port Impedance         50               0                50               0                
27.2                           0.183592991017551 -40.2640064507265 0.922757592497608 41.8352069531303 0.922757592497607 41.8352069531305 0.183398849815751 -40.6948036434961 
! Gamma         0                0                0                0                
! Port Impedance         50               0                50               0                
27.3                           0.172591186978104 -40.904163093093 0.924419830861289 40.5037254736558 0.924419830861287 40.5037254736561 0.172382904261387 -41.3587958090827 
! Gamma         0                0                0                0                
! Port Impedance         50               0                50               0                
27.4                           0.161460493782892 -41.4516752531455 0.925979223455692 39.166452385835  0.925979223455691 39.1664523858353 0.161236110664018 -41.9333729816134 
! Gamma         0                0                0                0                
! Port Impedance         50               0                50               0                
27.5                           0.150215618309947 -41.8830327529503 0.927430367761797 37.823690583251  0.927430367761795 37.8236905832513 0.14997272882036 -42.3956994894582 
! Gamma         0                0                0                0                
! Port Impedance         50               0                50               0                
27.6                           0.138874003600384 -42.1669297319091 0.92876810724746 36.4757616449825 0.92876810724746 36.4757616449828 0.138609610392746 -42.7153280257199 
! Gamma         0                0                0                0                
! Port Impedance         50               0                50               0                
27.7                           0.127456855254649 -42.2607895147947 0.929987561434822 35.1230050844621 0.929987561434821 35.1230050844624 0.127167164507711 -42.8507799598291 
! Gamma         0                0                0                0                
! Port Impedance         50               0                50               0                
27.8                           0.115990784033285 -42.1053039929502 0.931084155285221 33.7657774783207 0.93108415528522 33.7657774783211 0.115670907964284 -42.7441497471403 
! Gamma         0                0                0                0                
! Port Impedance         50               0                50               0                
27.9                           0.104510529421524 -41.6155873142716 0.93205364758425 32.4044514771959 0.93205364758425 32.4044514771962 0.104154045949972 -42.3123167377953 
! Gamma         0                0                0                0                
! Port Impedance         50               0                50               0                
28                             0.0930636581814038 -40.6663720255596 0.932892158007661 31.0394147019102 0.93289215800766 31.0394147019105 0.0926619474664637 -41.4321309679616 
! Gamma         0                0                0                0                
! Port Impedance         50               0                50               0                
28.1                           0.0817190365226398 -39.0664195983992 0.933596192552435 29.6710685298692 0.933596192552435 29.6710685298695 0.0812602721309079 -39.914542089073 
! Gamma         0                0                0                0                
! Port Impedance         50               0                50               0                
28.2                           0.0705828565146796 -36.5130863527513 0.934162667026704 28.2998267779649 0.934162667026705 28.2998267779652 0.070050495901239 -37.45796384487  
! Gamma         0                0                0                0                
! Port Impedance         50               0                50               0                
28.3                           0.0598304240440922 -32.5112264108493 0.934588928307338 26.9261142896644 0.934588928307338 26.9261142896647 0.0592011574876437 -33.562992211414 
! Gamma         0                0                0                0                
! Port Impedance         50               0                50               0                
28.4                           0.0497713177044128 -26.237951921576 0.934872773094959 25.5503654352976 0.93487277309496 25.5503654352979 0.0490133756314417 -27.3836884549506 
! Gamma         0                0                0                0                
! Port Impedance         50               0                50               0                
28.5                           0.0409794099305225 -16.3916170539799 0.935012463922574 24.1730225357862 0.935012463922575 24.1730225357865 0.0400566294456179 -17.5386543129899 
! Gamma         0                0                0                0                
! Port Impedance         50               0                50               0                
28.6                           0.0344931707101443 -1.43748362067563 0.935006742205544 22.7945342211688 0.935006742205544 22.7945342211691 0.0333940181038233 -2.29805406644069 
! Gamma         0                0                0                0                
! Port Impedance         50               0                50               0                
28.7                           0.0317981871935209 18.4538691469896 0.934854838156754 21.4153537362328 0.934854838156755 21.4153537362331 0.0306060797261562 18.3280709847792 
! Gamma         0                0                0                0                
! Port Impedance         50               0                50               0                
28.8                           0.0338333131878813 38.7971001298393 0.934556477430809 20.0359372063549 0.93455647743081 20.0359372063552 0.032719901390146 39.4489257960828 
! Gamma         0                0                0                0                
! Port Impedance         50               0                50               0                
28.9                           0.0398825539146353 54.5887363372241 0.93411188440411 18.6567418772434 0.934111884404111 18.6567418772437 0.0389470648294788 55.5794326691845 
! Gamma         0                0                0                0                
! Port Impedance         50               0                50               0                
29                             0.048454330261963 65.1085141019564 0.933521782042824 17.2782243426678 0.933521782042825 17.2782243426681 0.0476917154932062 66.1156799440795 
! Gamma         0                0                0                0                
! Port Impedance         50               0                50               0                
29.1                           0.0584296398886234 71.8204784753286 0.932787388357046 15.9008387744365 0.932787388357047 15.9008387744368 0.0578029979072997 72.734051490099  
! Gamma         0                0                0                0                
! Port Impedance         50               0                50               0                
29.2                           0.069179116080404 76.0990207108045 0.931910409485819 14.5250351688366 0.931910409485821 14.5250351688368 0.0686546677097405 76.9015214626635 
! Gamma         0                0                0                0                
! Port Impedance         50               0                50               0                
29.3                           0.0803639991387829 78.8307081524579 0.930893029503154 13.1512576234869 0.930893029503155 13.1512576234871 0.0799168162063345 79.5319596175377 
! Gamma         0                0                0                0                
! Port Impedance         50               0                50               0                
29.4                           0.091793963424357 80.5496874510145 0.929737897078656 11.7799426580811 0.929737897078657 11.7799426580813 0.0914063988853773 81.1647825768322 
! Gamma         0                0                0                0                
! Port Impedance         50               0                50               0                
29.5                           0.103354670084929 81.5811205214981 0.92844810916704 10.4115175918202 0.928448109167042 10.4115175918205 0.103014165494825 82.1241797867098 
! Gamma         0                0                0                0                
! Port Impedance         50               0                50               0                
29.6                           0.114972472292928 82.1293864080234 0.927027191937646 9.04639898947321 0.927027191937648 9.04639898947344 0.114669918342003 82.6122122342216 
! Gamma         0                0                0                0                
! Port Impedance         50               0                50               0                
29.7                           0.126596732985466 82.3276576194035 0.925479079187523 7.68499118698205 0.925479079187524 7.68499118698227 0.126325373505656 82.7597853877031 
! Gamma         0                0                0                0                
! Port Impedance         50               0                50               0                
29.8                           0.138190546184811 82.2657445884745 0.923808088508974 6.32768490636245 0.923808088508976 6.32768490636267 0.137945259992337 82.6548204311847 
! Gamma         0                0                0                0                
! Port Impedance         50               0                50               0                
29.9                           0.149725628567293 82.0061303381299 0.922018895504354 4.97485596837448 0.922018895504356 4.97485596837466 0.149502455038343 82.3583035726996 
! Gamma         0                0                0                0                
! Port Impedance         50               0                50               0                
30                             0.161179378816026 81.5935050842153 0.920116506356947 3.62686411007438 0.920116506356949 3.62686411007457 0.160975198874152 81.9137572918846 
! Gamma         0                0                0                0                
! Port Impedance         50               0                50               0                
30.1                           0.172533115941624 81.0606237090393 0.918106229077008 2.284051912944   0.918106229077009 2.28405191294416 0.172345433095654 81.3530266361785 
! Gamma         0                0                0                0                
! Port Impedance         50               0                50               0                
30.2                           0.183770985821343 80.4320169818417 0.915993643746376 0.946743845844573 0.915993643746378 0.946743845844732 0.183597772736258 80.6999299598006 
! Gamma         0                0                0                0                
! Port Impedance         50               0                50               0                
30.3                           0.194879260612457 79.726410553201  0.913784572083851 -0.384754574396847 0.913784572083853 -0.384754574396726 0.194718849459133 79.9726307474    
! Gamma         0                0                0                0                
! Port Impedance         50               0                50               0                
30.4                           0.205845876670461 78.9583427802434 0.911485046646914 -1.71015750337674 0.911485046646916 -1.71015750337661 0.20569687931074 79.1852198000448 
! Gamma         0                0                0                0                
! Port Impedance         50               0                50               0                
30.5                           0.21666012131578 78.1392722071044 0.909101279974   -3.02919937045067 0.909101279974002 -3.02919937045058 0.216521370214452 78.34879606762   
! Gamma         0                0                0                0                
! Port Impedance         50               0                50               0                
30.6                           0.227312414709694 77.2783518088075 0.90663963395577 -4.34163536227119 0.906639633955772 -4.34163536227111 0.227182918508296 77.4722209785879 
! Gamma         0                0                0                0                
! Port Impedance         50               0                50               0                
30.7                           0.237794153715939 76.3829806808639 0.904106589704426 -5.64724179098028 0.904106589704427 -5.6472417909802 0.237673063353859 76.5626551833799 
! Gamma         0                0                0                0                
! Port Impedance         50               0                50               0                
30.8                           0.248097596824202 75.4592040111601 0.901508718167617 -6.94581635059286 0.901508718167618 -6.94581635059281 0.24798417936616 75.6259472324361 
! Gamma         0                0                0                0                
! Port Impedance         50               0                50               0                
30.9                           0.258215776633866 74.5120076708303 0.898852651708678 -8.23717826607595 0.898852651708679 -8.23717826607591 0.258109394809516 74.6669195648773 
! Gamma         0                0                0                0                
! Port Impedance         50               0                50               0                
31                             0.268142431026812 73.5455383479541 0.896145056848373 -9.52116834046581 0.896145056848374 -9.52116834046578 0.268042527060687 73.6895820345269 
! Gamma         0                0                0                0                
! Port Impedance         50               0                50               0                
31.1                           0.277871947113105 72.5632702446368 0.893392608335801 -10.7976489060727 0.893392608335801 -10.7976489060727 0.277778029816728 72.6972934877873 
! Gamma         0                0                0                0                
! Port Impedance         50               0                50               0                
31.2                           0.28739931395833 71.5681328695755 0.890601964688123 -12.0665036863969 0.890601964688124 -12.0665036863969 0.287310948330802 71.6928855565864 
! Gamma         0                0                0                0                
! Port Impedance         50               0                50               0                
31.3                           0.296720081378057 70.5626101298688 0.887779745310987 -13.3276375758203 0.887779745310987 -13.3276375758204 0.29663688015593 70.6787585996182 
! Gamma         0                0                0                0                
! Port Impedance         50               0                50               0                
31.4                           0.305830322945492 69.5488179900258 0.884932509284361 -14.5809763444546 0.884932509284361 -14.5809763444546 0.305751939682046 69.6569568599814 
! Gamma         0                0                0                0                
! Port Impedance         50               0                50               0                
31.5                           0.314726601946191 68.5285659439473 0.882066735872488 -15.8264662757175 0.882066735872488 -15.8264662757175 0.31465272530156 68.6292279362185 
! Gamma         0                0                0                0                
! Port Impedance         50               0                50               0                
31.6                           0.32340593941963 67.5034061327423 0.879188806792095 -17.0640737442931 0.879188806792094 -17.0640737442931 0.323336288417644 67.5970702879906 
! Gamma         0                0                0                0                
! Port Impedance         50               0                50               0                
31.7                           0.331865783710171 66.474672940868  0.876304990250206 -18.2937847421075 0.876304990250205 -18.2937847421075 0.331800103772989 66.5617715244489 
! Gamma         0                0                0                0                
! Port Impedance         50               0                50               0                
31.8                           0.340103981147554 65.4435151860004 0.873421426742118 -19.5156043598379 0.873421426742117 -19.5156043598379 0.340042040760681 65.5244395263636 
! Gamma         0                0                0                0                
! Port Impedance         50               0                50               0                
31.9                           0.3481187476155  64.4109224980983 0.8705441165814  -20.729556231279 0.870544116581398 -20.729556231279 0.348060335507227 64.4860279480558 
! Gamma         0                0                0                0                
! Port Impedance         50               0                50               0                
32                             0.355908640863547 63.3777471020677 0.867678909117356 -21.9356819476224 0.867678909117354 -21.9356819476225 0.355853563606805 63.4473572753052 
! Gamma         0                0                0                0                
! Port Impedance         50               0                50               0                
32.1                           0.363472533483849 62.344721936351  0.864831493581162 -23.1340404483866 0.86483149358116 -23.1340404483866 0.363420613447073 62.4091323417752 
! Gamma         0                0                0                0                
! Port Impedance         50               0                50               0                
32.2                           0.370809586519874 61.3124758290058 0.862007391489915 -24.3247073953597 0.862007391489913 -24.3247073953597 0.370760660107812 61.3719570021521 
! Gamma         0                0                0                0                
! Port Impedance         50               0                50               0                
32.3                           0.377919223703564 60.2815462939699 0.859211950527995 -25.5077745355169 0.859211950527992 -25.5077745355169 0.377873139840243 60.3363465062526 
! Gamma         0                0                0                0                
! Port Impedance         50               0                50               0                
32.4                           0.384801106335959 59.2523903894845 0.856450339817342 -26.6833490584367 0.856450339817339 -26.6833490584368 0.384757725150929 59.3027380014145 
! Gamma         0                0                0                0                
! Port Impedance         50               0                50               0                
32.5                           0.391455108836692 58.2253939881996 0.853727546482415 -27.8515529532942 0.853727546482413 -27.8515529532943 0.391414300522694 58.2714995009849 
! Gamma         0                0                0                0                
! Port Impedance         50               0                50               0                
32.6                           0.397881294992227 57.2008797371746 0.85104837341146 -29.0125223700504 0.851048373411457 -29.0125223700505 0.397842938808106 57.2429375877041 
! Gamma         0                0                0                0                
! Port Impedance         50               0                50               0                
32.7                           0.404079894933312 56.1791139306168 0.84841743811321 -30.1664069889947 0.848417438113207 -30.1664069889948 0.404043878330445 56.217304067226  
! Gamma         0                0                0                0                
! Port Impedance         50               0                50               0                
32.8                           0.410051282869656 55.1603124749292 0.845839172567087 -31.3133694023453 0.845839172567083 -31.3133694023454 0.41001750072394 55.1948017451606 
! Gamma         0                0                0                0                
! Port Impedance         50               0                50               0                
32.9                           0.415795955605773 54.1446460916149 0.843317823965085 -32.4535845111644 0.843317823965081 -32.4535845111646 0.415764309540093 54.1755894681479 
! Gamma         0                0                0                0                
! Port Impedance         50               0                50               0                
33                             0.42131451185652 53.1322448766982 0.840857456244776 -33.5872389404144 0.840857456244772 -33.5872389404145 0.421284909641078 53.1597865434815 
! Gamma         0                0                0                0                
! Port Impedance         50               0                50               0                
33.1                           0.426607632374977 52.1232023139408 0.838461952314968 -34.7145304745693 0.838461952314964 -34.7145304745694 0.42657998739489 52.1474766311515 
! Gamma         0                0                0                0                
! Port Impedance         50               0                50               0                
33.2                           0.431676060899131 51.1175788220625 0.836135016878421 -35.8356675158017 0.836135016878417 -35.8356675158018 0.431650291680293 51.1387111856937 
! Gamma         0                0                0                0                
! Port Impedance         50               0                50               0                
33.3                           0.43652058591784 50.1154049024716 0.833880179759429 -36.9508685663954 0.833880179759424 -36.9508685663955 0.436496615703433 50.1335125120064 
! Gamma         0                0                0                0                
! Port Impedance         50               0                50               0                
33.4                           0.441142023250692 49.1166839429706 0.831700799647954 -38.0603617366881 0.83170079964795 -38.0603617366882 0.441119779621875 49.1318764886393 
! Gamma         0                0                0                0                
! Port Impedance         50               0                50               0                
33.5                           0.445541199431125 48.1213947239621 0.829600068176167 -39.1643842795248 0.829600068176163 -39.1643842795249 0.445520613966338 48.1337750034437 
! Gamma         0                0                0                0                
! Port Impedance         50               0                50               0                
33.6                           0.449718935877385 47.1294936664193 0.827581014247583 -40.2631821519052 0.827581014247578 -40.2631821519053 0.449699943845535 47.139158139467  
! Gamma         0                0                0                0                
! Port Impedance         50               0                50               0                
33.7                           0.453676033831645 46.1409168549715 0.825646508543466 -41.357009604234 0.825646508543461 -41.3570096042341 0.453658573915081 46.1479561432795 
! Gamma         0                0                0                0                
! Port Impedance         50               0                50               0                
33.8                           0.457413260044159 45.1555818646101 0.823799268135593 -42.4461287973326 0.823799268135588 -42.4461287973326 0.457397274087904 45.1600812032539 
! Gamma         0                0                0                0                
! Port Impedance         50               0                50               0                
33.9                           0.460931333176302 44.173389415561  0.822041861138835 -43.530809447138 0.822041861138831 -43.5308094471381 0.460916765960511 44.1754290615053 
! Gamma         0                0                0                0                
! Port Impedance         50               0                50               0                
34                             0.46423091089417 43.1942248776088 0.820376711341256 -44.6113284968127 0.820376711341251 -44.6113284968127 0.464217709927158 43.1938804800657 
! Gamma         0                0                0                0                
! Port Impedance         50               0                50               0                
34.1                           0.467312577622708 42.2179596424857 0.818806102753428 -45.6879698157916 0.818806102753423 -45.6879698157917 0.467300692952253 42.2153025792944 
! Gamma         0                0                0                0                
! Port Impedance         50               0                50               0                
34.2                           0.470176832929313 41.2444523807376 0.817332184022492 -46.7610239251277 0.817332184022487 -46.7610239251278 0.470166216970223 41.239550064415  
! Gamma         0                0                0                0                
! Port Impedance         50               0                50               0                
34.3                           0.472824080505375 40.2735501976797 0.815956972659964 -47.8307877483341 0.815956972659958 -47.8307877483341 0.472814687881565 40.2664663543415 
! Gamma         0                0                0                0                
! Port Impedance         50               0                50               0                
34.4                           0.475254617714318 39.3050897015793 0.814682359035538 -48.8975643867828 0.814682359035532 -48.8975643867828 0.47524640511387 39.2958846255426 
! Gamma         0                0                0                0                
! Port Impedance         50               0                50               0                
34.5                           0.477468625675289 38.3388979960134 0.813510110092043 -49.9616629185845 0.813510110092037 -49.9616629185845 0.477461551717122 38.3276287825582 
! Gamma         0                0                0                0                
! Port Impedance         50               0                50               0                
34.6                           0.479466159852732 37.3747936073924 0.812441872739276 -51.0233982197524 0.81244187273927 -51.0233982197525 0.479460184963712 37.3615143658669 
! Gamma         0                0                0                0                
! Port Impedance         50               0                50               0                
34.7                           0.481247141123681 36.4125873578938 0.811479176886714 -52.0830908063399 0.811479176886708 -52.0830908063399 0.481242227425099 36.397349407098  
! Gamma         0                0                0                0                
! Port Impedance         50               0                50               0                
34.8                           0.482811347296578 35.4520831934846 0.810623438077025 -53.1410666961288 0.81062343807702 -53.1410666961288 0.482807458499085 35.4349352410438 
! Gamma         0                0                0                0                
! Port Impedance         50               0                50               0                
34.9                           0.484158405057935 34.4930789763049 0.809875959683927 -54.1976572883423 0.809875959683921 -54.1976572883423 0.48415550636408 34.4740672835559 
! Gamma         0                0                0                0                
! Port Impedance         50               0                50               0                
35                             0.485287782325984 33.5353672504356 0.809237934639236 -55.2531992597494 0.809237934639231 -55.2531992597494 0.485285840339649 33.5145357841762 
! Gamma         0                0                0                0                
! Port Impedance         50               0                50               0                
35.1                           0.486198780993835 32.5787359899568 0.808710446654994 -56.308034475425 0.808710446654989 -56.308034475425 0.486197763635878 32.5561265622647 
! Gamma         0                0                0                0                
! Port Impedance         50               0                50               0                
35.2                           0.486890530048321 31.6229693382289 0.808294470907287 -57.3625099123195 0.808294470907281 -57.3625099123195 0.486890406477867 31.5986217354241 
! Gamma         0                0                0                0                
! Port Impedance         50               0                50               0                
35.3                           0.487361979054934 30.6678483474848 0.807990874148898 -58.4169775936838 0.807990874148892 -58.4169775936837 0.487362719595766 30.6418004491952 
! Gamma         0                0                0                0                
! Port Impedance         50               0                50               0                
35.4                           0.487611892003834 29.7131517281192 0.807800414218217 -59.4717945322749 0.807800414218213 -59.4717945322748 0.487613468075424 29.685439617308  
! Gamma         0                0                0                0                
! Port Impedance         50               0                50               0                
35.5                           0.487638841516983 28.7586566174971 0.807723738911945 -60.527322680146 0.80772373891194 -60.527322680146 0.487641225569726 28.72931468222   
! Gamma         0                0                0                0                
! Port Impedance         50               0                50               0                
35.6                           0.487441203422027 27.8041393786983 0.80776138418907 -61.5839288826879 0.807761384189065 -61.5839288826878 0.487444368876289 27.773200406279  
! Gamma         0                0                0                0                
! Port Impedance         50               0                50               0                
35.7                           0.487017151704602 26.8493764403736 0.807913771673499 -62.6419848344462 0.807913771673494 -62.6419848344461 0.487021072893237 26.8168717046141 
! Gamma         0                0                0                0                
! Port Impedance         50               0                50               0                
35.8                           0.486364653857387 25.8941451898367 0.808181205422464 -63.7018670340817 0.80818120542246 -63.7018670340817 0.486369305971402 25.8601045318138 
! Gamma         0                0                0                0                
! Port Impedance         50               0                50               0                
35.9                           0.485481466651427 24.9382249326681 0.808563867927681 -64.7639567356727 0.808563867927677 -64.7639567356726 0.485486825688486 24.9026768356132 
! Gamma         0                0                0                0                
! Port Impedance         50               0                50               0                
36                             0.484365132363112 23.9813979335095 0.80906181531605 -65.8286398933705 0.809061815316046 -65.8286398933704 0.484371175078637 23.944369592212  
! Gamma         0                0                0                0                
! Port Impedance         50               0                50               0                
36.1                           0.483012975498753 23.023450554398  0.809674971716713 -66.8963070962254 0.809674971716708 -66.8963070962254 0.483019679359339 22.9849679395289 
! Gamma         0                0                0                0                
! Port Impedance         50               0                50               0                
36.2                           0.481422100067976 22.0641745089882 0.810403122761423 -67.9673534897793 0.810403122761419 -67.9673534897792 0.481429443206914 22.0242624266963 
! Gamma         0                0                0                0                
! Port Impedance         50               0                50               0                
36.3                           0.479589387467254 21.1033682533931 0.811245908185721 -69.0421786807921 0.811245908185717 -69.0421786807921 0.479597348641927 21.0620504004844 
! Gamma         0                0                0                0                
! Port Impedance         50               0                50               0                
36.4                           0.477511495045863 20.1408385372021 0.812202813499214 -70.1211866212203 0.812202813499211 -70.1211866212203 0.477520053596826 20.0981375521788 
! Gamma         0                0                0                0                
! Port Impedance         50               0                50               0                
36.5                           0.475184855438462 19.1764021416109 0.813273160694694 -71.2047854672964 0.81327316069469 -71.2047854672964 0.475193991249991 19.1323396518081 
! Gamma         0                0                0                0                
! Port Impedance         50               0                50               0                
36.6                           0.472605676761364 18.2098878356131 0.814456097967755 -72.2933874092816 0.814456097967752 -72.2933874092816 0.472615370223301 18.1644845006412 
! Gamma         0                0                0                0                
! Port Impedance         50               0                50               0                
36.7                           0.469769943783593 17.2411385860087 0.815750588421374 -73.3874084671621 0.815750588421371 -73.387408467162 0.469780175754301 17.1944141376731 
! Gamma         0                0                0                0                
! Port Impedance         50               0                50               0                
36.8                           0.466673420198926 16.2700140627373 0.817155397733541 -74.487268247252 0.817155397733539 -74.4872682472519 0.466684171969172 16.2219873415795 
! Gamma         0                0                0                0                
! Port Impedance         50               0                50               0                
36.9                           0.463311652141523 15.2963934879602 0.818669080770773 -75.5933896543437 0.818669080770771 -75.5933896543436 0.463322905399108 15.2470824765276 
! Gamma         0                0                0                0                
! Port Impedance         50               0                50               0                
37                             0.45967997310542 14.3201788856611 0.820289967136352 -76.7061985537178 0.82028996713635 -76.7061985537177 0.459691709900379 14.2696007385831 
! Gamma         0                0                0                0                
! Port Impedance         50               0                50               0                
37.1                           0.455773510447318 13.3412987986498 0.822016145649567 -77.8261233769935 0.822016145649566 -77.8261233769934 0.455785713157501 13.2894698695599 
! Gamma         0                0                0                0                
! Port Impedance         50               0                50               0                
37.2                           0.451587193672744 12.3597125521546 0.823845447761368 -78.9535946654687 0.823845447761367 -78.9535946654687 0.451599844969572 12.3066484174629 
! Gamma         0                0                0                0                
! Port Impedance         50               0                50               0                
37.3                           0.447115764727979 11.3754151582477 0.82577542992287 -80.0890445442807 0.825775429922869 -80.0890445442807 0.447128847542182 11.3211306377248 
! Gamma         0                0                0                0                
! Port Impedance         50               0                50               0                
37.4                           0.44235379054435 10.3884429738462 0.827803354936308 -81.2329061204116 0.827803354936307 -81.2329061204115 0.442367288031444 10.3329521479332 
! Gamma         0                0                0                0                
! Port Impedance         50               0                50               0                
37.5                           0.437295678107692 9.39888024790361 0.829926172333577 -82.3856127972883 0.829926172333576 -82.3856127972883 0.437309573612946 9.34219647160803 
! Gamma         0                0                0                0                
! Port Impedance         50               0                50               0                
37.6                           0.431935692354383 8.40686672183048 0.832140497845664 -83.5475974984882 0.832140497845664 -83.5475974984882 0.43194996937699 8.34900263500499 
! Gamma         0                0                0                0                
! Port Impedance         50               0                50               0                
37.7                           0.42626797722678 7.41260648272954 0.834442592047343 -84.7192917928739 0.834442592047344 -84.719291792874 0.426282619382908 7.35357401645545 
! Gamma         0                0                0                0                
! Port Impedance         50               0                50               0                
37.8                           0.420286580255646 6.41637831375426 0.836828338285617 -85.9011249133672 0.836828338285617 -85.9011249133672 0.42030157123999 6.35618869245798 
! Gamma         0                0                0                0                
! Port Impedance         50               0                50               0                
37.9                           0.413985481076267 5.41854784253446 0.839293220027865 -87.0935226615389 0.839293220027866 -87.0935226615389 0.414000804621642 5.35721158135475 
! Gamma         0                0                0                0                
! Port Impedance         50               0                50               0                
38                             0.40735862432956 4.41958186082787 0.841832297796573 -88.2969061902708 0.841832297796574 -88.2969061902708 0.407374264164013 4.35710875761153 
! Gamma         0                0                0                0                
! Port Impedance         50               0                50               0                
38.1                           0.400399957451491 3.42006528127591 0.844440185891994 -89.5116906569519 0.844440185891996 -89.511690656952 0.400415897252275 3.35646440240452 
! Gamma         0                0                0                0                
! Port Impedance         50               0                50               0                
38.2                           0.3931034739162  2.4207213170809  0.847111029142224 -90.7382837400364 0.847111029142226 -90.7382837400364 0.393119697259809 2.35600097610916 
! Gamma         0                0                0                0                
! Port Impedance         50               0                50               0                
38.3                           0.385463262574242 1.42243562676314 0.849838479961793 -91.9770840123381 0.849838479961795 -91.9770840123382 0.385479752881525 1.35660335456616 
! Gamma         0                0                0                0                
! Port Impedance         50               0                50               0                
38.4                           0.377473563823036 0.426285371603638 0.852615676044863 -93.2284791651992 0.852615676044865 -93.2284791651993 0.377490304298153 0.359347876362047 
! Gamma         0                0                0                0                
! Port Impedance         50               0                50               0                
38.5                           0.369128833470186 -0.566425594345298 0.8554352190671  -94.492844078674 0.855435219067103 -94.4928440786741 0.369145807031829 -0.6344624794721 
! Gamma         0                0                0                0                
! Port Impedance         50               0                50               0                
38.6                           0.360423815313983 -1.55412381773264 0.858289154820674 -95.7705387341557 0.858289154820676 -95.7705387341559 0.36044100451687 -1.62325520202796 
! Gamma         0                0                0                0                
! Port Impedance         50               0                50               0                
38.7                           0.351353623686955 -2.53491354750073 0.861168955258956 -97.0619059674611 0.861168955258959 -97.0619059674612 0.351371010630993 -2.60513556882814 
! Gamma         0                0                0                0                
! Port Impedance         50               0                50               0                
38.8                           0.341913837514164 -3.50651149932843 0.864065502980196 -98.3672690623209 0.864065502980199 -98.367269062321 0.34193140373791 -3.57782143374082 
! Gamma         0                0                0                0                
! Port Impedance         50               0                50               0                
38.9                           0.332100607867437 -4.46616541474082 0.866969078731536 -99.6869291865177 0.866969078731539 -99.6869291865179 0.332118334221381 -4.53856181584953 
! Gamma         0                0                0                0                
! Port Impedance         50               0                50               0                
39                             0.321910781608884 -5.41055146096451 0.869869352564512 -101.021162675599 0.869869352564516 -101.0211626756  0.321928648102598 -5.48403433746865 
! Gamma         0                0                0                0                
! Port Impedance         50               0                50               0                
39.1                           0.311342044601656 -6.33564370499651 0.87275537931869 -102.370218172182 0.872755379318693 -102.370218172183 0.311360030216745 -6.41021474770608 
! Gamma         0                0                0                0                
! Port Impedance         50               0                50               0                
39.2                           0.300393089260833 -7.23654630742682 0.875615599149024 -103.734313632366 0.875615599149028 -103.734313632366 0.300411171718689 -7.31220918123436 
! Gamma         0                0                0                0                
! Port Impedance         50               0                50               0                
39.3                           0.289063813137662 -8.10727533650011 0.87843784384227 -105.113633214676 0.878437843842274 -105.113633214677 0.289081968606731 -8.18403605863879 
! Gamma         0                0                0                0                
! Port Impedance         50               0                50               0                
39.4                           0.277355558116368 -8.94047160476739 0.881209349685267 -106.508324071264 0.881209349685271 -106.508324071264 0.277373760837481 -9.01833903917491 
! Gamma         0                0                0                0                
! Port Impedance         50               0                50               0                
39.5                           0.265271404203251 -9.72701773398739 0.88391677765005 -107.9184930657  0.883916777650053 -107.9184930657  0.265289626002348 -9.80600424403202 
! Gamma         0                0                0                0                
! Port Impedance         50               0                50               0                
39.6                           0.252816538703423 -10.4555202329474 0.886546241644058 -109.344203446662 0.886546241644062 -109.344203446662 0.252834748347182 -10.5356425532395 
! Gamma         0                0                0                0                
! Port Impedance         50               0                50               0                
39.7                           0.239998732322823 -11.111598221549 0.889083345534751 -110.785471511911 0.889083345534755 -110.785471511912 0.240016894651425 -11.1928786374443 
! Gamma         0                0                0                0                
! Port Impedance         50               0                50               0                
39.8                           0.226828970994415 -11.6768903623731 0.891513229593404 -112.242263302205 0.891513229593407 -112.242263302206 0.226847045732324 -11.7593583284423 
! Gamma         0                0                0                0                
! Port Impedance         50               0                50               0                
39.9                           0.213322320564549 -12.1276434361145 0.89382062690962 -113.714491369956 0.893820626909624 -113.714491369956 0.213340260656767 -12.2113378311609 
! Gamma         0                0                0                0                
! Port Impedance         50               0                50               0                
40                             0.199499149105611 -12.4326674835569 0.895989930203707 -115.202011672431 0.89598993020371 -115.202011672431 0.199516898339314 -12.5176398039809 
! Gamma         0                0                0                0                
! Port Impedance         50               0                50               0                
40.1                           0.185386913764226 -12.5503119237969 0.898005269306644 -116.704620643874 0.898005269306648 -116.704620643874 0.185404403288625 -12.6366308821661 
! Gamma         0                0                0                0                
! Port Impedance         50               0                50               0                
40.2                           0.171022864670169 -12.4238965110058 0.899850599386411 -118.222052504885 0.899850599386415 -118.222052504886 0.171040007774607 -12.5116547672781 
! Gamma         0                0                0                0                
! Port Impedance         50               0                50               0                
40.3                           0.156458284045548 -11.9746543405459 0.901509799775387 -119.753976870539 0.901509799775391 -119.753976870539 0.156474968111178 -12.0639784939864 
! Gamma         0                0                0                0                
! Port Impedance         50               0                50               0                
40.4                           0.141765376853618 -11.0906029989747 0.902966782998888 -121.29999672075 0.902966782998892 -121.29999672075 0.141781450598937 -11.1816685324349 
! Gamma         0                0                0                0                
! Port Impedance         50               0                50               0                
40.5                           0.127048885835639 -9.60870902490476 0.90420561332358 -122.859646797145 0.904205613323584 -122.859646797145 0.127064138552055 -9.70176246558752 
! Gamma         0                0                0                0                
! Port Impedance         50               0                50               0                
40.6                           0.112466358110409 -7.28621401495377 0.905210633842786 -124.432392489823 0.90521063384279 -124.432392489823 0.112480485126726 -7.3816041818022 
! Gamma         0                0                0                0                
! Port Impedance         50               0                50               0                
40.7                           0.0982644867924531 -3.75596460240295 0.905966600801718 -126.01762927483 0.905966600801721 -126.017629274831 0.0982770318014646 -3.85417921636193 
! Gamma         0                0                0                0                
! Port Impedance         50               0                50               0                
40.8                           0.0848446483163018 1.53429181491713 0.906458823549586 -127.614682758624 0.906458823549588 -127.614682758625 0.0848549113478278 1.43261435900098 
! Gamma         0                0                0                0                
! Port Impedance         50               0                50               0                
40.9                           0.0728746320592875 9.36307113683794 0.906673308199404 -129.222809379263 0.906673308199407 -129.222809379263 0.0728815502300062 9.25727821357191 
! Gamma         0                0                0                0                
! Port Impedance         50               0                50               0                
41                             0.063435833993081 20.5847816005712 0.90659690279345 -130.841197805423 0.906596902793452 -130.841197805423 0.063437949683596 20.4748204750795 
! Gamma         0                0                0                0                
! Port Impedance         50               0                50               0                
41.1                           0.0580367793344606 35.3723662003856 0.906217441526933 -132.46897106372 0.906217441526934 -132.46897106372 0.0580326828488379 35.260070914709  
! Gamma         0                0                0                0                
! Port Impedance         50               0                50               0                
41.2                           0.0580503146495673 51.9482695431004 0.905523885388906 -134.105189412283 0.905523885388908 -134.105189412284 0.0580398009044146 51.8375144694322 
! Gamma         0                0                0                0                
! Port Impedance         50               0                50               0                
41.3                           0.0636571536651885 67.0531606905393 0.904506456451294 -135.748853964408 0.904506456451296 -135.748853964409 0.0636417261659369 66.946702929449  
! Gamma         0                0                0                0                
! Port Impedance         50               0                50               0                
41.4                           0.0737243399611274 78.6596948615268 0.90315676298619 -137.398911050693 0.903156762986191 -137.398911050694 0.0737060082404438 78.5573241988288 
! Gamma         0                0                0                0                
! Port Impedance         50               0                50               0                
41.5                           0.0868037477261586 86.781831400506  0.901467912627664 -139.054257291827 0.901467912627665 -139.054257291828 0.0867839660259061 86.6820742096287 
! Gamma         0                0                0                0                
! Port Impedance         50               0                50               0                
41.6                           0.101797813181784 92.2514863966543 0.899434610923115 -140.713745337619 0.899434610923115 -140.71374533762 0.101777404955121 92.1530433839416 
! Gamma         0                0                0                0                
! Port Impedance         50               0                50               0                
41.7                           0.118009732353126 95.8703260730039 0.89705324284257 -142.376190211582 0.897053242842571 -142.376190211582 0.117989130483198 95.7723468324764 
! Gamma         0                0                0                0                
! Port Impedance         50               0                50               0                
41.8                           0.135011548914673 98.215631551624  0.894321935129351 -144.040376184946 0.894321935129351 -144.040376184946 0.13499098143512 98.1176027705761 
! Gamma         0                0                0                0                
! Port Impedance         50               0                50               0                
41.9                           0.152532928968545 99.6726877116564 0.891240597774441 -145.705064090051 0.89124059777444 -145.705064090051 0.152512520036651 99.5743026738267 
! Gamma         0                0                0                0                
! Port Impedance         50               0                50               0                
42                             0.170394082326794 100.496326252672 0.887810943367315 -147.368998971187 0.887810943367315 -147.368998971188 0.17037390271411 100.397399020063 
! Gamma         0                0                0                0                
! Port Impedance         50               0                50               0                
42.1                           0.188468314482285 100.857616845402 0.884036483601141 -149.030917961658 0.88403648360114 -149.030917961659 0.188448406702139 100.758032223529 
! Gamma         0                0                0                0                
! Port Impedance         50               0                50               0                
42.2                           0.206661208831292 100.874067974829 0.879922502770117 -150.689558269496 0.879922502770117 -150.689558269496 0.206641599911785 100.773752994875 
! Gamma         0                0                0                0                
! Port Impedance         50               0                50               0                
42.3                           0.22489882080916 100.628430305036 0.875476008668928 -152.343665151214 0.875476008668927 -152.343665151214 0.224879528969117 100.52733780949  
! Gamma         0                0                0                0                
! Port Impedance         50               0                50               0                
42.4                           0.243120801349476 100.180411127895 0.870705661865457 -153.991999753286 0.870705661865456 -153.991999753287 0.243101839581746 100.078510118733 
! Gamma         0                0                0                0                
! Port Impedance         50               0                50               0                
42.5                           0.261276282670906 99.5740831319492 0.865621684845215 -155.63334670477 0.865621684845214 -155.63334670477 0.26125766070828 99.4713529526409 
! Gamma         0                0                0                0                
! Port Impedance         50               0                50               0                
42.6                           0.279321355736283 98.842666098321  0.860235752998326 -157.266521351403 0.860235752998326 -157.266521351403 0.279303081146748 98.7390928383904 
! Gamma         0                0                0                0                
! Port Impedance         50               0                50               0                
42.7                           0.297217489490248 98.0116806077609 0.85456086981934 -158.890376531357 0.85456086981934 -158.890376531357 0.297199568291725 97.9072548278494 
! Gamma         0                0                0                0                
! Port Impedance         50               0                50               0                
42.8                           0.314930520134968 97.1010728573306 0.848611229002808 -160.503808805122 0.848611229002806 -160.503808805122 0.314912957139652 96.9957881182237 
! Gamma         0                0                0                0                
! Port Impedance         50               0                50               0                
42.9                           0.332429991478292 96.1266755914203 0.842402066334214 -162.105764066273 0.842402066334213 -162.105764066273 0.332412790482963 96.0205274840472 
! Gamma         0                0                0                0                
! Port Impedance         50               0                50               0                
43                             0.349688713839999 95.1012318302646 0.835949504392503 -163.695242475516 0.835949504392502 -163.695242475516 0.349671877728332 94.9942173246899 
! Gamma         0                0                0                0                
! Port Impedance         50               0                50               0                
43.1                           0.36668245940462 94.0351250247836 0.829270393097991 -165.271302676795 0.82927039309799 -165.271302676795 0.366665990199805 93.9272420263891 
! Gamma         0                0                0                0                
! Port Impedance         50               0                50               0                
43.2                           0.383389742160717 92.9369084590082 0.8223821490636  -166.833065270789 0.822382149063599 -166.833065270789 0.383373641050917 92.8281555017062 
! Gamma         0                0                0                0                
! Port Impedance         50               0                50               0                
43.3                           0.399791649232021 91.8136950332727 0.815302596547549 -168.379715537264 0.815302596547548 -168.379715537264 0.399775916582109 91.7040710648541 
! Gamma         0                0                0                0                
! Port Impedance         50               0                50               0                
43.4                           0.415871702223237 90.6714484163384 0.808049812574711 -169.910505412932 0.808049812574711 -169.910505412932 0.415856337580835 90.5609526466963 
! Gamma         0                0                0                0                
! Port Impedance         50               0                50               0                
43.5                           0.431615734860272 89.5152035095657 0.800641978506414 -171.424754745328 0.800641978506414 -171.424754745328 0.431600736960847 89.4038353024038 
! Gamma         0                0                0                0                
! Port Impedance         50               0                50               0                
43.6                           0.4470117782639  88.3492355695493 0.793097240010537 -172.921851855382 0.793097240010537 -172.921851855382 0.446997145037632 88.2369943645264 
! Gamma         0                0                0                0                
! Port Impedance         50               0                50               0                
43.7                           0.462049948588753 87.1771915760866 0.785433577031106 -174.401253451624 0.785433577031106 -174.401253451624 0.462035677170649 87.0640768324914 
! Gamma         0                0                0                0                
! Port Impedance         50               0                50               0                
43.8                           0.476722334054428 86.0021935135322 0.777668684994584 -175.862483947193 0.777668684994585 -175.862483947193 0.476708420798345 85.8882046693305 
! Gamma         0                0                0                0                
! Port Impedance         50               0                50               0                
43.9                           0.491022879948671 84.8269205285044 0.769819868132241 -177.305134236978 0.769819868132242 -177.305134236978 0.491009320445411 84.7120569704502 
! Gamma         0                0                0                0                
! Port Impedance         50               0                50               0                
44                             0.504947271222974 83.6536750345239 0.76190394545633 -178.728859996366 0.76190394545633 -178.728859996366 0.504934060322283 83.5379360762886 
! Gamma         0                0                0                0                
! Port Impedance         50               0                50               0                
44.1                           0.518492812980171 82.4844364938655 0.753937169611622 179.866620434682 0.753937169611623 179.866620434682 0.518479944816287 82.3678213600068 
! Gamma         0                0                0                0                
! Port Impedance         50               0                50               0                
44.2                           0.531658309575158 81.3209056467661 0.74593515854047 178.481528517984 0.745935158540472 178.481528517984 0.531645777595426 81.2034134609709 
! Gamma         0                0                0                0                
! Port Impedance         50               0                50               0                
44.3                           0.544443943286125 80.1645412631512 0.737912839653479 177.116028270662 0.73791283965348 177.116028270662 0.544431740282149 80.0461710396117 
! Gamma         0                0                0                0                
! Port Impedance         50               0                50               0                
44.4                           0.556851153617263 79.0165909841685 0.729884405991853 175.770229244859 0.729884405991854 175.77022924486  0.556839271758038 78.8973416212596 
! Gamma         0                0                0                0                
! Port Impedance         50               0                50               0                
44.5                           0.568882518303295 77.8781174464854 0.721863283701959 174.444189675976 0.721863283701961 174.444189675977 0.568870949169762 77.7579877221299 
! Gamma         0                0                0                0                
! Port Impedance         50               0                50               0                
44.6                           0.580541637030607 76.7500206042079 0.713862110016654 173.137919745837 0.713862110016656 173.137919745837 0.580530371651112 76.6290091724745 
! Gamma         0                0                0                0                
! Port Impedance         50               0                50               0                
44.7                           0.591833018791349 75.6330569552141 0.705892720849048 171.851384911889 0.705892720849051 171.85138491189  0.591822047677507 75.5111623438127 
! Gamma         0                0                0                0                
! Port Impedance         50               0                50               0                
44.8                           0.602761973662392 74.5278562220132 0.697966147049403 170.584509258552 0.697966147049405 170.584509258553 0.602751286844921 74.4050768304341 
! Gamma         0                0                0                0                
! Port Impedance         50               0                50               0                
44.9                           0.613334509663428 73.434935918538  0.690092618350796 169.337178832022 0.690092618350798 169.337178832022 0.613324096727546 73.3112700166476 
! Gamma         0                0                0                0                
! Port Impedance         50               0                50               0                
45                             0.623557235207179 72.3547141438625 0.682281574029804 168.109244925068 0.682281574029806 168.109244925068 0.623547085327223 72.2301598708136 
! Gamma         0                0                0                0                
! Port Impedance         50               0                50               0                
45.1                           0.633437267516772 71.2875208745866 0.674541679330342 166.900527283436 0.674541679330345 166.900527283436 0.633427369489741 71.1620762379372 
! Gamma         0                0                0                0                
! Port Impedance         50               0                50               0                
45.2                           0.642982147255671 70.233607974329  0.66688084673779 165.710817210346 0.666880846737793 165.710817210346 0.642972489533444 70.10727084929   
! Gamma         0                0                0                0                
! Port Impedance         50               0                50               0                
45.3                           0.652199759497384 69.1931580975244 0.659306261242496 164.539880550148 0.6593062612425  164.539880550148 0.652190330217425 69.0659262262761 
! Gamma         0                0                0                0                
! Port Impedance         50               0                50               0                
45.4                           0.661098261057531 68.1662926326356 0.651824408793086 163.387460536407 0.651824408793089 163.387460536407 0.661089048071908 68.0381636236676 
! Gamma         0                0                0                0                
! Port Impedance         50               0                50               0                
45.5                           0.669686014120455 67.1530788047871 0.644441107207504 162.25328049351  0.644441107207508 162.25328049351  0.669677005023066 67.0240501322283 
! Gamma         0                0                0                0                
! Port Impedance         50               0                50               0                
45.6                           0.677971526016745 66.1535360380654 0.637161538880502 161.13704638431  0.637161538880506 161.13704638431  0.677962708168674 66.0236050409788 
! Gamma         0                0                0                0                
! Port Impedance         50               0                50               0                
45.7                           0.685963394946218 65.1676416620636 0.629990284698083 160.038449199314 0.629990284698087 160.038449199314 0.685954755499154 65.0368055436864 
! Gamma         0                0                0                0                
! Port Impedance         50               0                50               0                
45.8                           0.693670261392227 64.1953360347376 0.622931358640312 158.957167185532 0.622931358640316 158.957167185532 0.693661787309951 64.0635918616536 
! Gamma         0                0                0                0                
! Port Impedance         50               0                50               0                
45.9                           0.701100764936577 63.2365271435629 0.615988242622432 157.892867915301 0.615988242622436 157.892867915302 0.701092443014492 63.1038718447951 
! Gamma         0                0                0                0                
! Port Impedance         50               0                50               0                
46                             0.708263506158498 62.2910947387908 0.609163921189196 156.845210197276 0.6091639211892  156.845210197277 0.708255323041235 62.1575251048085 
! Gamma         0                0                0                0                
! Port Impedance         50               0                50               0                
46.1                           0.715167013284691 61.35889404588   0.60246091573807 155.813845833272 0.602460915738075 155.813845833272 0.715158955481837 61.2244067275123 
! Gamma         0                0                0                0                
! Port Impedance         50               0                50               0                
46.2                           0.721819713249189 60.4397590986018 0.595881318002864 154.798421225867 0.595881318002868 154.798421225867 0.721811767149166 60.3043506058548 
! Gamma         0                0                0                0                
! Port Impedance         50               0                50               0                
46.3                           0.7282299068202  59.5335057296419 0.589426822580138 153.798578842636 0.589426822580142 153.798578842636 0.728222058702375 59.3971724304157 
! Gamma         0                0                0                0                
! Port Impedance         50               0                50               0                
46.4                           0.734405747455191 58.6399342515589 0.583098758326428 152.813958543549 0.583098758326432 152.813958543549 0.734397983500275 58.5026723702614 
! Gamma         0                0                0                0                
! Port Impedance         50               0                50               0                
46.5                           0.740355223553976 57.7588318575629 0.576898118494811 151.844198778614 0.576898118494815 151.844198778614 0.740347529852792 57.6206374736189 
! Gamma         0                0                0                0                
! Port Impedance         50               0                50               0                
46.6                           0.7460861437916  56.8899747686376 0.570825589514938 150.888937663116 0.570825589514942 150.888937663116 0.746078506352289 56.7508438148906 
! Gamma         0                0                0                0                
! Port Impedance         50               0                50               0                
46.7                           0.751606125227385 56.0331301509613 0.564881578351543 149.947813938001 0.564881578351547 149.947813938001 0.751598529981138 55.8930584119669 
! Gamma         0                0                0                0                
! Port Impedance         50               0                50               0                
46.8                           0.75692258390301 55.1880578253153 0.559066238402945 149.020467822971 0.559066238402949 149.020467822971 0.756915016708399 55.0470409355247 
! Gamma         0                0                0                0                
! Port Impedance         50               0                50               0                
46.9                           0.762042727660124 54.3545117881573 0.553379493923545 148.106541769793 0.553379493923549 148.106541769794 0.762035174306115 54.2125452299882 
! Gamma         0                0                0                0                
! Port Impedance         50               0                50               0                
47                             0.766973550926343 53.5322415622334 0.547821062973109 147.205681123193 0.547821062973113 147.205681123194 0.766965997134059 53.3893206640279 
! Gamma         0                0                0                0                
! Port Impedance         50               0                50               0                
47.1                           0.771721831237037 52.7209933929874 0.542390478911166 146.317534696446 0.54239047891117 146.317534696446 0.771714262660361 52.5771133268541 
! Gamma         0                0                0                0                
! Port Impedance         50               0                50               0                
47.2                           0.776294127278749 51.9205113055581 0.537087110467413 145.441755268556 0.537087110467417 145.441755268556 0.776286529503819 51.7756670850967 
! Gamma         0                0                0                0                
! Port Impedance         50               0                50               0                
47.3                           0.780696778258103 51.1305380358299 0.531910180428987 144.578000009577 0.53191018042899 144.578000009577 0.780689136801785 50.9847245137367 
! Gamma         0                0                0                0                
! Port Impedance         50               0                50               0                
47.4                           0.784935904417485 50.3508158477935 0.526858782993226 143.725930840309 0.52685878299323 143.725930840309 0.784928204724868 50.2040277133442 
! Gamma         0                0                0                0                
! Port Impedance         50               0                50               0                
47.5                           0.789017408535375 49.5810872483716 0.521931899840294 142.885214732249 0.521931899840297 142.885214732249 0.789009635976376 49.4333190247798 
! Gamma         0                0                0                0                
! Port Impedance         50               0                50               0                
47.6                           0.792946978264993 48.8210956098596 0.51712841498413 142.055523953328 0.517128414984133 142.055523953328 0.792939118130084 48.672341651508  
! Gamma         0                0                0                0                
! Port Impedance         50               0                50               0                
47.7                           0.796730089179641 48.0705857092122 0.512447128462895 141.236536264605 0.512447128462899 141.236536264605 0.796722126674795 47.9208401987531 
! Gamma         0                0                0                0                
! Port Impedance         50               0                50               0                
47.8                           0.800372008406978 47.3293041925649 0.507886768931549 140.427935072713 0.507886768931552 140.427935072713 0.80036392864785 47.1785611378872 
! Gamma         0                0                0                0                
! Port Impedance         50               0                50               0                
47.9                           0.803877798747177 46.5969999726118 0.503446005219685 139.629409542545 0.503446005219688 139.629409542545 0.803869586752572 46.4452532036708 
! Gamma         0                0                0                0                
! Port Impedance         50               0                50               0                
48                             0.80725232318173 45.8734245657556 0.499123456917474 138.840654674279 0.499123456917478 138.840654674279 0.807243963866395 45.7206677312614 
! Gamma         0                0                0                0                
! Port Impedance         50               0                50               0                
48.1                           0.810500249690433 45.1583323753043 0.494917704051548 138.061371348562 0.494917704051551 138.061371348562 0.810491727857207 45.0045589392657 
! Gamma         0                0                0                0                
! Port Impedance         50               0                50               0                
48.2                           0.813626056303944 44.4514809263977 0.490827295911218 137.291266343337 0.490827295911221 137.291266343337 0.813617356635291 44.296684164516  
! Gamma         0                0                0                0                
! Port Impedance         50               0                50               0                
48.3                           0.81663403632826 43.7526310578108 0.486850759083508 136.530052325504 0.486850759083511 136.530052325504 0.81662514337722 43.5968040537206 
! Gamma         0                0                0                0                
! Port Impedance         50               0                50               0                
48.4                           0.819528303685543 43.0615470752907 0.482986604753309 135.77744782034  0.482986604753312 135.77744782034  0.819519201866113 42.9046827166409 
! Gamma         0                0                0                0                
! Port Impedance         50               0                50               0                
48.5                           0.822312798323055 42.3779968706328 0.47923333532255 135.033177161329 0.479233335322552 135.033177161329 0.822303471900022 42.2200878450042 
! Gamma         0                0                0                0                
! Port Impedance         50               0                50               0                
48.6                           0.824991291648476 41.701752010295  0.47558945039973 134.296970422825 0.475589450399733 134.296970422825 0.824981724726712 41.5427908009483 
! Gamma         0                0                0                0                
! Port Impedance         50               0                50               0                
48.7                           0.827567391955787 41.0325877969765 0.472053452208535 133.568563337718 0.472053452208537 133.568563337718 0.827557568469032 40.8725666784251 
! Gamma         0                0                0                0                
! Port Impedance         50               0                50               0                
48.8                           0.830044549811116 40.3702833072462 0.468623850461546 132.847697202099 0.468623850461548 132.847697202099 0.830034453510235 40.2091943406475 
! Gamma         0                0                0                0                
! Port Impedance         50               0                50               0                
48.9                           0.832426063372599 39.7146214079998 0.465299166742421 132.134118768679 0.465299166742423 132.134118768679 0.832415677813336 39.5524564363586 
! Gamma         0                0                0                0                
! Port Impedance         50               0                50               0                
49                             0.834715083622429 39.0653887542411 0.46207793843725 131.427580130587 0.462077938437251 131.427580130587 0.834704392152649 38.902139397419  
! Gamma         0                0                0                0                
! Port Impedance         50               0                50               0                
49.1                           0.836914619492906 38.4223757704318 0.458958722253199 130.727838596959 0.4589587222532  130.727838596959 0.836903605239331 38.2580334199538 
! Gamma         0                0                0                0                
! Port Impedance         50               0                50               0                
49.2                           0.839027542871505 37.7853766174176 0.455940097360086 130.034656561615 0.455940097360087 130.034656561615 0.839016188725937 37.61993243107   
! Gamma         0                0                0                0                
! Port Impedance         50               0                50               0                
49.3                           0.841056593472781 37.1541891467332 0.453020668188047 129.347801365953 0.453020668188048 129.347801365953 0.841044882077802 36.987634042944  
! Gamma         0                0                0                0                
! Port Impedance         50               0                50               0                
49.4                           0.843004383567373 36.5286148438962 0.450199066912196 128.667045157084 0.450199066912197 128.667045157085 0.842992297301522 36.3609394958894 
! Gamma         0                0                0                0                
! Port Impedance         50               0                50               0                
49.5                           0.844873402560518 35.9084587621267 0.447473955652932 127.992164742101 0.447473955652933 127.992164742101 0.844860923522923 35.7396535918421 
! Gamma         0                0                0                0                
! Port Impedance         50               0                50               0                
49.6                           0.8466660214143  35.2935294477753 0.444844028418462 127.322941439272 0.444844028418463 127.322941439272 0.84665313140876 35.1235846195442 
! Gamma         0                0                0                0                
! Port Impedance         50               0                50               0                
49.7                           0.848384496909481 34.6836388586001 0.442308012814129 126.659160926856 0.442308012814129 126.659160926856 0.848371177427982 34.5125442725671 
! Gamma         0                0                0                0                
! Port Impedance         50               0                50               0                
49.8                           0.8500309757441  34.0786022759054 0.43986467154126 126.000613090145 0.43986467154126 126.000613090145 0.850017207949729 33.906347561186  
! Gamma         0                0                0                0                
! Port Impedance         50               0                50               0                
49.9                           0.851607498467173 33.4782382114397 0.437512803706498 125.347091867261 0.437512803706498 125.347091867261 0.851593263176437 33.3048127190022 
! Gamma         0                0                0                0                
! Port Impedance         50               0                50               0                
50                             0.853116003246848 32.8823683098475 0.435251245960938 124.698395094169 0.435251245960938 124.698395094168 0.853101280911349 32.7077611051086 
! Gamma         0                0                0                0                
! Port Impedance         50               0                50               0                
50.1                           0.854558329473126 32.2908172473728 0.433078873486852 124.054324349281 0.433078873486852 124.054324349281 0.854543100160582 32.1150171024944 
! Gamma         0                0                0                0                
! Port Impedance         50               0                50               0                
50.2                           0.855936221196004 31.703412627432  0.430994600848359 123.414684798007 0.430994600848359 123.414684798007 0.855920464570578 31.5264080133053 
! Gamma         0                0                0                0                
! Port Impedance         50               0                50               0                
50.3                           0.857251330400389 31.1199848735918 0.42899738272107 122.779285037503 0.428997382721069 122.779285037503 0.857235025702306 30.9417639514974 
! Gamma         0                0                0                0                
! Port Impedance         50               0                50               0                
50.4                           0.858505220119628 30.5403671204249 0.427086214514479 122.147936941871 0.427086214514478 122.147936941871 0.858488346144031 30.3609177333521 
! Gamma         0                0                0                0                
! Port Impedance         50               0                50               0                
50.5                           0.859699367389812 29.9643951026489 0.425260132899768 121.520455507987 0.425260132899768 121.520455507987 0.85968190246484 29.7837047662613 
! Gamma         0                0                0                0                
! Port Impedance         50               0                50               0                
50.6                           0.860835166047306 29.3919070429024 0.423518216254587 120.896658702097 0.423518216254587 120.896658702097 0.860817088011336 29.2099629361328 
! Gamma         0                0                0                0                
! Port Impedance         50               0                50               0                
50.7                           0.861913929372117 28.8227435384598 0.421859585035421 120.276367307321 0.421859585035419 120.276367307321 0.86189521555015 28.6395324937178 
! Gamma         0                0                0                0                
! Port Impedance         50               0                50               0                
50.8                           0.862936892579892 28.2567474471421 0.420283402087234 119.659404772113 0.420283402087232 119.659404772113 0.862917519759018 28.0722559401165 
! Gamma         0                0                0                0                
! Port Impedance         50               0                50               0                
50.9                           0.863905215165343 27.6937637726394 0.418788872899269 119.045597059757 0.418788872899267 119.045597059757 0.863885159569253 27.5079779116777 
! Gamma         0                0                0                0                
! Port Impedance         50               0                50               0                
51                             0.86481998309999 27.133639549427  0.417375245815061 118.43477249892  0.417375245815059 118.43477249892  0.864799220362482 26.9465450644711 
! Gamma         0                0                0                0                
! Port Impedance         50               0                50               0                
51.1                           0.865682210887036 26.5762237274208 0.416041812204081 117.826761635257 0.416041812204079 117.826761635257 0.865660716024454 26.3878059584785 
! Gamma         0                0                0                0                
! Port Impedance         50               0                50               0                
51.2                           0.866492843476169 26.0213670564923 0.414787906601716 117.22139708407  0.414787906601714 117.22139708407  0.866470590858733 25.8316109416228 
! Gamma         0                0                0                0                
! Port Impedance         50               0                50               0                
51.3                           0.867252758040997 25.4689219709335 0.413612906823717 116.618513383975 0.413612906823714 116.618513383975 0.867229721362948 25.2778120337231 
! Gamma         0                0                0                0                
! Port Impedance         50               0                50               0                
51.4                           0.867962765621671 24.9187424739418 0.412516234060699 116.017946851532 0.412516234060697 116.017946851532 0.867938917870186 24.7262628104454 
! Gamma         0                0                0                0                
! Port Impedance         50               0                50               0                
51.5                           0.868623612635179 24.3706840221712 0.411497352957741 115.419535436772 0.411497352957739 115.419535436772 0.868598926057963 24.1768182872934 
! Gamma         0                0                0                0                
! Port Impedance         50               0                50               0                
51.6                           0.869235982255551 23.8246034103799 0.410555771683694 114.823118579543 0.410555771683691 114.823118579543 0.869210428327067 23.6293348036682 
! Gamma         0                0                0                0                
! Port Impedance         50               0                50               0                
51.7                           0.869800495666119 23.2803586561846 0.409691041994347 114.228537066586 0.409691041994344 114.228537066586 0.869774045052349 23.0836699070051 
! Gamma         0                0                0                0                
! Port Impedance         50               0                50               0                
51.8                           0.870317713185712 22.7378088849207 0.408902759293232 113.635632889233 0.40890275929323 113.635632889233 0.870290335707388 22.5396822369854 
! Gamma         0                0                0                0                
! Port Impedance         50               0                50               0                
51.9                           0.870788135270506 22.1968142145897 0.408190562693438 113.044249101627 0.408190562693435 113.044249101627 0.870759799864725 21.9972314098022 
! Gamma         0                0                0                0                
! Port Impedance         50               0                50               0                
52                             0.871212203393011 21.6572356408672 0.407554135083499 112.45422967933  0.407554135083497 112.45422967933  0.871182878073123 21.456177902453  
! Gamma         0                0                0                0                
! Port Impedance         50               0                50               0                
52.1                           0.871590300799419 21.1189349221322 0.406993203200087 111.865419378203 0.406993203200084 111.865419378203 0.871559952613126 20.9163829370146 
! Gamma         0                0                0                0                
! Port Impedance         50               0                50               0                
52.2                           0.871922753146359 20.5817744644698 0.406507537709936 111.277663593408 0.406507537709933 111.277663593408 0.871891348131886 20.3777083648539 
! Gamma         0                0                0                0                
! Port Impedance         50               0                50               0                
52.3                           0.872209829017767 20.0456172065921 0.406096953303158 110.690808218408 0.406096953303155 110.690808218408 0.872177332158031 19.8400165507139 
! Gamma         0                0                0                0                
! Port Impedance         50               0                50               0                
52.4                           0.872451740322407 19.5103265046126 0.405761308799855 110.10469950379  0.405761308799852 110.10469950379  0.872418115497037 19.3031702566096 
! Gamma         0                0                0                0                
! Port Impedance         50               0                50               0                
52.5                           0.872648642572233 18.9757660166069 0.405500507271635 109.519183915784 0.405500507271632 109.519183915784 0.872613852507344 18.7670325254623 
! Gamma         0                0                0                0                
! Port Impedance         50               0                50               0                
52.6                           0.872800635041565 18.4417995868846 0.405314496179484 108.93410799429  0.405314496179481 108.93410799429  0.872764641257144 18.2314665643952 
! Gamma         0                0                0                0                
! Port Impedance         50               0                50               0                
52.7                           0.872907760806727 17.9082911298936 0.405203267529127 108.349318210269 0.405203267529123 108.349318210269 0.872870523561494 17.6963356276084 
! Gamma         0                0                0                0                
! Port Impedance         50               0                50               0                
52.8                           0.872970006665534 17.3751045136766 0.405166858044851 107.764660822317 0.405166858044848 107.764660822317 0.872931484899129 17.1615028987481 
! Gamma         0                0                0                0                
! Port Impedance         50               0                50               0                
52.9                           0.872987302935686 16.8421034427946 0.405205349362518 107.179981732246 0.405205349362514 107.179981732246 0.872947454208037 16.6268313726829 
! Gamma         0                0                0                0                
! Port Impedance         50               0                50               0                
53                             0.872959523130863 16.3091513406301 0.405318868242268 106.595126339501 0.405318868242265 106.595126339501 0.872918303558548 16.0921837365953 
! Gamma         0                0                0                0                
! Port Impedance         50               0                50               0                
53.1                           0.87288648351295 15.7761112309868 0.405507586801221 106.009939394218 0.405507586801218 106.009939394218 0.872843847702402 15.5574222503003 
! Gamma         0                0                0                0                
! Port Impedance         50               0                50               0                
53.2                           0.872767942518548 15.2428456188955 0.405771722766225 105.424264848759 0.405771722766221 105.424264848759 0.872723843495894 15.0224086256964 
! Gamma         0                0                0                0                
! Port Impedance         50               0                50               0                
53.3                           0.872603600057578 14.7092163705426 0.406111539746509 104.837945707505 0.406111539746505 104.837945707505 0.872557989194916 14.4870039052613 
! Gamma         0                0                0                0                
! Port Impedance         50               0                50               0                
53.4                           0.872393096681436 14.1750845922359 0.406527347525833 104.250823874741 0.406527347525829 104.250823874741 0.872345923619344 13.9510683395006 
! Gamma         0                0                0                0                
! Port Impedance         50               0                50               0                
53.5                           0.872136012617856 13.6403105083283 0.407019502373479 103.662740000431 0.407019502373474 103.662740000432 0.872087225183891 13.4144612632646 
! Gamma         0                0                0                0                
! Port Impedance         50               0                50               0                
53.6                           0.871831866669233 13.1047533380202 0.407588407373181 103.073533323676 0.407588407373178 103.073533323676 0.871781410792195 12.8770409708473 
! Gamma         0                0                0                0                
! Port Impedance         50               0                50               0                
53.7                           0.871480114970852 12.5682711709708 0.4082345127688  102.48304151367  0.408234512768796 102.48304151367  0.871427934590529 12.3386645897926 
! Gamma         0                0                0                0                
! Port Impedance         50               0                50               0                
53.8                           0.871080149605065 12.0307208416516 0.408958316325231 101.891100507956 0.408958316325227 101.891100507956 0.87102618657721 11.7991879533311 
! Gamma         0                0                0                0                
! Port Impedance         50               0                50               0                
53.9                           0.870631297067117 11.4919578023844 0.409760363702743 101.29754434777  0.409760363702739 101.29754434777  0.870575491063332 11.2584654713852 
! Gamma         0                0                0                0                
! Port Impedance         50               0                50               0                
54                             0.870132816577907 10.9518359950179 0.410641248842563 100.702205010282 0.41064124884256 100.702205010282 0.870075104980139 10.7163500000839 
! Gamma         0                0                0                0                
! Port Impedance         50               0                50               0                
54.1                           0.869583898238628 10.4102077212036 0.411601614361139 100.104912237537 0.411601614361136 100.104912237537 0.869524216027926 10.1726927097432 
! Gamma         0                0                0                0                
! Port Impedance         50               0                50               0                
54.2                           0.868983661021804 9.86692351125021 0.412642151950108 99.5054933618908 0.412642151950105 99.5054933618908 0.868921940660983 9.62734295127744 
! Gamma         0                0                0                0                
! Port Impedance         50               0                50               0                
54.3                           0.868331150592864 9.32183199154786 0.413763602778518 98.9037731277522 0.413763602778514 98.9037731277522 0.868267321902679 9.08014812102435 
! Gamma         0                0                0                0                
! Port Impedance         50               0                50               0                
54.4                           0.867625336956005 8.7747797505732  0.414966757893348 98.2995735094408 0.414966757893344 98.2995735094408 0.867559326984429 8.53095352398193 
! Gamma         0                0                0                0                
! Port Impedance         50               0                50               0                
54.5                           0.866865111917676 8.22561120350779 0.416252458613817 97.6927135249704 0.416252458613814 97.6927135249704 0.866796844801834 7.97960223547712 
! Gamma         0                0                0                0                
! Port Impedance         50               0                50               0                
54.6                           0.866049286360646 7.67416845552549 0.417621596914354 97.0830090455824 0.417621596914351 97.0830090455825 0.865978683180927 7.42593496130729 
! Gamma         0                0                0                0                
! Port Impedance         50               0                50               0                
54.7                           0.865176587321211 7.12029116383368 0.419075115790395 96.4702726008572 0.419075115790392 96.4702726008572 0.865103565947048 6.86978989642533 
! Gamma         0                0                0                0                
! Port Impedance         50               0                50               0                
54.8                           0.864245654861722 6.56381639858479 0.420614009600482 95.8543131792441 0.420614009600479 95.8543131792442 0.86417012978849 6.31100258226668 
! Gamma         0                0                0                0                
! Port Impedance         50               0                50               0                
54.9                           0.863255038730241 6.00457850281217 0.422239324377244 95.2349360238621 0.42223932437724 95.2349360238621 0.86317692090669 5.74940576285518 
! Gamma         0                0                0                0                
! Port Impedance         50               0                50               0                
55                             0.862203194798783 5.4424089515852  0.423952158098958 94.6119424234388 0.423952158098954 94.6119424234387 0.862122391444372 5.18482923986235 
! Gamma         0                0                0                0                
! Port Impedance         50               0                50               0                
55.1                           0.86108848127129 4.87713621062892 0.425753660912382 93.9851294982759 0.425753660912379 93.9851294982759 0.861004895682737 4.61709972684402 
! Gamma         0                0                0                0                
! Port Impedance         50               0                50               0                
55.2                           0.859909154652151 4.30858559470615 0.427645035296414 93.354289981149  0.427645035296411 93.3542899811489 0.859822685998479 4.04604070292806 
! Gamma         0                0                0                0                
! Port Impedance         50               0                50               0                
55.3                           0.858663365465872 3.73657912612535 0.429627536154912 92.7192119930761 0.42962753615491 92.7192119930761 0.858573908571154 3.47147226629093 
! Gamma         0                0                0                0                
! Port Impedance         50               0                50               0                
55.4                           0.857349153718251 3.16093539380472 0.431702470825668 92.0796788139225 0.431702470825666 92.0796788139224 0.857256598831222 2.8932109878249  
! Gamma         0                0                0                0                
! Port Impedance         50               0                50               0                
55.5                           0.855964444089308 2.58146941341015 0.433871198990985 91.4354686478412 0.433871198990982 91.4354686478412 0.855868676638922 2.31106976548203 
! Gamma         0                0                0                0                
! Port Impedance         50               0                50               0                
55.6                           0.854507040848134 1.99799248917008 0.436135132473721 90.7863543835937 0.436135132473719 90.7863543835936 0.854407941184087 1.72485767986403 
! Gamma         0                0                0                0                
! Port Impedance         50               0                50               0                
55.7                           0.852974622479847 1.4103120780801  0.438495734900805 90.1321033498416 0.438495734900803 90.1321033498416 0.852872065597019 1.13437985173274 
! Gamma         0                0                0                0                
! Port Impedance         50               0                50               0                
55.8                           0.851364736015007 0.818231657325222 0.440954521214254 89.4724770655581 0.440954521214253 89.472477065558  0.851258591260654 0.539437302228171 
! Gamma         0                0                0                0                
! Port Impedance         50               0                50               0                
55.9                           0.849674791052084 0.221550595885566 0.443513057007543 88.8072309857691 0.443513057007541 88.807230985769  0.849564921814582 -0.0601731832873616 
! Gamma         0                0                0                0                
! Port Impedance         50               0                50               0                
56                             0.847902053464041 -0.379935968560944 0.446172957662762 88.1361142429119 0.446172957662761 88.1361142429117 0.84778831684182 -0.664659186694214 
! Gamma         0                0                0                0                
! Port Impedance         50               0                50               0                
56.1                           0.846043638780706 -0.986437246148021 0.448935887261409 87.4588693841797 0.448935887261408 87.4588693841796 0.845925885229938 -1.27423278265603 
! Gamma         0                0                0                0                
! Port Impedance         50               0                50               0                
56.2                           0.84409650523944 -1.59816690325918 0.451803557238746 86.7752321053224 0.451803557238745 86.7752321053223 0.843974578198936 -1.8891106568134 
! Gamma         0                0                0                0                
! Port Impedance         50               0                50               0                
56.3                           0.84205744649777 -2.21534316119086 0.454777724748581 86.0849309814759 0.45477772474858 86.0849309814757 0.841931181989373 -2.50951421499609 
! Gamma         0                0                0                0                
! Port Impedance         50               0                50               0                
56.4                           0.839923084003028 -2.83818888308333 0.45786019070188 85.3876871957291 0.457860190701878 85.3876871957288 0.83979231020568 -3.13566968157186 
! Gamma         0                0                0                0                
! Port Impedance         50               0                50               0                
56.5                           0.837689859015856 -3.46693164688449 0.461052797438952 84.6832142662674 0.461052797438952 84.6832142662671 0.837554395811352 -3.76780818478173 
! Gamma         0                0                0                0                
! Port Impedance         50               0                50               0                
56.6                           0.835354024286644 -4.10180380178634 0.464357425990924 83.9712177731034 0.464357425990924 83.9712177731031 0.835213682774899 -4.4061658265954 
! Gamma         0                0                0                0                
! Port Impedance         50               0                50               0                
56.7                           0.832911635386614 -4.74304250521981 0.467775992881872 83.2513950855784 0.467775992881872 83.2513950855782 0.832766217368104 -5.05098373427617 
! Gamma         0                0                0                0                
! Port Impedance         50               0                50               0                
56.8                           0.830358541698585 -5.39088973707846 0.471310446418358 82.5234350920311 0.471310446418358 82.5234350920309 0.830207839121393 -5.70250809044338 
! Gamma         0                0                0                0                
! Port Impedance         50               0                50               0                
56.9                           0.827690377076285 -6.0455922873877 0.474962762408039 81.7870179332526 0.474962762408039 81.7870179332524 0.827534171444973 -6.36099013797778 
! Gamma         0                0                0                0                
! Port Impedance         50               0                50               0                
57                             0.824902550185762 -6.70740171311074 0.478734939243699 81.0418147416133 0.478734939243699 81.0418147416131 0.824740611929011 -7.02668615560731 
! Gamma         0                0                0                0                
! Port Impedance         50               0                50               0                
57.1                           0.821990234547911 -7.37657425919846 0.482628992283316 80.2874873880298 0.482628992283317 80.2874873880294 0.821822322341617 -7.69985739944339 
! Gamma         0                0                0                0                
! Port Impedance         50               0                50               0                
57.2                           0.818948358307602 -8.0533707383273 0.48664694745074 79.5236882392679 0.48664694745074 79.5236882392675 0.818774218349771 -8.38077000509269 
! Gamma         0                0                0                0                
! Port Impedance         50               0                50               0                
57.3                           0.815771593762453 -8.73805636301779 0.490790833975142 78.7500599284382 0.490790833975143 78.7500599284378 0.815590958995931 -9.06969484424506 
! Gamma         0                0                0                0                
! Port Impedance         50               0                50               0                
57.4                           0.812454346693102 -9.43090052298788 0.49506267618079 77.9662351419377 0.495062676180792 77.9662351419372 0.812266935971736 -9.76690732881979 
! Gamma         0                0                0                0                
! Port Impedance         50               0                50               0                
57.5                           0.808990745547062 -10.132176499633 0.499464484231706 77.1718364265391 0.499464484231707 77.1718364265387 0.808796262740494 -10.4726871548244 
! Gamma         0                0                0                0                
! Port Impedance         50               0                50               0                
57.6                           0.805374630540014 -10.8421611084594 0.503998243728725 76.3664760208196 0.503998243728727 76.3664760208191 0.805172763571807 -11.1873179770456 
! Gamma         0                0                0                0                
! Port Impedance         50               0                50               0                
57.7                           0.801599542752037 -11.5611342590724 0.508665904049219 75.5497557156589 0.508665904049221 75.5497557156582 0.801389962565285 -11.911087004505 
! Gamma         0                0                0                0                
! Port Impedance         50               0                50               0                
57.8                           0.79765871331179 -12.2893784209551 0.513469365312569 74.7212667491311 0.513469365312571 74.7212667491307 0.797441072755729 -12.6442845052953 
! Gamma         0                0                0                0                
! Port Impedance         50               0                50               0                
57.9                           0.793545052779452 -13.0271779817206 0.518410463847405 73.8805897417698 0.518410463847407 73.8805897417692 0.793318985409924 -13.3872032079053 
! Gamma         0                0                0                0                
! Port Impedance         50               0                50               0                
58                             0.789251140859422 -13.7748184827708 0.523490956029892 73.0272946788757 0.523490956029895 73.0272946788752 0.789016259645223 -14.1401375844516 
! Gamma         0                0                0                0                
! Port Impedance         50               0                50               0                
58.1                           0.784769216596647 -14.5325857153109 0.5287125003562  72.160940947327  0.528712500356204 72.1609409473265 0.784525112522887 -14.9033829993251 
! Gamma         0                0                0                0                
! Port Impedance         50               0                50               0                
58.2                           0.780091169236214 -15.3007646574285 0.534076637606873 71.2810774351517 0.534076637606876 71.2810774351511 0.779837409794796 -15.6772347045902 
! Gamma         0                0                0                0                
! Port Impedance         50               0                50               0                
58.3                           0.775208529954732 -16.0796382304051 0.539584768956666 70.3872427030235 0.539584768956669 70.3872427030228 0.774944657510873 -16.4619866610317 
! Gamma         0                0                0                0                
! Port Impedance         50               0                50               0                
58.4                           0.770112464704351 -16.8694858495436 0.545238131880728 69.4789652377774 0.545238131880731 69.4789652377766 0.769837994726687 -17.2579301609649 
! Gamma         0                0                0                0                
! Port Impedance         50               0                50               0                
58.5                           0.764793768446026 -17.6705817415285 0.551037773707396 68.5557637990286 0.5510377737074  68.555763799028  0.764508187586309 -18.0653522257736 
! Gamma         0                0                0                0                
! Port Impedance         50               0                50               0                
58.6                           0.759242861088325 -18.4831929965906 0.556984522669801 67.6171478710269 0.556984522669805 67.6171478710262 0.758945625094837 -18.8845337475627 
! Gamma         0                0                0                0                
! Port Impedance         50               0                50               0                
58.7                           0.753449785491338 -19.3075773195231 0.563078956313712 66.6626182329362 0.563078956313715 66.6626182329353 0.753140316938121 -19.7157473402254 
! Gamma         0                0                0                0                
! Port Impedance         50               0                50               0                
58.8                           0.747404207942759 -20.1439804386976 0.569321367128195 65.6916676618353 0.569321367128201 65.6916676618345 0.74708189375414 -20.5592548605602 
! Gamma         0                0                0                0                
! Port Impedance         50               0                50               0                
58.9                           0.741095421564132 -20.9926331266779 0.575711725279717 64.7037817838177 0.57571172527972 64.7037817838168 0.740759610311313 -21.4153045547241 
! Gamma         0                0                0                0                
! Port Impedance         50               0                50               0                
59                             0.734512353160237 -21.8537477795794 0.582249638350142 63.6984400896468 0.582249638350147 63.6984400896459 0.734162352103083 -22.2841277791781 
! Gamma         0                0                0                0                
! Port Impedance         50               0                50               0                
59.1                           0.727643574082615 -22.7275144948867 0.588934308005834 62.6751171324348 0.588934308005839 62.675117132434  0.727278645925936 -23.1659352381177 
! Gamma         0                0                0                0                
! Port Impedance         50               0                50               0                
59.2                           0.720477315739125 -23.6140965788087 0.595764483559871 61.6332839257412 0.595764483559875 61.6332839257402 0.72009667506779 -24.0609126712111 
! Gamma         0                0                0                0                
! Port Impedance         50               0                50               0                
59.3                           0.713001490444384 -24.5136254041374 0.602738412433502 60.5724095612724 0.602738412433507 60.5724095612716 0.712604299796084 -24.9692159157328 
! Gamma         0                0                0                0                
! Port Impedance         50               0                50               0                
59.4                           0.705203718369916 -25.426194527691 0.609853787577824 59.4919630659559 0.609853787577828 59.4919630659549 0.70478908389729 -25.8909652559568 
! Gamma         0                0                0                0                
! Port Impedance         50               0                50               0                
59.5                           0.697071361416253 -26.3518529623796 0.617107691983468 58.3914155184944 0.617107691983472 58.3914155184934 0.696638328082258 -26.8262389591792 
! Gamma         0                0                0                0                
! Port Impedance         50               0                50               0                
59.6                           0.688591564890878 -27.2905974821508 0.624496540486298 57.2702424454979 0.624496540486303 57.2702424454969 0.688139111131169 -27.775065881847 
! Gamma         0                0                0                0                
! Port Impedance         50               0                50               0                
59.7                           0.679751307933478 -28.2423638179067 0.632016019171941 56.1279265168614 0.632016019171947 56.1279265168605 0.679278339707718 -28.7374170100297 
! Gamma         0                0                0                0                
! Port Impedance         50               0                50               0                
59.8                           0.67053746368052 -29.2070165781237 0.639661022792533 54.9639605590969 0.63966102279254 54.9639605590959 0.670042807820075 -29.713195775262 
! Gamma         0                0                0                0                
! Port Impedance         50               0                50               0                
59.9                           0.660936870203435 -30.1843376980172 0.647425590735935 53.7778509037364 0.647425590735941 53.7778509037353 0.660419266945281 -30.7022269583033 
! Gamma         0                0                0                0                
! Port Impedance         50               0                50               0                
60                             0.650936413283507 -31.1740131843981 0.655302842231538 52.5691210855758 0.655302842231543 52.5691210855748 0.650394507858654 -31.7042439583694 
! Gamma         0                0                0                0                
! Port Impedance         50               0                50               0                
60.1                           0.640523122100935 -32.1756178776387 0.66328491163705 51.3373159022991 0.663284911637053 51.337315902298  0.639955455219116 -32.7188741617171 
! Gamma         0                0                0                0                
! Port Impedance         50               0                50               0                
60.2                           0.629684278910793 -33.188597894874 0.671362884826422 50.0820058427915 0.671362884826426 50.0820058427903 0.629089275950444 -33.7456220886979 
! Gamma         0                0                0                0                
! Port Impedance         50               0                50               0                
60.3                           0.618407543752541 -34.2122503461083 0.67952673788834 48.8027918860709 0.679526737888345 48.8027918860699 0.61778350242497 -34.7838499289584 
! Gamma         0                0                0                0                
! Port Impedance         50               0                50               0                
60.4                           0.606681095191309 -35.2456998224322 0.687765279543999 47.4993106661551 0.687765279544003 47.4993106661541 0.60602617139734 -35.8327549858026 
! Gamma         0                0                0                0                
! Port Impedance         50               0                50               0                
60.5                           0.59449378801654 -36.2878710367103 0.696066098897619 46.171239990197  0.696066098897625 46.1712399901961 0.593805979551482 -36.8913434363716 
! Gamma         0                0                0                0                
! Port Impedance         50               0                50               0                
60.6                           0.581835328731465 -37.3374568429759 0.704415520336761 44.8183046878449 0.704415520336766 44.8183046878439 0.581112456415179 -37.9583996657982 
! Gamma         0                0                0                0                
! Port Impedance         50               0                50               0                
60.7                           0.568696469558972 -38.3928806595056 0.712798567593753 43.4402827589355 0.712798567593757 43.4402827589344 0.567936155268757 -39.0324502389138 
! Gamma         0                0                0                0                
! Port Impedance         50               0                50               0                
60.8                           0.555069221580217 -39.4522520555426 0.721198939154115 42.0370117743905 0.721198939154118 42.0370117743894 0.554268862538668 -40.1117213162383 
! Gamma         0                0                0                0                
! Port Impedance         50               0                50               0                
60.9                           0.540947087531596 -40.5133139100802 0.729598997340515 40.6083954716207 0.729598997340518 40.6083954716197 0.540103826040506 -41.1940879793091 
! Gamma         0                0                0                0                
! Port Impedance         50               0                50               0                
61                             0.526325314743672 -41.5733790814526 0.73797977349756 39.1544104710627 0.737979773497562 39.1544104710618 0.525436002350768 -42.2770134720531 
! Gamma         0                0                0                0                
! Port Impedance         50               0                50               0                
61.1                           0.511201168765461 -42.6292538936315 0.746320991737822 37.675113024977  0.746320991737823 37.6751130249761 0.510262323585252 -43.3574757455232 
! Gamma         0                0                0                0                
! Port Impedance         50               0                50               0                
61.2                           0.495574228447216 -43.6771448862606 0.754601113666714 36.1706456937142 0.754601113666718 36.1706456937134 0.494581984014628 -44.4318778488895 
! Gamma         0                0                0                0                
! Port Impedance         50               0                50               0                
61.3                           0.479446703762594 -44.7125441000086 0.762797406366333 34.6412438288852 0.762797406366335 34.6412438288842 0.478396747350201 -45.4959375489568 
! Gamma         0                0                0                0                
! Port Impedance         50               0                50               0                
61.4                           0.462823778591012 -45.7300865463919 0.770886035670709 33.087241727862  0.770886035670712 33.0872417278612 0.461711276333058 -46.5445499503019 
! Gamma         0                0                0                0                
! Port Impedance         50               0                50               0                
61.5                           0.445713982276293 -46.7233712522809 0.778842186393823 31.5090783106452 0.778842186393826 31.5090783106445 0.444533487666216 -47.5716146334002 
! Gamma         0                0                0                0                
! Port Impedance         50               0                50               0                
61.6                           0.428129596358284 -47.6847340951175 0.786640210667852 29.9073021591641 0.786640210667853 29.9073021591635 0.42687493765575 -48.5698156388967 
! Gamma         0                0                0                0                
! Port Impedance         50               0                50               0                
61.7                           0.410087106931691 -48.6049561421342 0.794253804909085 28.2825757515708 0.794253804909086 28.2825757515701 0.40875124763747 -49.5303380676441 
! Gamma         0                0                0                0                
! Port Impedance         50               0                50               0                
61.8                           0.391607719355685 -49.4728847585787 0.801656215156357 26.6356787209452 0.801656215156357 26.6356787209446 0.390182584069562 -50.4424984786993 
! Gamma         0                0                0                0                
! Port Impedance         50               0                50               0                
61.9                           0.372717961660836 -50.2749354268251 0.808820469634682 24.9675099700615 0.808820469634682 24.967509970061  0.371194217163318 -51.2932566412793 
! Gamma         0                0                0                0                
! Port Impedance         50               0                50               0                
62                             0.353450417743496 -50.9944286187773 0.815719636408078 23.2790884822465 0.815719636408077 23.279088482246  0.351817195836549 -52.0665619715431 
! Gamma         0                0                0                0                
! Port Impedance         50               0                50               0                
62.1                           0.333844654132084 -51.6106960741355 0.822327102933754 21.5715526835784 0.822327102933753 21.571552683578  0.332089198402206 -52.7424667392718 
! Gamma         0                0                0                0                
! Port Impedance         50               0                50               0                
62.2                           0.313948439325264 -52.0978613048468 0.828616873259291 19.8461582340681 0.828616873259291 19.8461582340678 0.312055652351258 -53.2959061013031 
! Gamma         0                0                0                0                
! Port Impedance         50               0                50               0                
62.3                           0.293819409916932 -52.4231555053208 0.834563877568004 18.1042741550564 0.834563877568004 18.1042741550562 0.291771270551468 -53.6949964254419 
! Gamma         0                0                0                0                
! Port Impedance         50               0                50               0                
62.4                           0.27352742531527 -52.5445661245296 0.840144287835098 16.3473772364525 0.840144287835098 16.3473772364524 0.271302238262743 -53.8986295812892 
! Gamma         0                0                0                0                
! Port Impedance         50               0                50               0                
62.5                           0.253157993181806 -52.4075242181734 0.845335832571196 14.577044709752  0.845335832571196 14.577044709752  0.25072942795672 -53.8530299717149 
! Gamma         0                0                0                0                
! Port Impedance         50               0                50               0                
62.6                           0.232817373649165 -51.9402152852458 0.850118103061222 12.7949452196948 0.850118103061223 12.7949452196949 0.230153255260358 -53.4867798746218 
! Gamma         0                0                0                0                
! Port Impedance         50               0                50               0                
62.7                           0.212640331771269 -51.0469640847636 0.854472843209971 11.0028281771605 0.854472843209972 11.0028281771607 0.209701182845214 -52.7036045181879 
! Gamma         0                0                0                0                
! Port Impedance         50               0                50               0                
62.8                           0.1928020676698  -49.5990873952497 0.858384215123195 9.20251162636223 0.858384215123197 9.20251162636253 0.189539526372112 -51.3719942940673 
! Gamma         0                0                0                0                
! Port Impedance         50               0                50               0                
62.9                           0.173536643799651 -47.4229457379316 0.861839032910247 7.39586880816243 0.861839032910248 7.3958688081628  0.169892228145443 -49.3107870583619 
! Gamma         0                0                0                0                
! Port Impedance         50               0                50               0                
63                             0.155165046399844 -44.2866018084434 0.864826957896084 5.58481364597535 0.864826957896086 5.58481364597581 0.151070607790233 -46.2710628210795 
! Gamma         0                0                0                0                
! Port Impedance         50               0                50               0                
63.1                           0.138135725455656 -39.8919783986241 0.867340649458688 3.77128541882882 0.867340649458691 3.77128541882929 0.133518913122916 -41.9199259385575 
! Gamma         0                0                0                0                
! Port Impedance         50               0                50               0                
63.2                           0.123075031115362 -33.8936938804177 0.869375867021929 1.95723291559026 0.869375867021931 1.95723291559085 0.117876746384059 -35.8479356172475 
! Gamma         0                0                0                0                
! Port Impedance         50               0                50               0                
63.3                           0.110824244544487 -25.9923280431532 0.870931520271359 0.144598383471322 0.870931520271364 0.144598383472019 0.105038421065506 -27.6588883198424 
! Gamma         0                0                0                0                
! Port Impedance         50               0                50               0                
63.4                           0.102392221775252 -16.162060186109 0.872009666343067 -1.6646984084763 0.872009666343074 -1.66469840847551 0.0961287854353731 -17.2374665511996 
! Gamma         0                0                0                0                
! Port Impedance         50               0                50               0                
63.5                           0.0987129656475961 -4.95861241765368 0.872615454473502 -3.46877567445519 0.872615454473509 -3.46877567445427 0.0922400907274461 -5.17177978037532 
! Gamma         0                0                0                0                
! Port Impedance         50               0                50               0                
63.6                           0.10022053428607 6.43906311861577 0.872757020298179 -5.2658043851815 0.872757020298185 -5.26580438518057 0.0939009341054952 7.12991931607269 
! Gamma         0                0                0                0                
! Port Impedance         50               0                50               0                
63.7                           0.106572939611386 16.7525914340894 0.872445333559244 -7.05402203558835 0.872445333559252 -7.05402203558736 0.100707687058645 18.1235861235604 
! Gamma         0                0                0                0                
! Port Impedance         50               0                50               0                
63.8                           0.116840307548471 25.235999429632  0.871694004347065 -8.83174516914228 0.871694004347073 -8.8317451691412 0.111573365906602 26.9750732556611 
! Gamma         0                0                0                0                
! Port Impedance         50               0                50               0                
63.9                           0.129944396970065 31.7833001641267 0.870519054096563 -10.5973804639987 0.870519054096573 -10.5973804639976 0.125286968432335 33.6472830193867 
! Gamma         0                0                0                0                
! Port Impedance         50               0                50               0                
64                             0.144959774525198 36.6473582399002 0.868938658342514 -12.3494342340838 0.868938658342525 -12.3494342340826 0.140856119170461 38.4946570416999 
! Gamma         0                0                0                0                
! Port Impedance         50               0                50               0                
64.1                           0.161195069551152 40.174427707493  0.866972868689664 -14.0865202484312 0.866972868689678 -14.08652024843  0.157569673837747 41.9371334651027 
! Gamma         0                0                0                0                
! Port Impedance         50               0                50               0                
64.2                           0.178162163331104 42.6788070985238 0.864643321575446 -15.8073658222645 0.864643321575462 -15.8073658222633 0.174941851611899 44.3308343855012 
! Gamma         0                0                0                0                
! Port Impedance         50               0                50               0                
64.3                           0.195521045466988 44.4096256871249 0.861972941217422 -17.5108161812288 0.86197294121744 -17.5108161812275 0.192642434957926 45.9458816119842 
! Gamma         0                0                0                0                
! Port Impedance         50               0                50               0                
64.4                           0.213033106008669 45.554395634062  0.85898564368304 -19.1958371439168 0.858985643683055 -19.1958371439154 0.210443681029223 46.9793976315072 
! Gamma         0                0                0                0                
! Port Impedance         50               0                50               0                
64.5                           0.230528195056417 46.2519339449157 0.855706048346098 -20.8615162059975 0.855706048346116 -20.8615162059962 0.228185143869352 47.5740638748731 
! Gamma         0                0                0                0                
! Port Impedance         50               0                50               0                
64.6                           0.247882800505996 46.6049796280494 0.85215920215922 -22.5070621407931 0.852159202159237 -22.5070621407917 0.2457513288301  47.8337176034148 
! Gamma         0                0                0                0                
! Port Impedance         50               0                50               0                
64.7                           0.265005823649535 46.6901318504177 0.84837032123376 -24.1318032555736 0.848370321233778 -24.1318032555722 0.263057558309235 47.8347896755654 
! Gamma         0                0                0                0                
! Port Impedance         50               0                50               0                
64.8                           0.281829259941901 46.5651170742069 0.84436455323392 -25.7351844600345 0.844364553233942 -25.7351844600332 0.280040914183137 47.6343081486293 
! Gamma         0                0                0                0                
! Port Impedance         50               0                50               0                
64.9                           0.298301996315307 46.2739608948043 0.840166763111217 -27.3167633136507 0.840166763111238 -27.3167633136493 0.296654307578482 47.2754242816678 
! Gamma         0                0                0                0                
! Port Impedance         50               0                50               0                
65                             0.314385593175977 45.850644320338  0.835801343771082 -28.8762052224795 0.835801343771106 -28.8762052224781 0.312862494595614 46.7912335222222 
! Gamma         0                0                0                0                
! Port Impedance         50               0                50               0                
65.1                           0.330051344550324 45.3216969535525 0.831292052408221 -30.4132779542419 0.831292052408249 -30.4132779542408 0.328639322988666 46.2074401339723 
! Gamma         0                0                0                0                
! Port Impedance         50               0                50               0                
65.2                           0.345278174558137 44.70805126864   0.826661872494571 -31.9278456341332 0.826661872494595 -31.9278456341319 0.343965772989265 45.5442375419607 
! Gamma         0                0                0                0                
! Port Impedance         50               0                50               0                
65.3                           0.360051091388751 44.0263826778982 0.821932900767237 -33.4198623737038 0.82193290076726 -33.4198623737025 0.358828521602759 44.8176529571753 
! Gamma         0                0                0                0                
! Port Impedance         50               0                50               0                
65.4                           0.374360020599379 43.290089398203  0.817126258048904 -34.8893656723585 0.817126258048931 -34.8893656723574 0.373218859942032 44.0405221754602 
! Gamma         0                0                0                0                
! Port Impedance         50               0                50               0                
65.5                           0.388198902235613 42.5100176384401 0.812262022338651 -36.336469716362 0.812262022338679 -36.3364697163608 0.387131854469531 43.2232059418806 
! Gamma         0                0                0                0                
! Port Impedance         50               0                50               0                
65.6                           0.401564975774416 41.6950047835713 0.807359182329929 -37.7613586846302 0.807359182329952 -37.7613586846289 0.400565681082594 42.374123391835  
! Gamma         0                0                0                0                
! Port Impedance         50               0                50               0                
65.7                           0.414458202092241 40.8522910396655 0.802435609334043 -39.1642801546334 0.802435609334068 -39.1642801546322 0.413521084967766 41.5001543367118 
! Gamma         0                0                0                0                
! Port Impedance         50               0                50               0                
65.8                           0.426880787943428 39.9878349227176 0.797508045498575 -40.5455386860829 0.797508045498602 -40.5455386860819 0.426000934485199 40.6069463122364 
! Gamma         0                0                0                0                
! Port Impedance         50               0                50               0                
65.9                           0.438836789087474 39.1065576595737 0.792592106196553 -41.9054896451336 0.792592106196576 -41.9054896451324 0.438009847280698 39.6991516156261 
! Gamma         0                0                0                0                
! Port Impedance         50               0                50               0                
66                             0.450331775249977 38.2125344524499 0.787702294509456 -43.24453331793  0.787702294509481 -43.2445333179289 0.449553873345206 38.7806122629018 
! Gamma         0                0                0                0                
! Port Impedance         50               0                50               0                
66.1                           0.461372544823193 37.3091455998165 0.78285202582135 -44.5631093497116 0.782852025821377 -44.5631093497106 0.460640224065972 37.8545057633598 
! Gamma         0                0                0                0                
! Port Impedance         50               0                50               0                
66.2                           0.471966880407582 36.3991969767838 0.778053660669807 -45.8616915344391 0.778053660669835 -45.8616915344384 0.471277039229358 36.9234610928582 
! Gamma         0                0                0                0                
! Port Impedance         50               0                50               0                
66.3                           0.48212333848696 35.4850168971578 0.773318544150896 -47.1407829701331 0.773318544150921 -47.1407829701321 0.481473185912214 35.9896517660602 
! Gamma         0                0                0                0                
! Port Impedance         50               0                50               0                
66.4                           0.491851068053696 34.5685345978948 0.768657050340411 -48.4009115867312 0.768657050340436 -48.4009115867302 0.491238084566486 35.0548711361506 
! Gamma         0                0                0                0                
! Port Impedance         50               0                50               0                
66.5                           0.501159654075428 33.6513442949236 0.764078630364045 -49.6426260463032 0.764078630364074 -49.6426260463027 0.500581558563741 34.1205937724813 
! Gamma         0                0                0                0                
! Port Impedance         50               0                50               0                
66.6                           0.510058982466745 32.734757813702  0.759591862919056 -50.8664920097318 0.759591862919085 -50.8664920097313 0.509513704148475 33.1880258355753 
! Gamma         0                0                0                0                
! Port Impedance         50               0                50               0                
66.7                           0.518559123798357 31.8198480991212 0.755204506214256 -52.0730887594381 0.755204506214284 -52.0730887594376 0.518044778255066 32.2581466834355 
! Gamma         0                0                0                0                
! Port Impedance         50               0                50               0                
66.8                           0.526670233400539 30.9074853887089 0.750923550450418 -53.2630061642316 0.75092355045044 -53.263006164231 0.526185102018453 31.3317434341413 
! Gamma         0                0                0                0                
! Port Impedance         50               0                50               0                
66.9                           0.534402465849123 29.9983674412707 0.746755270107224 -54.4368419697751 0.746755270107246 -54.4368419697745 0.533944978101183 30.4094398281821 
! Gamma         0                0                0                0                
! Port Impedance         50               0                50               0                
67                             0.541765902082331 29.0930449162892 0.742705275433915 -55.5951993963682 0.742705275433939 -55.595199396368 0.541334620192307 29.4917204454484 
! Gamma         0                0                0                0                
! Port Impedance         50               0                50               0                
67.1                           0.548770487609807 28.1919427723747 0.73877856265856 -56.738685024621 0.738778562658578 -56.7386850246202 0.548364093223638 28.5789511118809 
! Gamma         0                0                0                0                
! Port Impedance         50               0                50               0                
67.2                           0.555425980453813 27.2953783781526 0.734979562534873 -57.8679069490143 0.734979562534892 -57.867906949014 0.555043263010732 27.6713961616456 
! Gamma         0                0                0                0                
! Port Impedance         50               0                50               0                
67.3                           0.561741907614117 26.4035768932254 0.731312186936552 -58.9834731792317 0.731312186936572 -58.9834731792314 0.561381754164228 26.769233089715  
! Gamma         0                0                0                0                
! Port Impedance         50               0                50               0                
67.4                           0.567727528980526 25.5166843706915 0.727779873287277 -60.0859902693699 0.727779873287296 -60.0859902693696 0.567388915238636 25.8725650275002 
! Gamma         0                0                0                0                
! Port Impedance         50               0                50               0                
67.5                           0.573391807733452 24.6347789490866 0.72438562668119 -61.1760621556655 0.724385626681209 -61.1760621556655 0.573073790194522 24.9814313937431 
! Gamma         0                0                0                0                
! Port Impedance         50               0                50               0                
67.6                           0.578743386377012 23.7578804352614 0.721132059604667 -62.254289184099 0.721132059604685 -62.2542891840992 0.578445095346895 24.0958170092018 
! Gamma         0                0                0                0                
! Port Impedance         50               0                50               0                
67.7                           0.583790567642052 22.8859585268477 0.71802142921634 -63.3212673101155 0.718021429216356 -63.3212673101153 0.583511201060985 23.2156599128864 
! Gamma         0                0                0                0                
! Port Impedance         50               0                50               0                
67.8                           0.588541299580276 22.0189398803939 0.71505567218007 -64.3775874536826 0.715055672180087 -64.3775874536827 0.588280117535477 22.3408580769038 
! Gamma         0                0                0                0                
! Port Impedance         50               0                50               0                
67.9                           0.593003164246713 21.1567141969012 0.712236437075646 -65.4238349939562 0.712236437075659 -65.4238349939563 0.59275948408666 21.4712751839964 
! Gamma         0                0                0                0                
! Port Impedance         50               0                50               0                
68                             0.597183369435722 20.2991394685744 0.709565114435507 -66.4605893888836 0.709565114435519 -66.4605893888834 0.596956561411552 20.6067456052352 
! Gamma         0                0                0                0                
! Port Impedance         50               0                50               0                
68.1                           0.6010887429978  19.4460465077499 0.707042864473687 -67.4884239061612 0.707042864473699 -67.4884239061613 0.600878226368538 19.7470786934107 
! Gamma         0                0                0                0                
! Port Impedance         50               0                50               0                
68.2                           0.604725729320032 18.5972428602243 0.70467064258615 -68.5079054530115 0.704670642586159 -68.5079054530117 0.604530968867299 18.8920624898259 
! Gamma         0                0                0                0                
! Port Impedance         50               0                50               0                
68.3                           0.608100387603316 17.7525161897207 0.702449222710649 -69.5195944932658 0.702449222710656 -69.5195944932657 0.607920890509029 18.0414669273524 
! Gamma         0                0                0                0                
! Port Impedance         50               0                50               0                
68.4                           0.611218391614624 16.9116372074001 0.700379218639867 -70.5240450412193 0.700379218639874 -70.5240450412194 0.611053704661578 17.1950466004078 
! Gamma         0                0                0                0                
! Port Impedance         50               0                50               0                
68.5                           0.614085030633267 16.0743622096233 0.698461103384167 -71.5218047226418 0.698461103384174 -71.5218047226422 0.613934737694153 16.3525431622553 
! Gamma         0                0                0                0                
! Port Impedance         50               0                50               0                
68.6                           0.616705211346323 15.2404352782701 0.696695226680861 -72.5134148941956 0.696695226680866 -72.5134148941959 0.61656893113122 15.5136874015917 
! Gamma         0                0                0                0                
! Port Impedance         50               0                50               0                
68.7                           0.619083460481155 14.4095901904201 0.695081830745348 -73.4994108133026 0.695081830745351 -73.4994108133026 0.618960844517741 14.6782010431739 
! Gamma         0                0                0                0                
! Port Impedance         50               0                50               0                
68.8                           0.621223927992042 13.5815520779173 0.693621064356601 -74.4803218512486 0.693621064356602 -74.4803218512486 0.621114658816035 13.8457983113012 
! Gamma         0                0                0                0                
! Port Impedance         50               0                50               0                
68.9                           0.623130390643932 12.7560388720638 0.692312995365362 -75.4566717429704 0.692312995365361 -75.4566717429706 0.623034180180344 13.0161872899024 
! Gamma         0                0                0                0                
! Port Impedance         50               0                50               0                
69                             0.624806255859722 11.9327625642082 0.691157621708429 -76.4289788675877 0.691157621708424 -76.4289788675876 0.624722843978006 12.1890711087385 
! Gamma         0                0                0                0                
! Port Impedance         50               0                50               0                
69.1                           0.626254565718222 11.1114303092502 0.690154881006744 -77.397756554274 0.690154881006738 -77.397756554274 0.626183718946659 11.3641489816492 
! Gamma         0                0                0                0                
! Port Impedance         50               0                50               0                
69.2                           0.627478001008623 10.2917453959126 0.689304658818874 -78.3635134085526 0.689304658818869 -78.3635134085529 0.627419511395229 10.5411171197722 
! Gamma         0                0                0                0                
! Port Impedance         50               0                50               0                
69.3                           0.628478885264068 9.47340810495837 0.688606795614944 -79.3267536545165 0.688606795614938 -79.3267536545168 0.628432569373036 9.71966954012008 
! Gamma         0                0                0                0                
! Port Impedance         50               0                50               0                
69.4                           0.62925918871195 8.65611647432449 0.68806109252946 -80.2879774888438 0.688061092529452 -80.2879774888441 0.629224886746147 8.89949878781963 
! Gamma         0                0                0                0                
! Port Impedance         50               0                50               0                
69.5                           0.629820532092291 7.8395669882687  0.687667315944611 -81.2476814427918 0.6876673159446  -81.2476814427919 0.629798107133708 8.08029658852763 
! Gamma         0                0                0                0                
! Port Impedance         50               0                50               0                
69.6                           0.630164190307981 7.02345520611533 0.687425200948849 -82.2063587486077 0.687425200948837 -82.2063587486077 0.63015352766927 7.26175444614492 
! Gamma         0                0                0                0                
! Port Impedance         50               0                50               0                
69.7                           0.630291095882167 6.20747634494565 0.687334453708768 -83.1644997070185 0.687334453708753 -83.1644997070184 0.630292102563424 6.44356419978122 
! Gamma         0                0                0                0                
! Port Impedance         50               0                50               0                
69.8                           0.630201842208661 5.39132582960724 0.687394752785544 -84.1225920526071 0.687394752785529 -84.1225920526072 0.630214446454813 5.62541855300096 
! Gamma         0                0                0                0                
! Port Impedance         50               0                50               0                
69.9                           0.62989668659144 4.57469982265889 0.687605749420817 -85.0811213140276 0.6876057494208  -85.0811213140276 0.62992083754631 4.80701158775255 
! Gamma         0                0                0                0                
! Port Impedance         50               0                50               0                
70                             0.629375553078686 3.75729574638497 0.687967066810296 -86.0405711660593 0.687967066810279 -86.0405711660593 0.629411220532924 3.98803927486889 
! Gamma         0                0                0                0                
! Port Impedance         50               0                50               0                
70.1                           0.628638035106286 2.93881280862302 0.688478298377452 -87.0014237705682 0.688478298377434 -87.0014237705683 0.628685209337036 3.16819999279947 
! Gamma         0                0                0                0                
! Port Impedance         50               0                50               0                
70.2                           0.627683397974813 2.11895254407773 0.689139005053543 -87.964160103403 0.689139005053522 -87.9641601034029 0.627742089675871 2.34719506614632 
! Gamma         0                0                0                0                
! Port Impedance         50               0                50               0                
70.3                           0.626510581192992 1.29741938282119 0.689948711564786 -88.9292602642503 0.689948711564764 -88.9292602642503 0.626580821495062 1.52472933568067 
! Gamma         0                0                0                0                
! Port Impedance         50               0                50               0                
70.4                           0.625118200730239 0.473921257941922 0.690906901722053 -89.8972037663603 0.690906901722031 -89.8972037663602 0.625200041311571 0.700511771825417 
! Gamma         0                0                0                0                
! Port Impedance         50               0                50               0                
70.5                           0.623504551230073 -0.351829735302504 0.692013012703589 -90.8684698029581 0.692013012703566 -90.868469802958 0.623598064518752 -0.125743855931927 
! Gamma         0                0                0                0                
! Port Impedance         50               0                50               0                
70.6                           0.621667608246391 -1.1801166157662 0.693266428316779 -91.8435374870056 0.693266428316753 -91.8435374870054 0.621772887716195 -0.954318240512099 
! Gamma         0                0                0                0                
! Port Impedance         50               0                50               0                
70.7                           0.619605030574863 -2.01121671434012 0.694666471220879 -92.8228860607868 0.694666471220851 -92.8228860607862 0.619722191137677 -1.78548571559604 
! Gamma         0                0                0                0                
! Port Impedance         50               0                50               0                
70.8                           0.617314162762921 -2.84540077851962 0.696212394089222 -93.8069950715851 0.696212394089194 -93.806995071585 0.617443341261478 -2.61951333562995 
! Gamma         0                0                0                0                
! Port Impedance         50               0                50               0                
70.9                           0.614792037893373 -3.68293196749493 0.69790336968652 -94.7963445094737 0.697903369686489 -94.7963445094732 0.614933393699207 -3.45665984095248 
! Gamma         0                0                0                0                
! Port Impedance         50               0                50               0                
71                             0.612035380749671 -4.5240647198359 0.699738479834801 -95.7914149029626 0.699738479834769 -95.7914149029619 0.612189096472166 -4.29717448978158 
! Gamma         0                0                0                0                
! Port Impedance         50               0                50               0                
71.1                           0.609040611483914 -5.36904347416852 0.701716703240229 -96.792687367953 0.701716703240197 -96.7926873679524 0.609206893797642 -5.14129573693633 
! Gamma         0                0                0                0                
! Port Impedance         50               0                50               0                
71.2                           0.605803849923694 -6.21810122083698 0.703836902152838 -97.8006436051238 0.703836902152804 -97.8006436051233 0.605982930522571 -5.98924973666856 
! Gamma         0                0                0                0                
! Port Impedance         50               0                50               0                
71.3                           0.602320920669264 -7.07145785996484 0.706097807832023 -98.8157658405316 0.706097807831989 -98.8157658405308 0.602513057357393 -6.84124864438518 
! Gamma         0                0                0                0                
! Port Impedance         50               0                50               0                
71.4                           0.59858735914922 -7.92931833817499 0.70849800479286 -99.8385367038437 0.708498004792825 -99.838536703843 0.598792837080372 -7.69748868862743 
! Gamma         0                0                0                0                
! Port Impedance         50               0                50               0                
71.5                           0.594598418821047 -8.79187053260773 0.711035913811991 -100.869439038265 0.711035913811954 -100.869439038263 0.59481755190032 -8.55814798101346 
! Gamma         0                0                0                0                
! Port Impedance         50               0                50               0                
71.6                           0.590349079721898 -9.65928284639708 0.713709773677282 -101.908955635818 0.713709773677244 -101.908955635817 0.590582212185508 -9.42338402721992 
! Gamma         0                0                0                0                
! Port Impedance         50               0                50               0                
71.7                           0.585834058595177 -10.531701474799 0.71651762167282 -102.957568891301 0.716517621672783 -102.9575688913  0.586081566787088 -10.2933308967931 
! Gamma         0                0                0                0                
! Port Impedance         50               0                50               0                
71.8                           0.581047820840404 -11.409247294982 0.719457272800538 -104.015760367843 0.7194572728005  -104.015760367842 0.581310115207186 -11.1680960033151 
! Gamma         0                0                0                0                
! Port Impedance         50               0                50               0                
71.9                           0.575984594556107 -12.2920123252921 0.722526297751849 -105.08401026667 0.72252629775181 -105.084010266669 0.576262121885268 -12.0477564389373 
! Gamma         0                0                0                0                
! Port Impedance         50               0                50               0                
72                             0.570638386969274 -13.1800556913577 0.725721999657742 -106.162796793381 0.725721999657701 -106.16279679338 0.570931632900381 -12.9323547984445 
! Gamma         0                0                0                0                
! Port Impedance         50               0                50               0                
72.1                           0.565003003569888 -14.0733990257577 0.729041389663897 -107.252595412765 0.729041389663859 -107.252595412764 0.565312495412443 -13.8218944172809 
! Gamma         0                0                0                0                
! Port Impedance         50               0                50               0                
72.2                           0.559072070294021 -14.9720212160796 0.732481161398964 -108.353877984029 0.732481161398924 -108.353877984028 0.559398380192238 -14.7163339352378 
! Gamma         0                0                0                0                
! Port Impedance         50               0                50               0                
72.3                           0.552839059125476 -15.8758524008377 0.736037664429447 -109.467111768184 0.736037664429407 -109.467111768182 0.553182807616679 -15.6155810820061 
! Gamma         0                0                0                0                
! Port Impedance         50               0                50               0                
72.4                           0.546297317512672 -16.7847670947023 0.739706876824065 -110.592758299359 0.739706876824026 -110.592758299358 0.54665917753446 -16.5194855619835 
! Gamma         0                0                0                0                
! Port Impedance         50               0                50               0                
72.5                           0.539440102024417 -17.6985763023661 0.743484376984047 -111.731272111968 0.743484376984008 -111.731272111967 0.539820803435208 -17.4278308929144 
! Gamma         0                0                0                0                
! Port Impedance         50               0                50               0                
72.6                           0.532260616696025 -18.6170184529351 0.747365314933926 -112.883099315939 0.747365314933887 -112.883099315938 0.532660951385948 -18.3403250246661 
! Gamma         0                0                0                0                
! Port Impedance         50               0                50               0                
72.7                           0.524752056544634 -19.5397489532693 0.75134438331012 -114.048676012756 0.751344383310082 -114.048676012755 0.525172884227815 -19.2565895298396 
! Gamma         0                0                0                0                
! Port Impedance         50               0                50               0                
72.8                           0.516907656762756 -20.4663281164303 0.755415788331807 -115.228426545776 0.75541578833177 -115.228426545775 0.517349911559047 -20.1761471146982 
! Gamma         0                0                0                0                
! Port Impedance         50               0                50               0                
72.9                           0.508720748126849 -21.3962071695615 0.759573221090252 -116.422761579291 0.759573221090214 -116.42276157929 0.509185446063026 -21.0984071451985 
! Gamma         0                0                0                0                
! Port Impedance         50               0                50               0                
73                             0.500184819192966 -22.3287119790174 0.763809829548525 -117.632076002113 0.763809829548489 -117.632076002111 0.500673066778182 -22.0226488151169 
! Gamma         0                0                0                0                
! Port Impedance         50               0                50               0                
73.1                           0.491293585885944 -23.2630240475893 0.768118191702831 -118.856746653086 0.768118191702795 -118.856746653084 0.491806589950032 -22.9480014974717 
! Gamma         0                0                0                0                
! Port Impedance         50               0                50               0                
73.2                           0.482041069134889 -24.1981582317263 0.772490290418594 -120.097129867965 0.772490290418559 -120.097129867963 0.482580148154746 -23.8734217122626 
! Gamma         0                0                0                0                
! Port Impedance         50               0                50               0                
73.3                           0.472421681261598 -25.1329364906242 0.776917490518088 -121.353558849494 0.776917490518054 -121.353558849492 0.47298827845245 -24.7976660030217 
! Gamma         0                0                0                0                
! Port Impedance         50               0                50               0                
73.4                           0.46243032190419 -26.0659568021006 0.781390518759967 -122.626340865399 0.781390518759935 -122.626340865397 0.463026020412119 -25.7192588356761 
! Gamma         0                0                0                0                
! Port Impedance         50               0                50               0                
73.5                           0.452062484360586 -26.9955561508022 0.785899447412966 -123.915754282313 0.785899447412935 -123.915754282311 0.45268902496933 -26.6364543992348 
! Gamma         0                0                0                0                
! Port Impedance         50               0                50               0                
73.6                           0.441314373380715 -27.9197661934403 0.790433682183793 -125.222045447428 0.790433682183763 -125.222045447426 0.441973675243321 -27.5471908826567 
! Gamma         0                0                0                0                
! Port Impedance         50               0                50               0                
73.7                           0.430183035648006 -28.8362598081252 0.794981955310236 -126.545425433934 0.794981955310207 -126.545425433933 0.430877220674396 -28.4490354003555 
! Gamma         0                0                0                0                
! Port Impedance         50               0                50               0                
73.8                           0.418666504490072 -29.742286206767 0.79953232467152 -127.886066670988 0.799532324671494 -127.886066670986 0.419397926179358 -29.3391172056947 
! Gamma         0                0                0                0                
! Port Impedance         50               0                50               0                
73.9                           0.40676396080494 -30.6345915797801 0.804072179795544 -129.24409948406 0.80407217979552 -129.244099484059 0.407535238509111 -30.2140461186582 
! Gamma         0                0                0                0                
! Port Impedance         50               0                50               0                
74                             0.394475912826147 -31.5093212841738 0.808588255652739 -130.619608576985 0.808588255652717 -130.619608576983 0.395289972690527 -31.0698121343434 
! Gamma         0                0                0                0                
! Port Impedance         50               0                50               0                
74.1                           0.381804398292798 -32.3618982774303 0.813066655115102 -132.012629492712 0.813066655115083 -132.012629492711 0.38266452244774 -31.9016608744624 
! Gamma         0                0                0                0                
! Port Impedance         50               0                50               0                
74.2                           0.368753213954276 -33.1868706999324 0.817492880922013 -133.423145095649 0.817492880921995 -133.423145095647 0.369663099968293 -32.7039377577845 
! Gamma         0                0                0                0                
! Port Impedance         50               0                50               0                
74.3                           0.35532817934574 -33.9777190077774 0.821851877927858 -134.851082124285 0.821851877927842 -134.851082124284 0.3562920125089  -33.4698912994507 
! Gamma         0                0                0                0                
! Port Impedance         50               0                50               0                
74.4                           0.341537444705814 -34.726609552816 0.82612808630655 -136.296307868458 0.826128086306536 -136.296307868457 0.342559986450608 -34.1914225134131 
! Gamma         0                0                0                0                
! Port Impedance         50               0                50               0                
74.5                           0.327391857250204 -35.4240765457191 0.830305506251547 -137.758627030823 0.830305506251535 -137.758627030822 0.328478553974049 -34.8587625686282 
! Gamma         0                0                0                0                
! Port Impedance         50               0                50               0                
74.6                           0.312905406458954 -36.0586072528565 0.834367774535089 -139.237778836692 0.83436777453508 -139.237778836691 0.314062524267336 -35.4600540232857 
! Gamma         0                0                0                0                
! Port Impedance         50               0                50               0                
74.7                           0.298095778703005 -36.6160950705637 0.838298253076081 -140.733434460034 0.838298253076075 -140.733434460034 0.299330571199886 -35.9808012371408 
! Gamma         0                0                0                0                
! Port Impedance         50               0                50               0                
74.8                           0.282985066161322 -37.0791103059683 0.842080129413392 -142.245194835921 0.842080129413387 -142.24519483592 0.284305984454704 -36.403141640663 
! Gamma         0                0                0                0                
! Port Impedance         50               0                50               0                
74.9                           0.267600697389085 -37.4259168766071 0.845696528693128 -143.772588930641 0.845696528693126 -143.772588930641 0.269017653946405 -36.7048695796844 
! Gamma         0                0                0                0                
! Port Impedance         50               0                50               0                
75                             0.251976691596473 -37.6291315619823 0.849130636459806 -145.31507253999 0.849130636459806 -145.31507253999 0.253501392328671 -36.8581159548897 
! Gamma         0                0                0                0                
! Port Impedance         50               0                50               0                
75.1                           0.236155393120746 -37.6538765822009 0.852365831199745 -146.872027683436 0.852365831199747 -146.872027683436 0.237801754484573 -36.8275467808659 
! Gamma         0                0                0                0                
! Port Impedance         50               0                50               0                
75.2                           0.220189928752317 -37.4552110182707 0.855385825230517 -148.442762656966 0.855385825230521 -148.442762656967 0.221974597058733 -36.567889368121 
! Gamma         0                0                0                0                
! Port Impedance         50               0                50               0                
75.3                           0.204147767970139 -36.9745382310517 0.858174812175038 -150.026512800146 0.858174812175044 -150.026512800147 0.206090752249824 -36.0205269053108 
! Gamma         0                0                0                0                
! Port Impedance         50               0                50               0                
75.4                           0.188115984792645 -36.1345809678922 0.860717618917261 -151.622442023327 0.860717618917269 -151.622442023328 0.19024139239265 -35.1088350256474 
! Gamma         0                0                0                0                
! Port Impedance         50               0                50               0                
75.5                           0.17220916148401 -34.8324347048141 0.862999859624054 -153.229645129034 0.862999859624063 -153.229645129035 0.174545963750589 -33.7319227404181 
! Gamma         0                0                0                0                
! Port Impedance         50               0                50               0                
75.6                           0.156581378462731 -32.9303041080277 0.865008089151193 -154.847150947513 0.865008089151203 -154.847150947514 0.159163980493258 -31.7566538825172 
! Gamma         0                0                0                0                
! Port Impedance         50               0                50               0                
75.7                           0.141444367779819 -30.2442570313887 0.866729952946727 -156.473926290543 0.866729952946738 -156.473926290544 0.144312403094847 -29.0087232702979 
! Gamma         0                0                0                0                
! Port Impedance         50               0                50               0                
75.8                           0.12709429841741 -26.5339346164702 0.868154330437311 -158.108880710249 0.868154330437322 -158.108880710251 0.13029032272283 -25.2662591255339 
! Gamma         0                0                0                0                
! Port Impedance         50               0                50               0                
75.9                           0.113948299928462 -21.5034638311291 0.869271468845154 -159.750872031414 0.869271468845167 -159.750872031416 0.117510709893926 -20.2661377660155 
! Gamma         0                0                0                0                
! Port Impedance         50               0                50               0                
76                             0.102584238894599 -14.8400721038386 0.870073104444332 -161.398712607138 0.870073104444345 -161.398712607141 0.10653117482331 -13.7462892584757 
! Gamma         0                0                0                0                
! Port Impedance         50               0                50               0                
76.1                           0.093754603608815 -6.33882410352314 0.870552568430404 -163.051176229476 0.870552568430418 -163.051176229479 0.0980558521558233 -5.56070018454635 
! Gamma         0                0                0                0                
! Port Impedance         50               0                50               0                
76.2                           0.0883059223036129 3.85568288154147 0.870704874846448 -164.707005609422 0.870704874846462 -164.707005609425 0.0928517579657688 4.12099518587774 
! Gamma         0                0                0                0                
! Port Impedance         50               0                50               0                
76.3                           0.0869329829587019 15.0196950760775 0.870526788376292 -166.364920325192 0.870526788376303 -166.364920325196 0.0915323118055261 14.6460764540073 
! Gamma         0                0                0                0                
! Port Impedance         50               0                50               0                
76.4                           0.0898501219714228 25.9759397472548 0.870016870270942 -168.023625124688 0.870016870270954 -168.023625124692 0.0942867314385231 24.9982076120588 
! Gamma         0                0                0                0                
! Port Impedance         50               0                50               0                
76.5                           0.0966693422424873 35.6514845035958 0.86917550120087 -169.681818457946 0.86917550120088 -169.68181845795 0.100781178576449 34.2406486823733 
! Gamma         0                0                0                0                
! Port Impedance         50               0                50               0                
76.6                           0.106621013059609 43.527064486039  0.868004880404435 -171.338201108814 0.868004880404446 -171.338201108819 0.110334462013921 41.8824220697654 
! Gamma         0                0                0                0                
! Port Impedance         50               0                50               0                
76.7                           0.118879428487307 49.6066085305067 0.866509001107952 -172.991484792173 0.866509001107962 -172.991484792178 0.122190772151002 47.8801544696376 
! Gamma         0                0                0                0                
! Port Impedance         50               0                50               0                
76.8                           0.13275192265344 54.1524808287134 0.864693602800217 -174.64040058407 0.864693602800222 -174.640400584076 0.135693845301237 52.4357210716864 
! Gamma         0                0                0                0                
! Port Impedance         50               0                50               0                
76.9                           0.147719451038174 57.4803191965057 0.862566101528297 -176.283707056966 0.8625661015283  -176.283707056971 0.150336820234785 55.8198795571319 
! Gamma         0                0                0                0                
! Port Impedance         50               0                50               0                
77                             0.163409538520725 59.8691776462677 0.860135499918067 -177.920198000757 0.860135499918069 -177.920198000763 0.165747121187826 58.2847564164962 
! Gamma         0                0                0                0                
! Port Impedance         50               0                50               0                
77.1                           0.17955650859604 61.5398764743478 0.857412279090919 -179.548709621918 0.85741227909092 -179.548709621923 0.181654202524857 60.036723351682  
! Gamma         0                0                0                0                
! Port Impedance         50               0                50               0                
77.2                           0.19596843574249 62.659745985599  0.85440827503041 178.831872872522 0.854408275030407 178.831872872516 0.197860131651512 61.2359605653731 
! Gamma         0                0                0                0                
! Port Impedance         50               0                50               0                
77.3                           0.21250371689901 63.3538699714628 0.851136542237061 177.222609382956 0.851136542237059 177.22260938295  0.21421762898267 62.0043448724995 
! Gamma         0                0                0                0                
! Port Impedance         50               0                50               0                
77.4                           0.229055384386376 63.7158056410644 0.847611207689517 175.624499776113 0.847611207689511 175.624499776106 0.230614847452034 62.4342613856518 
! Gamma         0                0                0                0                
! Port Impedance         50               0                50               0                
77.5                           0.245540776299546 63.8160515821322 0.843847318204625 174.038479535319 0.843847318204616 174.038479535313 0.246965097528925 62.5960449875205 
! Gamma         0                0                0                0                
! Port Impedance         50               0                50               0                
77.6                           0.261894720435989 63.708296187321  0.839860684262072 172.465416224025 0.83986068426206 172.465416224018 0.263199939292468 62.5436914521712 
! Gamma         0                0                0                0                
! Port Impedance         50               0                50               0                
77.7                           0.278064984140035 63.4339111401561 0.83566772323926 170.906106766627 0.835667723239246 170.90610676662  0.279264504145636 62.3190748764676 
! Gamma         0                0                0                0                
! Port Impedance         50               0                50               0                
77.8                           0.294009185116177 63.0251607396208 0.831285304802051 169.361275534008 0.831285304802036 169.361275534001 0.295114282849793 61.9550183033191 
! Gamma         0                0                0                0                
! Port Impedance         50               0                50               0                
77.9                           0.30969265131767 62.5074996171509 0.826730600931185 167.831573206184 0.826730600931167 167.831573206177 0.310712880928202 61.4775244119846 
! Gamma         0                0                0                0                
! Port Impedance         50               0                50               0                
78                             0.325086904262821 61.9012296474622 0.822020942749505 166.317576371531 0.822020942749481 166.317576371524 0.32603041747857 60.9074025319069 
! Gamma         0                0                0                0                
! Port Impedance         50               0                50               0                
78.1                           0.340168557108465 61.2227063018329 0.81717368596807 164.819787811323 0.817173685968046 164.819787811316 0.341042356490003 60.261464076265  
! Gamma         0                0                0                0                
! Port Impedance         50               0                50               0                
78.2                           0.354918492391772 60.4852264708176 0.812206086406215 163.338637409902 0.812206086406187 163.338637409895 0.355728632391263 59.5534088802533 
! Gamma         0                0                0                0                
! Port Impedance         50               0                50               0                
78.3                           0.369321231029877 59.6996892367214 0.807135186676381 161.874483624814 0.807135186676354 161.874483624807 0.370072978366935 58.7944889199054 
! Gamma         0                0                0                0                
! Port Impedance         50               0                50               0                
78.4                           0.383364434090347 58.8750932402655 0.801977714772312 160.427615447403 0.801977714772279 160.427615447396 0.384062396392345 57.9940104541163 
! Gamma         0                0                0                0                
! Port Impedance         50               0                50               0                
78.5                           0.39703849826885 58.0189152351771 0.79674999496904 158.998254782694 0.796749994969007 158.998254782687 0.397686727876146 57.159717858393  
! Gamma         0                0                0                0                
! Port Impedance         50               0                50               0                
78.6                           0.410336218765251 57.1374013490196 0.791467871143972 157.586559177541 0.791467871143939 157.586559177534 0.410938297012527 56.2980900217215 
! Gamma         0                0                0                0                
! Port Impedance         50               0                50               0                
78.7                           0.423252501705297 56.2357935384794 0.786146642364924 156.192624827821 0.786146642364891 156.192624827814 0.423811607774051 55.414571506273  
! Gamma         0                0                0                0                
! Port Impedance         50               0                50               0                
78.8                           0.435784113922405 55.3185074416516 0.780801010367393 154.816489798522 0.780801010367354 154.816489798516 0.436303081431742 54.5137545701836 
! Gamma         0                0                0                0                
! Port Impedance         50               0                50               0                
78.9                           0.447929461731283 54.3892734153498 0.775445038360129 153.458137394787 0.775445038360086 153.45813739478  0.448410825524656 53.5995238330225 
! Gamma         0                0                0                0                
! Port Impedance         50               0                50               0                
79                             0.459688392905122 53.4512494164283 0.770092120455155 152.117499626864 0.770092120455113 152.117499626858 0.460134427955435 52.6751722785261 
! Gamma         0                0                0                0                
! Port Impedance         50               0                50               0                
79.1                           0.471062017826751 52.5071121472538 0.764754960913202 150.79446071742  0.764754960913161 150.794460717414 0.471474771763761 51.7434950683865 
! Gamma         0                0                0                0                
! Port Impedance         50               0                50               0                
79.2                           0.482052546964916 51.5591312689956 0.759445562325788 149.488860605398 0.759445562325746 149.488860605392 0.482433867416574 50.8068660285436 
! Gamma         0                0                0                0                
! Port Impedance         50               0                50               0                
79.3                           0.492663142633817 50.6092303083346 0.754175221816048 148.200498406479 0.754175221816009 148.200498406473 0.493014700322539 49.8673004893563 
! Gamma         0                0                0                0                
! Port Impedance         50               0                50               0                
79.4                           0.502897783527906 49.6590370176097 0.748954534328892 146.92913579598  0.748954534328853 146.929135795974 0.503221091875991 48.9265072899293 
! Gamma         0                0                0                0                
! Port Impedance         50               0                50               0                
79.5                           0.512761140881668 48.7099253066782 0.743793402091688 145.674500285605 0.743793402091648 145.6745002856   0.513057572728148 47.9859321091647 
! Gamma         0                0                0                0                
! Port Impedance         50               0                50               0                
79.6                           0.522258465338786 47.7630503853018 0.738701049355889 144.436288370738 0.738701049355843 144.436288370732 0.522529267254799 47.0467938003169 
! Gamma         0                0                0                0                
! Port Impedance         50               0                50               0                
79.7                           0.53139548376398 46.8193783939509 0.733686041573567 143.21416852984  0.733686041573521 143.214168529835 0.531641788359636 46.1101150393122 
! Gamma         0                0                0                0                
! Port Impedance         50               0                50               0                
79.8                           0.540178305328493 45.8797115269221 0.728756308216619 142.007784062005 0.728756308216579 142.007784062001 0.540401141872476 45.1767483178784 
! Gamma         0                0                0                0                
! Port Impedance         50               0                50               0                
79.9                           0.548613336259719 44.9447094424342 0.723919168507669 140.816755752667 0.72391916850763 140.816755752663 0.548813639872854 44.2473980991156 
! Gamma         0                0                0                0                
! Port Impedance         50               0                50               0                
80                             0.556707202683536 44.0149075932352 0.719181359397195 139.640684361022 0.719181359397157 139.640684361018 0.556885822321214 43.3226397882069 
! Gamma         0                0                0                0                
! Port Impedance         50               0                50               0                
80.1                           0.564466681011795 43.0907329865817 0.714549065188648 138.479152925772 0.714549065188616 138.479152925769 0.564624386412638 42.4029360430774 
! Gamma         0                0                0                0                
! Port Impedance         50               0                50               0                
80.2                           0.571898635346587 42.1725177849213 0.710027948280651 137.33172888839  0.710027948280619 137.331728888387 0.57203612309312 41.4886508498984 
! Gamma         0                0                0                0                
! Port Impedance         50               0                50               0                
80.3                           0.579009961384885 41.2605110823853 0.705623180560764 136.197966035318 0.705623180560728 136.197966035315 0.579127860198079 40.5800617096525 
! Gamma         0                0                0                0                
! Port Impedance         50               0                50               0                
80.4                           0.58580753632274 40.3548891316318 0.701339475048007 135.077406262295 0.701339475047981 135.077406262293 0.585906411691172 39.6773702198017 
! Gamma         0                0                0                0                
! Port Impedance         50               0                50               0                
80.5                           0.592298174270931 39.4557642476506 0.697181117440043 133.969581165447 0.697181117440016 133.969581165445 0.592378532498913 38.7807112855353 
! Gamma         0                0                0                0                
! Port Impedance         50               0                50               0                
80.6                           0.598488586709925 38.5631925766763 0.693151997275347 132.874013464895 0.693151997275322 132.874013464893 0.598550878454983 37.890161155416  
! Gamma         0                0                0                0                
! Port Impedance         50               0                50               0                
80.7                           0.604385347529546 37.677180887373  0.689255638470476 131.790218267475 0.689255638470455 131.790218267473 0.604429970888632 37.0057444441328 
! Gamma         0                0                0                0                
! Port Impedance         50               0                50               0                
80.8                           0.609994862216994 36.7976925164276 0.68549522903714 130.717704175733 0.685495229037117 130.717704175731 0.610022165410392 36.1274402792792 
! Gamma         0                0                0                0                
! Port Impedance         50               0                50               0                
80.9                           0.615323340777461 35.9246525801969 0.681873649823892 129.655974250771 0.68187364982387 129.655974250769 0.615333624472487 35.2551876877145 
! Gamma         0                0                0                0                
! Port Impedance         50               0                50               0                
81                             0.620376773992808 35.057952547328  0.67839350216213 128.604526836667 0.678393502162115 128.604526836666 0.620370293301643 34.3888903198474 
! Gamma         0                0                0                0                
! Port Impedance         50               0                50               0                
81.1                           0.625160912645541 34.1974542534459 0.675057134326795 127.56285625427  0.675057134326787 127.56285625427  0.625137878826565 33.5284205957409 
! Gamma         0                0                0                0                
! Port Impedance         50               0                50               0                
81.2                           0.62968124935798 33.342993427543  0.671866666748249 126.530453372089 0.671866666748245 126.530453372088 0.629641831244705 32.6736233451081 
! Gamma         0                0                0                0                
! Port Impedance         50               0                50               0                
81.3                           0.633943002718536 32.4943827901785 0.668824015933915 125.506806061777 0.668824015933911 125.506806061777 0.63388732789631 31.8243190033214 
! Gamma         0                0                0                0                
! Port Impedance         50               0                50               0                
81.4                           0.63795110338936 31.6514147755955 0.665930917076907 124.491399545526 0.665930917076904 124.491399545526 0.637879259136109 30.9803064172869 
! Gamma         0                0                0                0                
! Port Impedance         50               0                50               0                
81.5                           0.641710181910874 30.8138639231677 0.6631889453438  123.483716642277 0.663188945343802 123.483716642277 0.641622215915228 30.1413653080266 
! Gamma         0                0                0                0                
! Port Impedance         50               0                50               0                
81.6                           0.645224557939611 29.9814889779183 0.660599535845734 122.483237919379 0.66059953584574 122.48323791938  0.645120478806743 29.3072584309444 
! Gamma         0                0                0                0                
! Port Impedance         50               0                50               0                
81.7                           0.648498230675502 29.1540347350782 0.658164002306391 121.489441755876 0.658164002306407 121.489441755877 0.648378008228568 28.477733469754  
! Gamma         0                0                0                0                
! Port Impedance         50               0                50               0                
81.8                           0.651534870253645 28.3312336595936 0.655883554447239 120.501804323216 0.655883554447256 120.501804323217 0.651398435636399 27.6525246958197 
! Gamma         0                0                0                0                
! Port Impedance         50               0                50               0                
81.9                           0.654337809893186 27.5128073080593 0.653759314114825 119.51979948877  0.653759314114849 119.519799488772 0.654185055477075 26.8313544210896 
! Gamma         0                0                0                0                
! Port Impedance         50               0                50               0                
82                             0.656910038612432 26.6984675776712 0.651792330178102 118.542898647124 0.651792330178122 118.542898647125 0.656740817709729 26.0139342697398 
! Gamma         0                0                0                0                
! Port Impedance         50               0                50               0                
82.1                           0.65925419433486 25.887917804315  0.649983592224001 117.570570483681 0.649983592224029 117.570570483683 0.659068320717116 25.1999662910987 
! Gamma         0                0                0                0                
! Port Impedance         50               0                50               0                
82.2                           0.661372557224797 25.0808537298794 0.648334043079711 116.602280674778 0.648334043079744 116.60228067478  0.661169804444336 24.3891439342414 
! Gamma         0                0                0                0                
! Port Impedance         50               0                50               0                
82.3                           0.663267043104537 24.2769643572124 0.646844590187272 115.637491528073 0.646844590187312 115.637491528076 0.663047143614685 23.5811529028726 
! Gamma         0                0                0                0                
! Port Impedance         50               0                50               0                
82.4                           0.66493919681731 23.4759327096938 0.645516115853669 114.675661566685 0.645516115853709 114.675661566687 0.664701840885066 22.7756719076189 
! Gamma         0                0                0                0                
! Port Impedance         50               0                50               0                
82.5                           0.666390185410945 22.6774365114234 0.644349486394536 113.716245060189 0.644349486394589 113.716245060192 0.666135019814242 21.9723733316761 
! Gamma         0                0                0                0                
! Port Impedance         50               0                50               0                
82.6                           0.667620791028274 21.8811488031016 0.6433455601846  112.758691505346 0.643345560184653 112.758691505349 0.667347417527306 21.1709238249078 
! Gamma         0                0                0                0                
! Port Impedance         50               0                50               0                
82.7                           0.668631403399284 21.086738508231  0.642505194621142 111.802445059124 0.642505194621199 111.802445059127 0.668339376970234 20.3709848407177 
! Gamma         0                0                0                0                
! Port Impedance         50               0                50               0                
82.8                           0.669422011839637 20.2938709639154 0.641829251999601 110.846943926437 0.641829251999662 110.846943926441 0.669110838655747 19.5722131298431 
! Gamma         0                0                0                0                
! Port Impedance         50               0                50               0                
82.9                           0.669992196668879 19.5022084305126 0.641318604291802 109.891619704795 0.641318604291874 109.891619704799 0.669661331812031 18.7742612048633 
! Gamma         0                0                0                0                
! Port Impedance         50               0                50               0                
83                             0.670341119969683 18.7114105946759 0.640974136807936 108.935896687982 0.640974136808005 108.935896687986 0.669989964853027 17.9767777895026 
! Gamma         0                0                0                0                
! Port Impedance         50               0                50               0                
83.1                           0.670467515618965 17.9211350807388 0.640796750713024 107.979191130801 0.640796750713096 107.979191130804 0.670095415097723 17.1794082671016 
! Gamma         0                0                0                0                
! Port Impedance         50               0                50               0                
83.2                           0.670369678529607 17.1310379862888 0.640787364357347 107.020910476912 0.64078736435743 107.020910476916 0.669975917674177 16.3817951433954 
! Gamma         0                0                0                0                
! Port Impedance         50               0                50               0                
83.3                           0.670045453051293 16.3407744588812 0.640946913367415 106.060452551865 0.640946913367493 106.060452551868 0.669629253553221 15.5835785396591 
! Gamma         0                0                0                0                
! Port Impedance         50               0                50               0                
83.4                           0.669492220489248 15.5499993322657 0.641276349430955 105.097204723538 0.641276349431042 105.097204723542 0.669052736666291 14.7843967336451 
! Gamma         0                0                0                0                
! Port Impedance         50               0                50               0                
83.5                           0.668706885710508 14.7583678425463 0.641776637694039 104.130543032419 0.641776637694136 104.130543032423 0.66824320007252 13.9838867674944 
! Gamma         0                0                0                0                
! Port Impedance         50               0                50               0                
83.6                           0.667685862820691 13.9655364469214 0.642448752672706 103.159831294461 0.64244875267281 103.159831294465 0.667196981152902 13.1816851439225 
! Gamma         0                0                0                0                
! Port Impedance         50               0                50               0                
83.7                           0.666425059909167 13.1711637705764 0.643293672563715 102.184420179644 0.643293672563824 102.184420179649 0.665909905823438 12.3774286346351 
! Gamma         0                0                0                0                
! Port Impedance         50               0                50               0                
83.8                           0.664919862877668 12.3749117109429 0.644312371820277 101.203646269907 0.644312371820375 101.20364626991  0.664377271775327 11.5707552283809 
! Gamma         0                0                0                0                
! Port Impedance         50               0                50               0                
83.9                           0.663165118388892 11.5764467325946 0.645505811837989 100.216831100719 0.645505811838103 100.216831100724 0.662593830771484 10.761305249649  
! Gamma         0                0                0                0                
! Port Impedance         50               0                50               0                
84                             0.661155115995743 10.7754413913551 0.64687492957452 99.223280191427  0.646874929574638 99.2232801914311 0.660553770050655 9.94872268419802 
! Gamma         0                0                0                0                
! Port Impedance         50               0                50               0                
84.1                           0.658883569542047 9.97157613219729 0.648420623902402 98.2222820703734 0.648420623902527 98.2222820703777 0.658250692919769 9.1326567530495  
! Gamma         0                0                0                0                
! Port Impedance         50               0                50               0                
84.2                           0.656343597960426 9.16454141292639 0.650143739470043 97.2131073020392 0.650143739470169 97.2131073020429 0.655677598648747 8.31276378355369 
! Gamma         0                0                0                0                
! Port Impedance         50               0                50               0                
84.3                           0.653527705636216 8.35404021443049 0.652045047818424 96.1950075247196 0.652045047818548 96.1950075247232 0.652826861822142 7.48870943445751 
! Gamma         0                0                0                0                
! Port Impedance         50               0                50               0                
84.4                           0.650427762556204 7.53979100891226 0.65412522547387 95.1672145089213 0.654125225474003 95.1672145089249 0.649690211350978 6.66017134178886 
! Gamma         0                0                0                0                
! Port Impedance         50               0                50               0                
84.5                           0.647034984522618 6.7215312700304  0.656384828707462 94.1289392484786 0.656384828707611 94.1289392484829 0.646258709405836 5.82684226428804 
! Gamma         0                0                0                0                
! Port Impedance         50               0                50               0                
84.6                           0.643339913784597 5.89902162432183 0.658824264622295 93.0793710985857 0.65882426462243 93.079371098589  0.642522730601904 4.98843382148208 
! Gamma         0                0                0                0                
! Port Impedance         50               0                50               0                
84.7                           0.639332400526111 5.07205076159045 0.66144375819942 92.0176769774218 0.661443758199564 92.0176769774252 0.638471941848301 4.144680934964   
! Gamma         0                0                0                0                
! Port Impedance         50               0                50               0                
84.8                           0.635001585752166 4.24044124406656 0.664243314904073 90.9430006509272 0.664243314904221 90.9430006509305 0.634095283373289 3.29534710429719 
! Gamma         0                0                0                0                
! Port Impedance         50               0                50               0                
84.9                           0.630335886236792 3.40405638129947 0.667222678425301 89.8544621235465 0.667222678425444 89.8544621235491 0.62938095155183 2.44023067457871 
! Gamma         0                0                0                0                
! Port Impedance         50               0                50               0                
85                             0.625322982341524 2.56280837030986 0.670381283097277 88.7511571614731 0.670381283097423 88.7511571614756 0.624316384300824 1.57917228375076 
! Gamma         0                0                0                0                
! Port Impedance         50               0                50               0                
85.1                           0.619949809683467 1.71666794069226 0.67371820052967 87.632156979115  0.673718200529819 87.6321569791174 0.618888249968742 0.712063715744236 
! Gamma         0                0                0                0                
! Port Impedance         50               0                50               0                
85.2                           0.614202555834574 0.86567579337446 0.677232079960214 86.4965081241679 0.677232079960377 86.496508124171  0.613082440838335 -0.161141567595636 
! Gamma         0                0                0                0                
! Port Impedance         50               0                50               0                
85.3                           0.608066663471924 0.00995618236294635 0.680921081838006 85.3432326018894 0.68092108183817 85.343232601892  0.60688407258577 -1.04041588528065 
! Gamma         0                0                0                0                
! Port Impedance         50               0                50               0                
85.4                           0.601526841678935 -0.850266936599145 0.684782804153931 84.1713282848853 0.684782804154093 84.1713282848875 0.600277491304252 -1.92564238421832 
! Gamma         0                0                0                0                
! Port Impedance         50               0                50               0                
85.5                           0.594567087428305 -1.71465067296093 0.688814201059066 82.9797696609358 0.68881420105922 82.9797696609376 0.593246290009258 -2.81659718302119 
! Gamma         0                0                0                0                
! Port Impedance         50               0                50               0                
85.6                           0.587170719665597 -2.5827102502458 0.693011493358661 81.767508978115  0.693011493358832 81.7675089781171 0.585773336906114 -3.71292800826001 
! Gamma         0                0                0                0                
! Port Impedance         50               0                50               0                
85.7                           0.579320428870625 -3.45379155589947 0.697370070542941 80.5334778535332 0.697370070543092 80.5334778535342 0.577840818125861 -4.61412857729317 
! Gamma         0                0                0                0                
! Port Impedance         50               0                50               0                
85.8                           0.570998345513886 -4.32703822558157 0.701884384124003 79.2765894194177 0.701884384124154 79.2765894194183 0.569430298134586 -5.5195078007676 
! Gamma         0                0                0                0                
! Port Impedance         50               0                50               0                
85.9                           0.562186131464761 -5.20135205789235 0.706547832199506 77.9957410877835 0.706547832199659 77.9957410877841 0.560522801609217 -6.42815264634256 
! Gamma         0                0                0                0                
! Port Impedance         50               0                50               0                
86                             0.552865099169746 -6.07534525106892 0.711352635364274 76.6898180222497 0.711352635364422 76.6898180222502 0.551098921266237 -7.33888320637932 
! Gamma         0                0                0                0                
! Port Impedance         50               0                50               0                
86.1                           0.543016364331199 -6.94728255914647 0.716289704354055 75.3576974125115 0.716289704354207 75.3576974125118 0.541138956958309 -8.25019812221641 
! Gamma         0                0                0                0                
! Port Impedance         50               0                50               0                
86.2                           0.532621038921406 -7.81501095215414 0.721348500138381 73.9982536529571 0.721348500138519 73.9982536529568 0.530623092345857 -9.16020800724267 
! Gamma         0                0                0                0                
! Port Impedance         50               0                50               0                
86.3                           0.521660472722251 -8.67587369087327 0.726516887593191 72.610364531471  0.726516887593332 72.6103645314711 0.519531616664908 -10.0665538336322 
! Gamma         0                0                0                0                
! Port Impedance         50               0                50               0                
86.4                           0.510116553267946 -9.52660483620551 0.731780984389581 71.1929185368931 0.731780984389697 71.1929185368923 0.507845200613996 -10.9663063443003 
! Gamma         0                0                0                0                
! Port Impedance         50               0                50               0                
86.5                           0.497972076210851 -10.3631990261383 0.737125007336565 69.7448233929676 0.737125007336695 69.7448233929674 0.495545237286731 -11.8558413337124 
! Gamma         0                0                0                0                
! Port Impedance         50               0                50               0                
86.6                           0.485211200909562 -11.1807497596999 0.742531119123976 68.2650159220883 0.7425311191241  68.2650159220882 0.482614261545014 -12.7306839853054 
! Gamma         0                0                0                0                
! Port Impedance         50               0                50               0                
86.7                           0.471820009720872 -11.9732472747251 0.747979279219679 66.752473332345  0.747979279219795 66.7524733323447 0.469036464511979 -13.5853131818575 
! Gamma         0                0                0                0                
! Port Impedance         50               0                50               0                
86.8                           0.457787194479392 -12.7333241770028 0.753447103582972 65.2062260052403 0.753447103583067 65.2062260052395 0.454798324352115 -14.4129135608115 
! Gamma         0                0                0                0                
! Port Impedance         50               0                50               0                
86.9                           0.443104900579301 -13.451932976646 0.758909738840677 63.625371837376  0.758909738840765 63.6253718373753 0.439889380800989 -15.2050586972048 
! Gamma         0                0                0                0                
! Port Impedance         50               0                50               0                
87                             0.427769768897985 -14.1179341957323 0.764339757609564 62.0090921561534 0.764339757609656 62.0090921561531 0.424303189948671 -15.9513026223283 
! Gamma         0                0                0                0                
! Port Impedance         50               0                50               0                
87.1                           0.411784229955087 -14.7175661757726 0.769707082690261 60.3566691856385 0.769707082690326 60.3566691856379 0.408038509047616 -16.6386481432607 
! Gamma         0                0                0                0                
! Port Impedance         50               0                50               0                
87.2                           0.395158125419485 -15.2337574078988 0.774978948842191 58.6675049831721 0.774978948842245 58.6675049831716 0.391100780953523 -17.2508479919671 
! Gamma         0                0                0                0                
! Port Impedance         50               0                50               0                
87.3                           0.377910762751388 -15.6452282751542 0.780119911692823 56.9411416993126 0.780119911692856 56.9411416993121 0.373504017926623 -17.7674771264725 
! Gamma         0                0                0                0                
! Port Impedance         50               0                50               0                
87.4                           0.360073554545908 -15.9253107176202 0.785091913930753 55.1772829332234 0.785091913930766 55.1772829332228 0.35527323084731 -18.1626894202487 
! Gamma         0                0                0                0                
! Port Impedance         50               0                50               0                
87.5                           0.341693462658343 -16.0403913159018 0.789854419159885 53.3758158635677 0.789854419159897 53.3758158635682 0.336447621846688 -18.4035369894891 
! Gamma         0                0                0                0                
! Port Impedance         50               0                50               0                
87.6                           0.32283756936112 -15.9478576438855 0.794364623509262 51.536833733344  0.794364623509262 51.536833733345  0.317084870722775 -18.4476833852344 
! Gamma         0                0                0                0                
! Port Impedance         50               0                50               0                
87.7                           0.303599247781212 -15.5934076849511 0.798577754156326 49.6606581594532 0.798577754156299 49.6606581594546 0.297267020958453 -18.2402838447314 
! Gamma         0                0                0                0                
! Port Impedance         50               0                50               0                
87.8                           0.284106616188577 -14.9075916715506 0.802447462193733 47.7478606293475 0.802447462193713 47.7478606293495 0.277108742038338 -17.7097491607338 
! Gamma         0                0                0                0                
! Port Impedance         50               0                50               0                
87.9                           0.264534237122438 -13.8015568711376 0.805926314639137 45.7992824448315 0.805926314639099 45.7992824448344 0.256769149541257 -16.7621007586017 
! Gamma         0                0                0                0                
! Port Impedance         50               0                50               0                
88                             0.245119310731328 -12.1623059878155 0.808966386791484 43.8160522856353 0.808966386791416 43.816052285639  0.236468921881858 -15.2738013539801 
! Gamma         0                0                0                0                
! Port Impedance         50               0                50               0                
88.1                           0.226183692492206 -9.84868092091544 0.811519951589933 41.7996005028268 0.811519951589846 41.7996005028314 0.216515061501338 -13.0836765532982 
! Gamma         0                0                0                0                
! Port Impedance         50               0                50               0                
88.2                           0.208162277831292 -6.69135706044938 0.813540257239018 39.7516692250887 0.813540257238919 39.7516692250938 0.197335773001897 -9.98671144849835 
! Gamma         0                0                0                0                
! Port Impedance         50               0                50               0                
88.3                           0.191635012245952 -2.50420433819558 0.814982378356332 37.6743173798998 0.814982378356215 37.6743173799059 0.179525766537219 -5.73787936782699 
! Gamma         0                0                0                0                
! Port Impedance         50               0                50               0                
88.4                           0.177350926629104 2.87970451012049 0.81580411962841 35.5699198056293 0.815804119628254 35.5699198056364 0.163893152000798 -0.0848266710786763 
! Gamma         0                0                0                0                
! Port Impedance         50               0                50               0                
88.5                           0.166215343565221 9.53187852412499 0.815966944897368 33.4411597654396 0.815966944897213 33.4411597654484 0.151474828799327 7.13925605915404 
! Gamma         0                0                0                0                
! Port Impedance         50               0                50               0                
88.6                           0.159192981495215 17.3155535787116 0.815436899307438 31.2910143713767 0.815436899307289 31.2910143713869 0.143447656845758 15.8442161027733 
! Gamma         0                0                0                0                
! Port Impedance         50               0                50               0                
88.7                           0.157095290315277 25.7987979123591 0.814185488216946 29.1227326829033 0.814185488216777 29.122732682915  0.140856659063799 25.5098557116007 
! Gamma         0                0                0                0                
! Port Impedance         50               0                50               0                
88.8                           0.160314137464665 34.3086532944949 0.812190474602361 26.9398065481151 0.81219047460218 26.9398065481284 0.144218507299821 35.2267194088934 
! Gamma         0                0                0                0                
! Port Impedance         50               0                50               0                
88.9                           0.168675121726883 42.1571557717417 0.809436557109045 24.7459345909665 0.809436557108859 24.7459345909813 0.1532867136031  44.0561763403178 
! Gamma         0                0                0                0                
! Port Impedance         50               0                50               0                
89                             0.181530623609456 48.879538869239  0.805915894012156 22.5449800918077 0.805915894011959 22.5449800918238 0.167203580071723 51.4181688336417 
! Gamma         0                0                0                0                
! Port Impedance         50               0                50               0                
89.1                           0.198006973999065 54.3095588753688 0.801628444158793 20.3409238353086 0.801628444158592 20.3409238353265 0.184878158862418 57.1751094661497 
! Gamma         0                0                0                0                
! Port Impedance         50               0                50               0                
89.2                           0.217229191320733 58.5025763113006 0.79658210419416 18.1378132825247 0.79658210419397 18.1378132825445 0.205287025875878 61.4727097084453 
! Gamma         0                0                0                0                
! Port Impedance         50               0                50               0                
89.3                           0.238438946475635 61.6210310276591 0.790792631468314 15.9397096374817 0.790792631468115 15.9397096375028 0.227596285206596 64.5606846655195 
! Gamma         0                0                0                0                
! Port Impedance         50               0                50               0                
89.4                           0.261024072218425 63.8531635051609 0.784283353179508 13.7506345037101 0.784283353179302 13.7506345037327 0.251166738330089 66.6896557640714 
! Gamma         0                0                0                0                
! Port Impedance         50               0                50               0                
89.5                           0.28450485413717 65.3731416705578 0.777084673589709 11.5745178507739 0.777084673589524 11.5745178507983 0.275517121985386 68.0725174505786 
! Gamma         0                0                0                0                
! Port Impedance         50               0                50               0                
89.6                           0.308507963995888 66.3276536359281 0.769233401575266 9.41514893268599 0.769233401575067 9.41514893271153 0.300283595618916 68.8781507645874 
! Gamma         0                0                0                0                
! Port Impedance         50               0                50               0                
89.7                           0.332741627761998 66.8350496827731 0.760771929471527 7.27613162664505 0.760771929471353 7.27613162667163 0.325187398092177 69.2368966519626 
! Gamma         0                0                0                0                
! Port Impedance         50               0                50               0                
89.8                           0.356975940411196 66.9890759005899 0.751747300462895 5.1608454078613  0.751747300462716 5.16084540788982 0.350011724093228 69.2485701122824 
! Gamma         0                0                0                0                
! Port Impedance         50               0                50               0                
89.9                           0.381028352379784 66.8635722514815 0.742210205259371 3.07241286716925 0.742210205259228 3.07241286719898 0.374585852475265 68.9897621627989 
! Gamma         0                0                0                0                
! Port Impedance         50               0                50               0                
90                             0.404753247211486 66.5167647301084 0.732213949406531 1.01367433894605 0.732213949406368 1.01367433897648 0.398774338786577 68.5196416913799 
! Gamma         0                0                0                0                
! Port Impedance         50               0                50               0                
90.1                           0.428034466515305 65.9947770613897 0.721813430501911 -1.01283013549914 0.721813430501783 -1.01283013546743 0.422469572162535 67.8843219839254 
! Gamma         0                0                0                0                
! Port Impedance         50               0                50               0                
90.2                           0.450779868306185 65.3343697504947 0.711064160286062 -3.00487160518129 0.711064160285934 -3.00487160514866 0.445586520103064 67.120077162974  
! Gamma         0                0                0                0                
! Port Impedance         50               0                50               0                
90.3                           0.472917261173784 64.5650323441944 0.700021360641503 -4.96053614392665 0.700021360641373 -4.96053614389361 0.468058886282454 66.2556978070399 
! Gamma         0                0                0                0                
! Port Impedance         50               0                50               0                
90.4                           0.494391264745806 63.7105701777002 0.688739155639385 -6.87822252485347 0.688739155639288 -6.87822252481999 0.489836183479502 65.3142205055019 
! Gamma         0                0                0                0                
! Port Impedance         50               0                50               0                
90.5                           0.515160798062596 62.7903082501937 0.677269874571273 -8.75663440241077 0.677269874571186 -8.75663440237657 0.510881406413298 64.3142068807972 
! Gamma         0                0                0                0                
! Port Impedance         50               0                50               0                
90.6                           0.53519700177062 61.8200090709776 0.665663473960544 -10.5947678720026 0.665663473960456 -10.5947678719677 0.531169107322991 63.270698767216  
! Gamma         0                0                0                0                
! Port Impedance         50               0                50               0                
90.7                           0.554481469877383 60.8125777047485 0.65396708030421 -12.3918953214345 0.653967080304121 -12.3918953213998 0.550683752468266 62.1959396369422 
! Gamma         0                0                0                0                
! Port Impedance         50               0                50               0                
90.8                           0.573004712572013 59.7786082568279 0.642224650045125 -14.1475464820458 0.642224650045059 -14.1475464820106 0.569418285257318 61.0999260557219 
! Gamma         0                0                0                0                
! Port Impedance         50               0                50               0                
90.9                           0.590764800967427 58.7268116161814 0.630476739167913 -15.8614875404139 0.630476739167868 -15.8614875403793 0.587372851232945 59.9908343851287 
! Gamma         0                0                0                0                
! Port Impedance         50               0                50               0                
91                             0.607766162991541 57.6643536196821 0.618760371878158 -17.5336990945894 0.618760371878125 -17.5336990945546 0.604553658072414 58.8753549389053 
! Gamma         0                0                0                0                
! Port Impedance         50               0                50               0                
91.1                           0.624018510789494 56.5971250373227 0.607108995992514 -19.1643536424332 0.607108995992501 -19.1643536423987 0.620971954261587 57.7589566922904 
! Gamma         0                0                0                0                
! Port Impedance         50               0                50               0                
91.2                           0.639535886454236 55.529959153461  0.595552511804385 -20.7537931831473 0.595552511804383 -20.753793183113 0.63664311594546 56.6460992490653 
! Gamma         0                0                0                0                
! Port Impedance         50               0                50               0                
91.3                           0.654335816420331 54.4668086491504 0.584117361122   -22.302507404283 0.584117361121994 -22.302507404249 0.651585834426697 55.5404042607653 
! Gamma         0                0                0                0                
! Port Impedance         50               0                50               0                
91.4                           0.668438566594496 53.4108905402032 0.572826663720466 -23.8111128215073 0.572826663720465 -23.8111128214745 0.665821398073442 54.4447952917003 
! Gamma         0                0                0                0                
! Port Impedance         50               0                50               0                
91.5                           0.681866491022944 52.3648057785834 0.561700389428699 -25.280333141438 0.561700389428693 -25.2803331414054 0.679373062760902 53.3616128356723 
! Gamma         0                0                0                0                
! Port Impedance         50               0                50               0                
91.6                           0.694643467108952 51.3306385538441 0.550755555325723 -26.7109810316961 0.550755555325744 -26.7109810316647 0.692265504894439 52.2927095422834 
! Gamma         0                0                0                0                
! Port Impedance         50               0                50               0                
91.7                           0.706794410389323 50.3100391743468 0.540006438916516 -28.1039414083598 0.540006438916538 -28.1039414083293 0.704524350835628 51.2395295132124 
! Gamma         0                0                0                0                
! Port Impedance         50               0                50               0                
91.8                           0.718344861846546 49.3042935491449 0.52946479958867 -29.4601562895608 0.5294647995887  -29.4601562895311 0.71617577634009 50.2031746506118 
! Gamma         0                0                0                0                
! Port Impedance         50               0                50               0                
91.9                           0.729320640755356 48.3143816483907 0.519140102039992 -30.7806112146335 0.519140102040022 -30.7806112146046 0.727246169504522 49.1844603891167 
! Gamma         0                0                0                0                
! Port Impedance         50               0                50               0                
92                             0.7397475561879  47.3410268339333 0.509039736658895 -32.0663231900697 0.509039736658926 -32.0663231900423 0.737761850737379 48.1839626557286 
! Gamma         0                0                0                0                
! Port Impedance         50               0                50               0                
92.1                           0.749651170531984 46.3847375804843 0.499169233002151 -33.3183300952571 0.499169233002187 -33.3183300952309 0.747748843416682 47.2020575328262 
! Gamma         0                0                0                0                
! Port Impedance         50               0                50               0                
92.2                           0.75905660870404 45.4458428210245 0.489532463530683 -34.5376814612491 0.489532463530721 -34.5376814612237 0.757232689160011 46.2389548167705 
! Gamma         0                0                0                0                
! Port Impedance         50               0                50               0                
92.3                           0.767988407139091 44.5245219263278 0.480131835629472 -35.7254305231722 0.480131835629516 -35.7254305231484 0.766238301983374 45.2947264452526 
! Gamma         0                0                0                0                
! Port Impedance         50               0                50               0                
92.4                           0.776470397094514 43.6208301518426 0.470968470657551 -36.8826274399843 0.47096847065759 -36.8826274399621 0.774789856040271 44.3693305943847 
! Gamma         0                0                0                0                
! Port Impedance         50               0                50               0                
92.5                           0.784525617287089 42.734720244229  0.462042369358005 -38.0103135729511 0.462042369358032 -38.0103135729299 0.782910702084744 43.4626321098335 
! Gamma         0                0                0                0                
! Port Impedance         50               0                50               0                
92.6                           0.792176251376564 41.8660607862377 0.453352563420609 -39.1095167153022 0.453352563420652 -39.1095167152828 0.790623308271915 42.5744198265122 
! Gamma         0                0                0                0                
! Port Impedance         50               0                50               0                
92.7                           0.799443586296503 41.0146517661618 0.444897253345528 -40.1812471691637 0.444897253345561 -40.1812471691458 0.797949221377583 41.7044212423011 
! Gamma         0                0                0                0                
! Port Impedance         50               0                50               0                
92.8                           0.806347987902506 40.1802377821753 0.436673933022385 -41.2264945712518 0.436673933022414 -41.2264945712356 0.804909044973442 40.8523149382991 
! Gamma         0                0                0                0                
! Port Impedance         50               0                50               0                
92.9                           0.812908890850534 39.3625192290572 0.428679501628413 -42.2462253753643 0.428679501628453 -42.2462253753496 0.811522431524669 40.0177410778708 
! Gamma         0                0                0                0                
! Port Impedance         50               0                50               0                
93                             0.819144800027767 38.5611617624865 0.42091036357746 -43.2413809069059 0.420910363577495 -43.2413809068928 0.817808085777105 39.2003102666269 
! Gamma         0                0                0                0                
! Port Impedance         50               0                50               0                
93.1                           0.825073301232826 37.775804292224  0.413362517329435 -44.2128759121569 0.413362517329465 -44.2128759121457 0.82378377716789 38.3996110134934 
! Gamma         0                0                0                0                
! Port Impedance         50               0                50               0                
93.2                           0.830711079139075 37.0060657185813 0.406031633909466 -45.1615975324836 0.406031633909482 -45.1615975324736 0.829466359324108 37.6152159977124 
! Gamma         0                0                0                0                
! Port Impedance         50               0                50               0                
93.3                           0.836073940875351 36.2515505953404 0.398913125994769 -46.0884046409382 0.398913125994787 -46.08840464093  0.834871795009831 36.8466873167369 
! Gamma         0                0                0                0                
! Port Impedance         50               0                50               0                
93.4                           0.841176843823757 35.511853875778  0.392002208414591 -46.9941274856362 0.392002208414611 -46.9941274856301 0.840015185142955 36.0935808646444 
! Gamma         0                0                0                0                
! Port Impedance         50               0                50               0                
93.5                           0.846033926466011 34.7865648759071 0.385293950879222 -47.8795675907578 0.38529395087923 -47.8795675907532 0.844910800731901 35.3554499691303 
! Gamma         0                0                0                0                
! Port Impedance         50               0                50               0                
93.6                           0.85065854131156 34.0752705697983 0.378783323713825 -48.7454978720156 0.378783323713827 -48.7454978720128 0.849572116781144 34.6318483967397 
! Gamma         0                0                0                0                
! Port Impedance         50               0                50               0                
93.7                           0.855063289114048 33.3775583154189 0.372465237325545 -49.5926629288985 0.372465237325547 -49.5926629288974 0.854011847385736 33.9223328202837 
! Gamma         0                0                0                0                
! Port Impedance         50               0                50               0                
93.8                           0.859260053731554 32.6930180953553 0.366334576080595 -50.4217794809458 0.366334576080588 -50.4217794809463 0.8582419813818  33.2264648289263 
! Gamma         0                0                0                0                
! Port Impedance         50               0                50               0                
93.9                           0.863260037112266 32.0212443447462 0.360386227215016 -51.2335369197557 0.360386227215006 -51.233536919758 0.862273818044772 32.543812549911  
! Gamma         0                0                0                0                
! Port Impedance         50               0                50               0                
94                             0.867073793994265 31.3618374284178 0.354615105349629 -52.0285979524003 0.35461510534962 -52.0285979524044 0.866118002432749 31.8739519410074 
! Gamma         0                0                0                0                
! Port Impedance         50               0                50               0                
94.1                           0.870711265997795 30.7144048203616 0.349016173127525 -52.8075993154199 0.34901617312751 -52.8075993154261 0.869784560060912 31.2164678042877 
! Gamma         0                0                0                0                
! Port Impedance         50               0                50               0                
94.2                           0.874181814863431 30.0785620310853 0.343584458443047 -53.5711525416813 0.343584458443023 -53.5711525416891 0.873282930667091 30.5709545645616 
! Gamma         0                0                0                0                
! Port Impedance         50               0                50               0                
94.3                           0.877494254651828 29.4539333218406 0.338315068684164 -54.3198447650961 0.338315068684135 -54.3198447651058 0.876622000889925 29.9370168495559 
! Gamma         0                0                0                0                
! Port Impedance         50               0                50               0                
94.4                           0.880656882771956 28.8401522391314 0.333203202366177 -55.054239550564 0.333203202366142 -55.0542395505754 0.879810135731717 29.3142699035611 
! Gamma         0                0                0                0                
! Port Impedance         50               0                50               0                
94.5                           0.88367750974692 28.236861998081  0.328244158494354 -55.7748777385791 0.328244158494313 -55.7748777385922 0.882855208719477 28.7023398616605 
! Gamma         0                0                0                0                
! Port Impedance         50               0                50               0                
94.6                           0.88656348766042 27.6437157391145 0.323433343955792 -56.4822782957131 0.323433343955747 -56.4822782957281 0.885764630711322 28.1008639077062 
! Gamma         0                0                0                0                
! Port Impedance         50               0                50               0                
94.7                           0.889321737254572 27.0603766788475 0.31876627920686 -57.1769391637441 0.318766279206807 -57.1769391637607 0.888545377322378 27.5094903358088 
! Gamma         0                0                0                0                
! Port Impedance         50               0                50               0                
94.8                           0.891958773671614 26.4865181730361 0.314238602491962 -57.8593381015141 0.314238602491902 -57.8593381015323 0.891204014965905 26.9278785321965 
! Gamma         0                0                0                0                
! Port Impedance         50               0                50               0                
94.9                           0.894480730849365 25.9218237068128 0.309846072801431 -58.5299335147445 0.309846072801369 -58.5299335147647 0.893746725522302 26.355698891793  
! Gamma         0                0                0                0                
! Port Impedance         50               0                50               0                
95                             0.896893384593678 25.365986825189  0.30558457175164 -59.1891652700007 0.305584571751572 -59.1891652700227 0.896179329661716 25.7926326817236 
! Gamma         0                0                0                0                
! Port Impedance         50               0                50               0                
95.1                           0.899202174361341 24.8187110148757 0.301450104547967 -59.8374554898258 0.301450104547893 -59.8374554898494 0.898507308855895 25.2383718621143 
! Gamma         0                0                0                0                
! Port Impedance         50               0                50               0                
95.2                           0.90141222379442 24.2797095468129 0.297438800171384 -60.4752093267611 0.297438800171305 -60.4752093267864 0.900735826122353 24.6926188729709 
! Gamma         0                0                0                0                
! Port Impedance         50               0                50               0                
95.3                           0.903528360052521 23.7487052873837 0.293546910911811 -61.102815714561 0.293546910911726 -61.1028157145877 0.902869745549026 24.1550863945728 
! Gamma         0                0                0                0                
! Port Impedance         50               0                50               0                
95.4                           0.905555131993076 23.2254304850597 0.289770811355503 -61.7206480953978 0.289770811355415 -61.7206480954263 0.904913650651174 23.6254970876564 
! Gamma         0                0                0                0                
! Port Impedance         50               0                50               0                
95.5                           0.907496827252003 22.7096265381941 0.286106996920039 -62.3290651222798 0.286106996919946 -62.3290651223098 0.906871861614277 23.1035833186746 
! Gamma         0                0                0                0                
! Port Impedance         50               0                50               0                
95.6                           0.909357488278329 22.2010437487679 0.282552082017979 -62.928411336231 0.282552082017883 -62.9284113362624 0.90874845147787 22.5890868745605 
! Gamma         0                0                0                0                
! Port Impedance         50               0                50               0                
95.7                           0.911140927376467 21.6994410661414 0.279102797919583 -63.5190178180791 0.279102797919475 -63.5190178181119 0.910547261315099 22.0817586707111 
! Gamma         0                0                0                0                
! Port Impedance         50               0                50               0                
95.8                           0.912850740809515 21.2045858241973 0.275755990375367 -64.1012028149235 0.275755990375256 -64.1012028149577 0.912271914462489 21.581358455273  
! Gamma         0                0                0                0                
! Port Impedance         50               0                50               0                
95.9                           0.914490322015911 20.7162534747058 0.272508617050967 -64.6752723415452 0.272508617050851 -64.6752723415808 0.91392582985313 21.0876545122931 
! Gamma         0                0                0                0                
! Port Impedance         50               0                50               0                
96                             0.916062873990326 20.2342273192641 0.269357744819336 -65.2415207571707 0.269357744819218 -65.2415207572078 0.915512234505114 20.60042336584   
! Gamma         0                0                0                0                
! Port Impedance         50               0                50               0                
96.1                           0.917571420878099 19.7582982417458 0.266300546948964 -65.8002313181267 0.266300546948844 -65.8002313181652 0.917034175215215 20.1194494868202 
! Gamma         0                0                0                0                
! Port Impedance         50               0                50               0                
96.2                           0.919018818830527 19.2882644428567 0.263334300221128 -66.3516767070091 0.263334300221006 -66.3516767070488 0.9184945295059  19.644525003883  
! Gamma         0                0                0                0                
! Port Impedance         50               0                50               0                
96.3                           0.920407766166298 18.8239311780894 0.260456382004337 -66.8961195390683 0.260456382004207 -66.8961195391089 0.919896015871544 19.1754494195386 
! Gamma         0                0                0                0                
! Port Impedance         50               0                50               0                
96.4                           0.921740812882258 18.3651105001194 0.257664267309726 -67.4338128465591 0.257664267309595 -67.4338128466009 0.921241203367644 18.7120293323675 
! Gamma         0                0                0                0                
! Port Impedance         50               0                50               0                
96.5                           0.923020369554501 17.91162100647   0.254955525847615 -67.9650005418476 0.254955525847479 -67.9650005418906 0.922532520584564 18.2540781660073 
! Gamma         0                0                0                0                
! Port Impedance         50               0                50               0                
96.6                           0.924248715668614 17.4632875930935 0.252327819102034 -68.4899178600821 0.252327819101894 -68.4899178601258 0.923772264045074 17.8014159054386 
! Gamma         0                0                0                0                
! Port Impedance         50               0                50               0                
96.7                           0.925428007415769 17.0199412143594 0.249778897437346 -69.0087917822605 0.249778897437205 -69.0087917823053 0.924962606062863 17.353868840939  
! Gamma         0                0                0                0                
! Port Impedance         50               0                50               0                
96.8                           0.926560284989245 16.5814186498147 0.247306597248563 -69.5218414395193 0.24730659724842 -69.5218414395651 0.926105602096966 16.9112693199685 
! Gamma         0                0                0                0                
! Port Impedance         50               0                50               0                
96.9                           0.927647479413931 16.1475622779682 0.244908838164951 -70.0292784994783 0.244908838164803 -70.0292784995245 0.927203197635023 16.4734555071423 
! Gamma         0                0                0                0                
! Port Impedance         50               0                50               0                
97                             0.928691418939349 15.718219857268  0.242583620314622 -70.531307535455 0.242583620314472 -70.5313075355019 0.92825723463628 16.0402711523685 
! Gamma         0                0                0                0                
! Port Impedance         50               0                50               0                
97.1                           0.929693835024948 15.2932443143507 0.240329021656317 -71.0281263793638 0.240329021656166 -71.0281263794112 0.929269457563312 15.6115653671591 
! Gamma         0                0                0                0                
! Port Impedance         50               0                50               0                
97.2                           0.930656367944472 14.8724935395964 0.238143195383195 -71.5199264590855 0.238143195383038 -71.5199264591334 0.930241519029615 15.1871924090681 
! Gamma         0                0                0                0                
! Port Impedance         50               0                50               0                
97.3                           0.931580572034626 14.4558301899552 0.236024367402358 -72.0068931210847 0.236024367402202 -72.0068931211329 0.931174985088493 14.7670114741632 
! Gamma         0                0                0                0                
! Port Impedance         50               0                50               0                
97.4                           0.932467920611552 14.0431214989794 0.233970833892836 -72.4892059390247 0.233970833892677 -72.4892059390732 0.932071340187011 14.3508864974014 
! Gamma         0                0                0                0                
! Port Impedance         50               0                50               0                
97.5                           0.933319810577095 13.6342390939547 0.231980958943878 -72.9670390091097 0.231980958943721 -72.9670390091583 0.932931991807191 13.9386859607523 
! Gamma         0                0                0                0                
! Port Impedance         50               0                50               0                
97.6                           0.934137566735444 13.2290588200008 0.230053172274826 -73.4405612328639 0.230053172274668 -73.4405612329126 0.933758274815233 13.5302827088846 
! Gamma         0                0                0                0                
! Port Impedance         50               0                50               0                
97.7                           0.934922445839287 12.8274605709855 0.228185967037124 -73.9099365880275 0.228185967036965 -73.9099365880761 0.93455145553808 13.1255537722197 
! Gamma         0                0                0                0                
! Port Impedance         50               0                50               0                
97.8                           0.935675640383411 12.4293281270822 0.22637789769858 -74.3753243882311 0.226377897698425 -74.3753243882796 0.935312735585408 12.7243801971372 
! Gamma         0                0                0                0                
! Port Impedance         50               0                50               0                
97.9                           0.93639828216241 12.0345489987879 0.224627578009642 -74.8368795320831 0.224627578009486 -74.8368795321314 0.93604325543387 12.3266468831147 
! Gamma         0                0                0                0                
! Port Impedance         50               0                50               0                
98                             0.937091445608084 11.6430142772093 0.222933679050967 -75.2947527422834 0.22293367905081 -75.2947527423309 0.936744097789304 11.9322424265706 
! Gamma         0                0                0                0                
! Port Impedance         50               0                50               0                
98.1                           0.937756150921032 11.2546184904158 0.221294927361483 -75.749090795352 0.221294927361327 -75.7490907953991 0.937416290741531 11.5410589711819 
! Gamma         0                0                0                0                
! Port Impedance         50               0                50               0                
98.2                           0.938393367009974 10.8692594656582 0.219710103145741 -76.200036742541 0.219710103145588 -76.2000367425873 0.938060810725394 11.1529920644433 
! Gamma         0                0                0                0                
! Port Impedance         50               0                50               0                
98.3                           0.939004014251373 10.486838197248  0.21817803855934 -76.6477301224748 0.218178038559188 -76.6477301225202 0.938678585300746 10.7679405202353 
! Gamma         0                0                0                0                
! Port Impedance         50               0                50               0                
98.4                           0.939588967081159 10.1072587198918 0.216697616070903 -77.0923071660447 0.216697616070755 -77.0923071660891 0.93927049576322 10.3858062871729 
! Gamma         0                0                0                0                
! Port Impedance         50               0                50               0                
98.5                           0.94014905642943 9.73042798727614 0.215267766899209 -77.5339009940644 0.215267766899065 -77.5339009941075 0.939837379596822 10.0064943225083 
! Gamma         0                0                0                0                
! Port Impedance         50               0                50               0                
98.6                           0.940685072008387 9.3562557557036  0.213887469523785 -77.9726418081712 0.213887469523644 -77.9726418082128 0.940380032778638 9.62991247136343 
! Gamma         0                0                0                0                
! Port Impedance         50               0                50               0                
98.7                           0.941197764462969 8.98465447257952 0.212555748267394 -78.4086570754473 0.212555748267262 -78.4086570754876 0.94089921194521 9.25597135107707 
! Gamma         0                0                0                0                
! Port Impedance         50               0                50               0                
98.8                           0.941687847393044 8.61553916955704 0.211271671948769 -78.8420717072104 0.211271671948643 -78.8420717072487 0.941395636429528 8.88458424045308 
! Gamma         0                0                0                0                
! Port Impedance         50               0                50               0                
98.9                           0.942155999255433 8.2488273601501  0.210034352603908 -79.2730082324129 0.210034352603786 -79.2730082324492 0.941869990176933 8.51566697370518 
! Gamma         0                0                0                0                
! Port Impedance         50               0                50               0                
99                             0.942602865153423 7.88443894162912 0.208842944274355 -79.7015869660767 0.208842944274241 -79.701586966111 0.942322923547719 8.14913783889602 
! Gamma         0                0                0                0                
! Port Impedance         50               0                50               0                
99.1                           0.94302905852096 7.52229610102228 0.207696641860852 -80.1279261731698 0.207696641860745 -80.1279261732016 0.942755055013608 7.78491748068119 
! Gamma         0                0                0                0                
! Port Impedance         50               0                50               0                
99.2                           0.943435162708207 7.16232322504661 0.206594680040766 -80.5521422283266 0.206594680040668 -80.552142228356 0.94316697275488 7.42292880716755 
! Gamma         0                0                0                0                
! Port Impedance         50               0                50               0                
99.3                           0.94382173247467 6.80444681380331 0.205536332247862 -80.9743497718008 0.205536332247772 -80.9743497718273 0.943559236164404 7.06309690070974 
! Gamma         0                0                0                0                
! Port Impedance         50               0                50               0                
99.4                           0.944189295395742 6.44859539807288 0.204520909712906 -81.3946618620266 0.204520909712825 -81.39466186205  0.943932377264446 6.70534893246891 
! Gamma         0                0                0                0                
! Port Impedance         50               0                50               0                
99.5                           0.944538353188056 6.0946994600566  0.203547760563761 -81.8131901251605 0.203547760563691 -81.8131901251807 0.944286902041707 6.34961408056923 
! Gamma         0                0                0                0                
! Port Impedance         50               0                50               0                
99.6                           0.944869382958717 5.74269135741237 0.202616268983676 -82.2300449019677 0.202616268983619 -82.2300449019844 0.944623291705685 5.99582345169152 
! Gamma         0                0                0                0                
! Port Impedance         50               0                50               0                
99.7                           0.945182838383131 5.39250525044147 0.201725854426511 -82.6453353924046 0.201725854426464 -82.6453353924176 0.944942003875125 5.64391000595101 
! Gamma         0                0                0                0                
! Port Impedance         50               0                50               0                
99.8                           0.945479150815832 5.0440770322874  0.200875970887791 -83.0591697982564 0.20087597088776 -83.0591697982653 0.945243473696984 5.2938084849126  
! Gamma         0                0                0                0                
! Port Impedance         50               0                50               0                
99.9                           0.94575873033842 4.69734426201349 0.200066106230518 -83.4716554641704 0.200066106230502 -83.471655464175 0.945528114902061 4.945455342602   
! Gamma         0                0                0                0                
! Port Impedance         50               0                50               0                
100                            0.946021966748458 4.35224610043283 0.199295781564779 -83.8828990174348 0.199295781564779 -83.8828990174348 0.945796320801158 4.59878867937994 
! Gamma         0                0                0                0                
! Port Impedance         50               0                50               0                
