! Touchstone file exported from HFSS 2026.1.0
!        File:           C:/ffzhzh/LocalFiles/Ansys_Project_Files/temp_train_TSV_RDL_373_1783713734_45496.aedt
!        Generated:      04:16:08 AM Jul 11, 2026
!        Design:         TSV_RDL
!        Project:        temp_train_TSV_RDL_373_1783713734_45496
!
! Variables:
!        h_bsmrdl = 2.92um
!        h_ox = 20um
!        h_rdl = 5um
!        h_sub = 99.19um
!        h_tmrdl = 3.78um
!        h_tsv = 99.19um
!        h_via = 3um
!        l_bsmrdl = 321.63um
!        l_sub = 3310.12um
!        l_tmrdl = 458.82um
!        m_sub = 200um
!        pitch = 57.27um
!        r_tsv = 5.01um
!        s_tmrdl = 10um
!        w_bsmrdl = 20.53um
!        w_sub = 500um
!        w_tmrdl = 16.12um
!        x_tsv_center1 = 466.88um
!        x_tsv_center2 = 809.04um
!        x_tsv_center3 = 1283.98um
!        x_tsv_center4 = 1626.14um
!        x_tsv_center5 = 2101.08um
!        x_tsv_center6 = 2443.24um
!
# GHz S MA R 50.000000
! Terminal data exported
! Port[1] = TM_RDL1_1_T1
! Port[2] = TM_RDL5_1_T1
0.1                            0.02572870673659 38.2631056584687 0.980063162424981 -1.41600830891654 0.980063162424981 -1.41600830891654 0.0257286984470852 38.2630708813871 
! Gamma         0                0                0                0                
! Port Impedance         50               0                50               0                
0.2                            0.0383822124185689 55.4108415383611 0.979252660497761 -2.81919995936689 0.979252660497761 -2.8191999593669 0.0383822235497451 55.4108147521282 
! Gamma         0                0                0                0                
! Port Impedance         50               0                50               0                
0.3                            0.0527659373426676 62.7060991935316 0.978121117267234 -4.20589416643392 0.978121117267235 -4.20589416643397 0.0527660027687884 62.7060131957449 
! Gamma         0                0                0                0                
! Port Impedance         50               0                50               0                
0.4                            0.0675869476481058 66.1949135447341 0.976791781753924 -5.5791746527929 0.976791781753925 -5.57917465279298 0.0675870517668992 66.1947365189355 
! Gamma         0                0                0                0                
! Port Impedance         50               0                50               0                
0.5                            0.08251826496524 67.9461987242679 0.975305897364653 -6.94307897031492 0.975305897364653 -6.94307897031501 0.0825183680176366 67.945934218758  
! Gamma         0                0                0                0                
! Port Impedance         50               0                50               0                
0.6                            0.0974594849039042 68.7674436141579 0.973663193847337 -8.30018637379707 0.973663193847337 -8.30018637379718 0.0974595475229754 68.7671072033406 
! Gamma         0                0                0                0                
! Port Impedance         50               0                50               0                
0.7                            0.112365067010902 69.0293529929356 0.971852258453789 -9.65162354434594 0.971852258453789 -9.65162354434606 0.112365058487341 69.0289601852133 
! Gamma         0                0                0                0                
! Port Impedance         50               0                50               0                
0.8                            0.127203837564019 68.926766949098  0.969862897708431 -10.9976139257041 0.969862897708431 -10.9976139257042 0.127203735709965 68.9263297453918 
! Gamma         0                0                0                0                
! Port Impedance         50               0                50               0                
0.9                            0.14194967032581 68.5732023687823 0.967689277903918 -12.3379114134652 0.967689277903918 -12.3379114134653 0.141949459179437 68.5727292457904 
! Gamma         0                0                0                0                
! Port Impedance         50               0                50               0                
1                              0.156579396966778 68.0400184660499 0.9653298408077  -13.6720534764845 0.9653298408077  -13.6720534764846 0.156579064663625 68.0395152178419 
! Gamma         0                0                0                0                
! Port Impedance         50               0                50               0                
1.1                            0.1710722751288  67.3746773983893 0.962786440452426 -14.9994942232353 0.962786440452426 -14.9994942232354 0.171071812417817 67.3741479668088 
! Gamma         0                0                0                0                
! Port Impedance         50               0                50               0                
1.2                            0.18540974830877 66.6101346757955 0.960063477086717 -16.3196714098254 0.960063477086717 -16.3196714098255 0.18540914762779 66.6095817720847 
! Gamma         0                0                0                0                
! Port Impedance         50               0                50               0                
1.3                            0.199575251879945 65.7700611592451 0.957167206571489 -17.6320393803975 0.957167206571489 -17.6320393803976 0.199574506812255 65.7694866858639 
! Gamma         0                0                0                0                
! Port Impedance         50               0                50               0                
1.4                            0.21355403374408 64.8719318200169 0.954105225146583 -18.9360847906171 0.954105225146583 -18.9360847906171 0.213553138709682 64.8713371447889 
! Gamma         0                0                0                0                
! Port Impedance         50               0                50               0                
1.5                            0.227332992184834 63.9289443927685 0.950886090473899 -20.2313336466147 0.950886090473899 -20.2313336466148 0.227331942267533 63.9283305235774 
! Gamma         0                0                0                0                
! Port Impedance         50               0                50               0                
1.6                            0.240900533371068 62.9512592704991 0.947519040769023 -21.5173539415365 0.947519040769023 -21.5173539415365 0.240899324219812 62.9506269657879 
! Gamma         0                0                0                0                
! Port Impedance         50               0                50               0                
1.7                            0.254246447558011 61.94682736105   0.944013783044792 -22.7937560489114 0.944013783044792 -22.7937560489114 0.254245075325852 61.9461771997887 
! Gamma         0                0                0                0                
! Port Impedance         50               0                50               0                
1.8                            0.26736180123524 60.9219582799655 0.940380330206343 -24.0601919734245 0.940380330206344 -24.0601919734245 0.267360262535006 60.9212907063747 
! Gamma         0                0                0                0                
! Port Impedance         50               0                50               0                
1.9                            0.280238842083112 59.881719691675  0.936628873225892 -25.3163540274886 0.936628873225893 -25.3163540274886 0.280237133948511 59.8810350443894 
! Gamma         0                0                0                0                
! Port Impedance         50               0                50               0                
2                              0.292870913913149 58.8302238728513 0.932769679077551 -26.5619732309703 0.932769679077552 -26.5619732309703 0.292869033759806 58.8295224045849 
! Gamma         0                0                0                0                
! Port Impedance         50               0                50               0                
2.1                            0.305252379315773 57.7708371802144 0.928813008073484 -27.7968175912406 0.928813008073484 -27.7968175912406 0.305250324900079 57.7701190716793 
! Gamma         0                0                0                0                
! Port Impedance         50               0                50               0                
2.2                            0.317378548292339 56.7063357262354 0.92476904619512 -29.0206903470003 0.924769046195121 -29.0206903470002 0.31737631766791 56.7056010966059 
! Gamma         0                0                0                0                
! Port Impedance         50               0                50               0                
2.3                            0.329245611619485 55.6390228313986 0.920647849304969 -30.2334282199287 0.92064784930497 -30.2334282199287 0.329243203092028 55.6382717467002 
! Gamma         0                0                0                0                
! Port Impedance         50               0                50               0                
2.4                            0.340850578062333 54.5708188656058 0.916459296988365 -31.4348996968519 0.916459296988366 -31.4348996968518 0.340847990144111 54.5700513458318 
! Gamma         0                0                0                0                
! Port Impedance         50               0                50               0                
2.5                            0.35219121482736 53.5033308445398 0.912213054360606 -32.625003353462 0.912213054360606 -32.625003353462 0.352188446192559 53.5025468699509 
! Gamma         0                0                0                0                
! Port Impedance         50               0                50               0                
2.6                            0.363265990843143 52.4379069774241 0.907918540579407 -33.8036662242799 0.907918540579407 -33.8036662242799 0.363263040285328 52.437106494269  
! Gamma         0                0                0                0                
! Port Impedance         50               0                50               0                
2.7                            0.374074022595788 51.3756798871036 0.903584903086613 -34.9708422201924 0.903584903086613 -34.9708422201924 0.374070888988413 51.3748628128787 
! Gamma         0                0                0                0                
! Port Impedance         50               0                50               0                
2.8                            0.384615022340883 50.3176012034688 0.899220996805829 -36.126510593241 0.89922099680583 -36.126510593241 0.384611704601572 50.3167674317606 
! Gamma         0                0                0                0                
! Port Impedance         50               0                50               0                
2.9                            0.394889248577662 49.2644695157565 0.894835367669622 -37.2706744476608 0.894835367669622 -37.2706744476608 0.394885745636735 49.2636189206804 
! Gamma         0                0                0                0                
! Port Impedance         50               0                50               0                
3                              0.404897458712691 48.2169531604426 0.890436239957903 -38.4033592960409 0.890436239957904 -38.4033592960409 0.404893769486152 48.2160856006734 
! Gamma         0                0                0                0                
! Port Impedance         50               0                50               0                
3.1                            0.414640863866487 47.1756089549847 0.886031507009511 -39.5246116596485 0.886031507009511 -39.5246116596485 0.414636987233504 47.1747242773732 
! Gamma         0                0                0                0                
! Port Impedance         50               0                50               0                
3.2                            0.424121085791817 46.1408977206248 0.881628724929504 -40.6344977122696 0.881628724929505 -40.6344977122696 0.424117020576561 46.1399957633996 
! Gamma         0                0                0                0                
! Port Impedance         50               0                50               0                
3.3                            0.433340115880309 45.1131972407049 0.877235108961002 -41.733101967263 0.877235108961003 -41.733101967263 0.433335860837885 45.1122778362619 
! Gamma         0                0                0                0                
! Port Impedance         50               0                50               0                
3.4                            0.442300276236774 44.0928131544754 0.872857532226293 -42.8205260078572 0.872857532226293 -42.8205260078572 0.442295830042903 44.0918761317677 
! Gamma         0                0                0                0                
! Port Impedance         50               0                50               0                
3.5                            0.451004182800033 43.079988176293  0.868502526570448 -43.8968872609879 0.868502526570449 -43.8968872609879 0.45099954404407 43.0790333628382 
! Gamma         0                0                0                0                
! Port Impedance         50               0                50               0                
3.6                            0.459454710486061 42.0749099466077 0.864176285263863 -44.9623178151773 0.864176285263863 -44.9623178151774 0.459449877666923 42.0739371701362 
! Gamma         0                0                0                0                
! Port Impedance         50               0                50               0                
3.7                            0.467654960324946 41.077717757286  0.859884667339541 -46.0169632830766 0.859884667339541 -46.0169632830766 0.467649931849514 41.0767268470571 
! Gamma         0                0                0                0                
! Port Impedance         50               0                50               0                
3.8                            0.47560822855792 40.0885083445859 0.855633203357756 -47.0609817093395 0.855633203357756 -47.0609817093396 0.475603002741477 40.0874991324019 
! Gamma         0                0                0                0                
! Port Impedance         50               0                50               0                
3.9                            0.483317977655122 39.107340904876  0.851427102405716 -48.0945425244757 0.851427102405716 -48.0945425244758 0.483312552723436 39.1063132258251 
! Gamma         0                0                0                0                
! Port Impedance         50               0                50               0                
4                              0.490787809209125 38.134241458299  0.847271260153627 -49.1178255452483 0.847271260153627 -49.1178255452483 0.490782183301794 38.133195151258  
! Gamma         0                0                0                0                
! Port Impedance         50               0                50               0                
4.1                            0.498021438653728 37.1692066620546 0.84317026780149 -50.1310200220578 0.84317026780149 -50.1310200220579 0.498015609828457 37.1681415699826 
! Gamma         0                0                0                0                
! Port Impedance         50               0                50               0                
4.2                            0.505022671752425 36.2122071563596 0.839128421763331 -51.1343237335917 0.839128421763331 -51.1343237335918 0.505016637989947 36.2111231264118 
! Gamma         0                0                0                0                
! Port Impedance         50               0                50               0                
4.3                            0.511795382796348 35.2631905113118 0.835149733947476 -52.1279421288323 0.835149733947476 -52.1279421288324 0.511789142005726 35.2620873948011 
! Gamma         0                0                0                0                
! Port Impedance         50               0                50               0                
4.4                            0.51834349444743 34.3220838310221 0.831237942503078 -53.1120875163209 0.831237942503077 -53.112087516321 0.518337044471531 34.3209614832526 
! Gamma         0                0                0                0                
! Port Impedance         50               0                50               0                
4.5                            0.524670959159142 33.3887960618268 0.827396522914298 -54.0869783003707 0.827396522914297 -54.0869783003708 0.524664297780111 33.3876543418247 
! Gamma         0                0                0                0                
! Port Impedance         50               0                50               0                
4.6                            0.530781742104475 32.4632200436838 0.823628699334497 -55.0528382637195 0.823628699334496 -55.0528382637197 0.530774867049057 32.4620588138434 
! Gamma         0                0                0                0                
! Port Impedance         50               0                50               0                
4.7                            0.536679805538757 31.5452343375803 0.819937456063259 -56.0098958959254 0.819937456063258 -56.0098958959256 0.536672714483367 31.5440534632458 
! Gamma         0                0                0                0                
! Port Impedance         50               0                50               0                
4.8                            0.542369094523576 30.6347048566759 0.816325549079224 -56.9583837666257 0.816325549079224 -56.9583837666258 0.542361785099032 30.6335042056732 
! Gamma         0                0                0                0                
! Port Impedance         50               0                50               0                
4.9                            0.547853523937322 29.7314863247092 0.812795517551356 -57.8985379426197 0.812795517551355 -57.8985379426198 0.547845993733173 29.730265766842  
! Gamma         0                0                0                0                
! Port Impedance         50               0                50               0                
5                              0.553136966697763 28.8354235817512 0.80934969526043 -58.8305974475919 0.809349695260429 -58.830597447592 0.553129213266186 28.834182988273  
! Gamma         0                0                0                0                
! Port Impedance         50               0                50               0                
5.1                            0.558223243122475 27.9463527545366 0.805990221871185 -59.7548037631671 0.805990221871184 -59.7548037631672 0.558215263981716 27.9450919976085 
! Gamma         0                0                0                0                
! Port Impedance         50               0                50               0                
5.2                            0.563116111353926 27.0641023062367 0.80271905400367 -60.6714003698868 0.802719054003669 -60.6714003698869 0.563107903991269 27.0628212583788 
! Gamma         0                0                0                0                
! Port Impedance         50               0                50               0                
5.3                            0.567819258777326 26.1884939785629 0.799537976059814 -61.5806323266115 0.799537976059813 -61.5806323266116 0.56781082065161 26.1871925121053 
! Gamma         0                0                0                0                
! Port Impedance         50               0                50               0                
5.4                            0.572336294361192 25.3193436374326 0.796448610768229 -62.4827458867905 0.796448610768228 -62.4827458867906 0.572327622904878 25.3180216239724 
! Gamma         0                0                0                0                
! Port Impedance         50               0                50               0                
5.5                            0.57667074185261 24.4564620320372 0.793452429416571 -63.3779881499923 0.79345242941657 -63.3779881499924 0.576661834473424 24.4551193419046 
! Gamma         0                0                0                0                
! Port Impedance         50               0                50               0                
5.6                            0.580826033761579 23.5996554759718 0.790550761746607 -64.266606747063 0.790550761746605 -64.2666067470631 0.580816887843752 23.5982919777083 
! Gamma         0                0                0                0                
! Port Impedance         50               0                50               0                
5.7                            0.584805506071383 22.7487264580822 0.787744805492325 -65.1488495572629 0.787744805492324 -65.1488495572631 0.584796118976528 22.7473420179332 
! Gamma         0                0                0                0                
! Port Impedance         50               0                50               0                
5.8                            0.588612393614726 21.9034741898296 0.785035635546149 -66.0249644557347 0.785035635546148 -66.0249644557348 0.58860276268237 21.9020686712528 
! Gamma         0                0                0                0                
! Port Impedance         50               0                50               0                
5.9                            0.592249826058196 21.0636950952369 0.782424212742437 -66.8951990896652 0.782424212742436 -66.8951990896653 0.592239948606007 21.0622683584274 
! Gamma         0                0                0                0                
! Port Impedance         50               0                50               0                
6                              0.595720824440629 20.2291832488477 0.779911392251151 -67.7598006815306 0.77991139225115 -67.7598006815307 0.595710697764381 20.2277351502791 
! Gamma         0                0                0                0                
! Port Impedance         50               0                50               0                
6.1                            0.599028298213942 19.3997307665757 0.777497931577771 -68.6190158578405 0.77749793157777 -68.6190158578406 0.599017919587231 19.3982611585582 
! Gamma         0                0                0                0                
! Port Impedance         50               0                50               0                
6.2                            0.602175042738009 18.5751281538487 0.775184498168315 -69.4730905018422 0.775184498168313 -69.4730905018423 0.602164409411769 18.5736368841028 
! Gamma         0                0                0                0                
! Port Impedance         50               0                50               0                
6.3                            0.60516373718419 17.7551646150282 0.772971676620673 -70.3222696286852 0.772971676620672 -70.3222696286853 0.60515284638604 17.7536515262729 
! Gamma         0                0                0                0                
! Port Impedance         50               0                50               0                
6.4                            0.607996942805093 16.9396283277209 0.770859975505507 -71.1667972816031 0.770859975505506 -71.1667972816031 0.607985791738533 16.9380932572762 
! Gamma         0                0                0                0                
! Port Impedance         50               0                50               0                
6.5                            0.610677101531043 16.1283066852739 0.768849833801584 -72.0069164477165 0.768849833801583 -72.0069164477165 0.610665687374545 16.1267494646758 
! Gamma         0                0                0                0                
! Port Impedance         50               0                50               0                
6.6                            0.613206534856627 15.3209865104588 0.766941626951788 -72.8428689921244 0.766941626951787 -72.8428689921244 0.613194854762634 15.3194069650848 
! Gamma         0                0                0                0                
! Port Impedance         50               0                50               0                
6.7                            0.615587442983393 14.5174542430968 0.765135672547134 -73.6748956090032 0.765135672547133 -73.6748956090032 0.61557549407726 14.5158521918012 
! Gamma         0                0                0                0                
! Port Impedance         50               0                50               0                
6.8                            0.617821904187505 13.7174961041501 0.763432235646898 -74.5032357884948 0.763432235646898 -74.5032357884948 0.617809683566401 13.7158713589077 
! Gamma         0                0                0                0                
! Port Impedance         50               0                50               0                
6.9                            0.619911874383685 12.9208982386054 0.761831533743612 -75.3281277982236 0.761831533743611 -75.3281277982236 0.619899379115481 12.9192506041602 
! Gamma         0                0                0                0                
! Port Impedance         50               0                50               0                
7                              0.621859186859283 12.1274468392941 0.760333741382006 -76.1498086783391 0.760333741382006 -76.1498086783391 0.621846413981449 12.1257761128136 
! Gamma         0                0                0                0                
! Port Impedance         50               0                50               0                
7.1                            0.623665552154647 11.3369282536353 0.758938994441261 -76.9685142490392 0.75893899444126 -76.9685142490392 0.62365249867317 11.3352342243665 
! Gamma         0                0                0                0                
! Port Impedance         50               0                50               0                
7.2                            0.625332558068259 10.5491290751434 0.757647394089921 -77.7844791295838 0.757647394089921 -77.7844791295838 0.62531922095661 10.5474115240706 
! Gamma         0                0                0                0                
! Port Impedance         50               0                50               0                
7.3                            0.626861669767241 9.76383622141542 0.756459010422774 -78.5979367678625 0.756459010422773 -78.5979367678625 0.626848045965393 9.76209492091636 
! Gamma         0                0                0                0                
! Port Impedance         50               0                50               0                
7.4                            0.628254229985902 8.98083700019859 0.75537388578877 -79.40911947963  0.75537388578877 -79.40911947963  0.628240316399436 8.97907171369836 
! Gamma         0                0                0                0                
! Port Impedance         50               0                50               0                
7.5                            0.629511459296981 8.19991916503808 0.754392037818749 -80.2182584965728 0.754392037818749 -80.2182584965728 0.629497252796268 8.19812964665818 
! Gamma         0                0                0                0                
! Port Impedance         50               0                50               0                
7.6                            0.63063445644208 7.42087096191447 0.753513462161314 -81.0255840224141 0.753513462161314 -81.0255840224141 0.630619953861581 7.41905695611565 
! Gamma         0                0                0                0                
! Port Impedance         50               0                50               0                
7.7                            0.631624198709626 6.64348116820203 0.752738134934731 -81.831325296309 0.752738134934731 -81.8313252963089 0.631609396847297 6.64164240941882 
! Gamma         0                0                0                0                
! Port Impedance         50               0                50               0                
7.8                            0.632481542350359 5.8675391252088  0.752066014902125 -82.6357106628183 0.752066014902126 -82.6357106628182 0.632466437967194 5.86567533747389 
! Gamma         0                0                0                0                
! Port Impedance         50               0                50               0                
7.9                            0.633207223022048 5.09283476549951 0.751497045376682 -83.4389676477875 0.751497045376682 -83.4389676477875 0.633191812841758 5.09094566205615 
! Gamma         0                0                0                0                
! Port Impedance         50               0                50               0                
8                              0.63380185625667 4.31915863615028 0.751031155862818 -84.2413230394889 0.751031155862818 -84.2413230394889 0.633786136965518 4.31724391905058 
! Gamma         0                0                0                0                
! Port Impedance         50               0                50               0                
8.1                            0.634265937944848 3.54630191904007 0.750668263438636 -85.0430029744134 0.750668263438637 -85.0430029744134 0.634249906191649 3.54436127872733 
! Gamma         0                0                0                0                
! Port Impedance         50               0                50               0                
8.2                            0.634599844833824 2.77405644924717 0.75040827388419 -85.8442330271244 0.750408273884191 -85.8442330271243 0.634583497230115 2.77208956412014 
! Gamma         0                0                0                0                
! Port Impedance         50               0                50               0                
8.3                            0.634803835036657 2.00221473258988 0.750251082559282 -86.6452383036081 0.750251082559283 -86.6452383036081 0.634787168157058 2.00022126854681 
! Gamma         0                0                0                0                
! Port Impedance         50               0                50               0                
8.4                            0.634878048551778 1.2305699633274  0.750196575033759 -87.4462435375724 0.75019657503376 -87.4462435375724 0.634861058934551 1.22854957328759 
! Gamma         0                0                0                0                
! Port Impedance         50               0                50               0                
8.5                            0.634822507793417 0.458916043021043 0.750244627472383 -88.2474731891589 0.750244627472383 -88.2474731891589 0.634805191941233 0.456868366421728 
! Gamma         0                0                0                0                
! Port Impedance         50               0                50               0                
8.6                            0.634637118134763 -0.312952398454614 0.750395106775523 -89.0491515455468 0.750395106775524 -89.0491515455467 0.634619472515684 -0.315027736188664 
! Gamma         0                0                0                0                
! Port Impedance         50               0                50               0                
8.7                            0.634321668467106 -1.08523997876483 0.750647870476067 -89.8515028229301 0.750647870476068 -89.8515028229301 0.634303689515807 -1.08734336678143 
! Gamma         0                0                0                0                
! Port Impedance         50               0                50               0                
8.8                            0.633875831779558 -1.85815053484491 0.751002766392035 -90.6547512693559 0.751002766392036 -90.6547512693558 0.633857515898784 -1.86028237745706 
! Gamma         0                0                0                0                
! Port Impedance         50               0                50               0                
8.9                            0.633299165765315 -2.63188708951303 0.751459632033525 -91.4591212679053 0.751459632033526 -91.4591212679053 0.633280509327599 -2.63404780682696 
! Gamma         0                0                0                0                
! Port Impedance         50               0                50               0                
9                              0.632591113461804 -3.40665181195863 0.752018293761727 -92.2648374397006 0.752018293761728 -92.2648374397005 0.632572112811448 -3.40884184054023 
! Gamma         0                0                0                0                
! Port Impedance         50               0                50               0                
9.1                            0.631751003933434 -4.18264597108131 0.75267856569683 -93.0721247462044 0.752678565696831 -93.0721247462044 0.631731655388771 -4.18486576466443 
! Gamma         0                0                0                0                
! Port Impedance         50               0                50               0                
9.2                            0.630778053007114 -4.96006988063194 0.753440248370793 -93.8812085902708 0.753440248370794 -93.8812085902708 0.630758352863063 -4.96231991087194 
! Gamma         0                0                0                0                
! Port Impedance         50               0                50               0                
9.3                            0.629671364072111 -5.73912283507932 0.754303127120044 -94.6923149153859 0.754303127120045 -94.6923149153859 0.629651308603036 -5.74140359235583 
! Gamma         0                0                0                0                
! Port Impedance         50               0                50               0                
9.4                            0.62842992895732 -6.52000303509219 0.755266970212316 -95.5056703025138 0.755266970212317 -95.5056703025138 0.628409514420211 -6.52231502936515 
! Gamma         0                0                0                0                
! Port Impedance         50               0                50               0                
9.5                            0.627052628900502 -7.30290750148803 0.756331526700967 -96.3215020639414 0.756331526700968 -96.3215020639414 0.627031851538485 -7.30525126321149 
! Gamma         0                0                0                0                
! Port Impedance         50               0                50               0                
9.6                            0.625538235625609 -8.08803197645615 0.757496523999306 -97.1400383334782 0.757496523999306 -97.1400383334782 0.625517091671801 -8.09040805755469 
! Gamma         0                0                0                0                
! Port Impedance         50               0                50               0                
9.7                            0.623885412545858 -8.8755708108143 0.758761665166628 -97.9615081523381 0.758761665166628 -97.961508152338 0.62386389822759 -8.87797978572741 
! Gamma         0                0                0                0                
! Port Impedance         50               0                50               0                
9.8                            0.622092716111887 -9.66571683600409 0.76012662589692 -98.7861415499856 0.760126625896921 -98.7861415499856 0.622070827655288 -9.66815930280414 
! Gamma         0                0                0                0                
! Port Impedance         50               0                50               0                
9.9                            0.62015859732589 -10.4586612194717 0.761591051200435 -99.6141696191873 0.761591051200435 -99.6141696191873 0.620136330960872 -10.4611378010619 
! Gamma         0                0                0                0                
! Port Impedance         50               0                50               0                
10                             0.618081403444383 -11.2545933020166 0.763154551767687 -100.445824584456 0.763154551767687 -100.445824584456 0.618058755410017 -11.2571046474156 
! Gamma         0                0                0                0                
! Port Impedance         50               0                50               0                
10.1                           0.615953328790888 -12.0519444636348 0.764805170671732 -101.281592527289 0.764805170671732 -101.281592527289 0.615930017420141 -12.0545200001299 
! Gamma         0                0                0                0                
! Port Impedance         50               0                50               0                
10.2                           0.613671061146226 -12.853069893541 0.766553956256405 -102.121357516995 0.766553956256404 -102.121357516995 0.613647101001469 -12.8557077331388 
! Gamma         0                0                0                0                
! Port Impedance         50               0                50               0                
10.3                           0.611232685820137 -13.6581415945433 0.768400303986558 -102.965351089414 0.768400303986557 -102.965351089414 0.611208091291274 -13.6608399868791 
! Gamma         0                0                0                0                
! Port Impedance         50               0                50               0                
10.4                           0.608636182772522 -14.4673307706462 0.770343549674474 -103.813804904274 0.770343549674473 -103.813804904274 0.608610968065419 -14.4700881017585 
! Gamma         0                0                0                0                
! Port Impedance         50               0                50               0                
10.5                           0.605879428068173 -15.2808075615617 0.772382964375745 -104.666950675772 0.772382964375745 -104.666950675772 0.605853607193581 -15.2836223529928 
! Gamma         0                0                0                0                
! Port Impedance         50               0                50               0                
10.6                           0.602960195617437 -16.0987407509754 0.774517748971559 -105.525020087453 0.774517748971561 -105.525020087453 0.602933782380294 -16.1016116592037 
! Gamma         0                0                0                0                
! Port Impedance         50               0                50               0                
10.7                           0.599876159234126 -16.921297445785 0.77674702843566 -106.388244690185 0.77674702843566 -106.388244690185 0.59984916722313 -16.9242232619942 
! Gamma         0                0                0                0                
! Port Impedance         50               0                50               0                
10.8                           0.596624895044262 -17.7486427232985 0.779069845785487 -107.25685578203 0.779069845785488 -107.256855782031 0.596597337621596 -17.7516223734929 
! Gamma         0                0                0                0                
! Port Impedance         50               0                50               0                
10.9                           0.59320388428153 -18.5809392431287 0.781485155718618 -108.131084268729 0.781485155718618 -108.131084268729 0.593175774572635 -18.5839717886022 
! Gamma         0                0                0                0                
! Port Impedance         50               0                50               0                
11                             0.589610516507608 -19.4183468202312 0.783991817937404 -109.011160503499 0.783991817937405 -109.011160503499 0.589581867390903 -19.4214314584042 
! Gamma         0                0                0                0                
! Port Impedance         50               0                50               0                
11.1                           0.585842093297849 -20.2610219552139 0.786588590166946 -109.897314104817 0.786588590166947 -109.897314104817 0.585812917394286 -20.2641580208496 
! Gamma         0                0                0                0                
! Port Impedance         50               0                50               0                
11.2                           0.581895832434979 -21.109117317678 0.789274120874006 -110.7897737508  0.789274120874006 -110.7897737508  0.581866142097351 -21.1123042844951 
! Gamma         0                0                0                0                
! Port Impedance         50               0                50               0                
11.3                           0.577768872655662 -21.9627811779362 0.792046941697402 -111.688766948809 0.792046941697403 -111.688766948809 0.577738679957561 -21.9660186606373 
! Gamma         0                0                0                0                
! Port Impedance         50               0                50               0                
11.4                           0.573458278996799 -22.8221567819834 0.79490545960371 -112.594519778852 0.794905459603711 -112.594519778852 0.573427595721133 -22.825444538719 
! Gamma         0                0                0                0                
! Port Impedance         50               0                50               0                
11.5                           0.568961048790291 -23.6873816640482 0.797847948785832 -113.507256609388 0.797847948785833 -113.507256609388 0.568929886417282 -23.6907195993424 
! Gamma         0                0                0                0                
! Port Impedance         50               0                50               0                
11.6                           0.564274118356669 -24.5585868904381 0.80087254232621 -114.427199784122 0.80087254232621 -114.427199784122 0.56424248805125 -24.5619750586037 
! Gamma         0                0                0                0                
! Port Impedance         50               0                50               0                
11.7                           0.559394370449368 -25.4358962276624 0.803977223651077 -115.3545692784  0.803977223651078 -115.3545692784  0.559362283047908 -25.4393348367379 
! Gamma         0                0                0                0                
! Port Impedance         50               0                50               0                
11.8                           0.554318642502518 -26.3194252269885 0.807159817807373 -116.289582323861 0.807159817807373 -116.289582323861 0.554286108498791 -26.3229146432333 
! Gamma         0                0                0                0                
! Port Impedance         50               0                50               0                
11.9                           0.549043735735715 -27.2092802166045 0.810417982599551 -117.232453000053 0.810417982599552 -117.232453000054 0.549010765266074 -27.212820969595 
! Gamma         0                0                0                0                
! Port Impedance         50               0                50               0                
12                             0.543566425169517 -28.1055571914158 0.813749199629759 -118.183391791793 0.81374919962976 -118.183391791793 0.543533027997198 -28.1091499797902 
! Gamma         0                0                0                0                
! Port Impedance         50               0                50               0                
12.1                           0.537883470604948 -29.0083405891503 0.817150765291524 -119.142605111147 0.817150765291525 -119.142605111147 0.537849656103469 -29.0119862870562 
! Gamma         0                0                0                0                
! Port Impedance         50               0                50               0                
12.2                           0.531991628619359 -29.9177019398403 0.820619781774318 -120.110294783051 0.820619781774319 -120.110294783051 0.531957405754965 -29.9214016041484 
! Gamma         0                0                0                0                
! Port Impedance         50               0                50               0                
12.3                           0.525887665629199 -30.8336983738318 0.824153148144056 -121.086657493717 0.824153148144057 -121.086657493717 0.525853042942332 -30.8374532521871 
! Gamma         0                0                0                0                
! Port Impedance         50               0                50               0                
12.4                           0.519568372067723 -31.7563709711795 0.827747551572721 -122.071884201195 0.827747551572722 -122.071884201195 0.519533357653483 -31.760182510971 
! Gamma         0                0                0                0                
! Port Impedance         50               0                50               0                
12.5                           0.513030577722164 -32.6857429325123 0.831399458798813 -123.066159507639 0.831399458798814 -123.066159507639 0.512995179209748 -32.6896127908565 
! Gamma         0                0                0                0                
! Port Impedance         50               0                50               0                
12.6                           0.506271168270414 -33.6218175481088 0.835105107909236 -124.069660993128 0.835105107909237 -124.069660993128 0.506235392801541 -33.625747602954 
! Gamma         0                0                0                0                
! Port Impedance         50               0                50               0                
12.7                           0.499287103051714 -34.5645759378381 0.838860500542242 -125.082558511164 0.838860500542243 -125.082558511164 0.499250957258026 -34.5685683003154 
! Gamma         0                0                0                0                
! Port Impedance         50               0                50               0                
12.8                           0.492075434099117 -35.5139745296366 0.842661394620334 -126.105013446329 0.842661394620334 -126.105013446329 0.492038924078563 -35.5180315577989 
! Gamma         0                0                0                0                
! Port Impedance         50               0                50               0                
12.9                           0.48463332645355 -36.4699422380545 0.846503297731161 -127.137177934952 0.846503297731162 -127.137177934952 0.484596457745781 -36.4740665521725 
! Gamma         0                0                0                0                
! Port Impedance         50               0                50               0                
13                             0.476958079770168 -37.4323772968371 0.85038146128349 -128.179194050102 0.850381461283491 -128.179194050102 0.47692085733096 -37.4365717964429 
! Gamma         0                0                0                0                
! Port Impedance         50               0                50               0                
13.1                           0.469047151217311 -38.4011436901052 0.854290875573927 -129.231192952666 0.854290875573928 -129.231192952666 0.469009579392027 -38.4054115730096 
! Gamma         0                0                0                0                
! Port Impedance         50               0                50               0                
13.2                           0.460898179656804 -39.3760671149753 0.858226265908119 -130.293294010841 0.85822626590812 -130.293294010841 0.460860262152921 -39.3804118985165 
! Gamma         0                0                0                0                
! Port Impedance         50               0                50               0                
13.3                           0.452509011081785 -40.3569303937645 0.862182089927352 -131.365603890894 0.862182089927353 -131.365603890894 0.452470750940489 -40.3613559385955 
! Gamma         0                0                0                0                
! Port Impedance         50               0                50               0                
13.4                           0.443877725274797 -41.3434682354056 0.86615253629748 -132.448215622722 0.866152536297481 -132.448215622722 0.443839124841623 -41.3479787721748 
! Gamma         0                0                0                0                
! Port Impedance         50               0                50               0                
13.5                           0.435002663634869 -42.3353612222319 0.870131524921791 -133.541207644352 0.870131524921792 -133.541207644352 0.434963724529369 -42.3399613815719 
! Gamma         0                0                0                0                
! Port Impedance         50               0                50               0                
13.6                           0.425882458108305 -43.3322288683863 0.874112708842222 -134.644642830242 0.874112708842222 -134.644642830242 0.425843181192649 -43.3369237147037 
! Gamma         0                0                0                0                
! Port Impedance         50               0                50               0                
13.7                           0.416516061144248 -44.3336215577889 0.878089477994124 -135.75856750898 0.878089477994125 -135.75856750898 0.416476446490613 -44.3384166274246 
! Gamma         0                0                0                0                
! Port Impedance         50               0                50               0                
13.8                           0.406902776583907 -45.3390111201423 0.882054964978046 -136.883010476698 0.882054964978047 -136.883010476698 0.406862823440446 -45.343912464582 
! Gamma         0                0                0                0                
! Port Impedance         50               0                50               0                
13.9                           0.397042291382612 -46.3477797392537 0.886002053007438 -138.01798201331 0.88600205300744 -138.01798201331 0.397001998137683 -46.3527939741833 
! Gamma         0                0                0                0                
! Port Impedance         50               0                50               0                
14                             0.386934708058143 -47.3592068039733 0.889923386183497 -139.163472909417 0.889923386183499 -139.163472909417 0.386894072202313 -47.3643411651144 
! Gamma         0                0                0                0                
! Port Impedance         50               0                50               0                
14.1                           0.376580577759209 -48.3724532013704 0.893811382237073 -140.319453512491 0.893811382237074 -140.319453512491 0.376539595844408 -48.3777156082021 
! Gamma         0                0                0                0                
! Port Impedance         50               0                50               0                
14.2                           0.365980933857341 -49.3865424047209 0.89765824786254 -141.485872801659 0.897658247862541 -141.48587280166 0.36593960145223 -49.3919415333785 
! Gamma         0                0                0                0                
! Port Impedance         50               0                50               0                
14.3                           0.355137325987593 -50.4003375117867 0.901455996749367 -142.662657501076 0.901455996749368 -142.662657501077 0.355095637627992 -50.4058828786586 
! Gamma         0                0                0                0                
! Port Impedance         50               0                50               0                
14.4                           0.344051854503914 -51.4125131221918 0.905196470393756 -143.849711242486 0.905196470393757 -143.849711242486 0.344009803636609 -51.4182151799737 
! Gamma         0                0                0                0                
! Port Impedance         50               0                50               0                
14.5                           0.332727205381178 -52.421520578259 0.90887136174495 -145.046913788094 0.908871361744951 -145.046913788095 0.332684784298985 -52.4273908264971 
! Gamma         0                0                0                0                
! Port Impedance         50               0                50               0                
14.6                           0.321166685698661 -53.4255445901069 0.912472241708729 -146.254120325278 0.912472241708729 -146.254120325277 0.321123885463895 -53.431595702535 
! Gamma         0                0                0                0                
! Port Impedance         50               0                50               0                
14.7                           0.309374259995008 -54.4224485618744 0.915990588494268 -147.471160844933 0.915990588494269 -147.471160844933 0.309331070347563 -54.4286945330772 
! Gamma         0                0                0                0                
! Port Impedance         50               0                50               0                
14.8                           0.297354588015754 -55.4097049393169 0.919417819750231 -148.697839615415 0.919417819750232 -148.697839615416 0.29731099726087 -55.4161612533922 
! Gamma         0                0                0                0                
! Port Impedance         50               0                50               0                
14.9                           0.28511306471703 -56.3843054685125 0.92274532739208 -149.93393476395 0.922745327392081 -149.93393476395 0.285069059586149 -56.3909892922837 
! Gamma         0                0                0                0                
! Port Impedance         50               0                50               0                
15                             0.272655863897869 -57.3426441714359 0.925964514975722 -151.179197977174 0.925964514975722 -151.179197977174 0.272611429373934 -57.3495745741624 
! Gamma         0                0                0                0                
! Port Impedance         50               0                50               0                
15.1                           0.259989987595656 -58.2803627586858 0.929066837423463 -152.433354332021 0.929066837423463 -152.433354332021 0.259945106691334 -58.2875609586164 
! Gamma         0                0                0                0                
! Port Impedance         50               0                50               0                
15.2                           0.247123324534866 -59.1921435502547 0.932043842857683 -153.696102267481 0.932043842857684 -153.696102267481 0.247077978008324 -59.1996331849195 
! Gamma         0                0                0                0                
! Port Impedance         50               0                50               0                
15.3                           0.23406472270064 -60.0714278331804 0.934887216246824 -154.967113706881 0.934887216246824 -154.967113706881 0.234018888688286 -60.0792352432845 
! Gamma         0                0                0                0                
! Port Impedance         50               0                50               0                
15.4                           0.22082408390997 -60.9100263798745 0.93758882451821 -156.246034339162 0.937588824518211 -156.246034339162 0.220777737448478 -60.9181808828675 
! Gamma         0                0                0                0                
! Port Impedance         50               0                50               0                
15.5                           0.207412492761965 -61.6975708588811 0.940140762744404 -157.532484066286 0.940140762744404 -157.532484066287 0.207365605162215 -61.7061049614209 
! Gamma         0                0                0                0                
! Port Impedance         50               0                50               0                
15.6                           0.19384239979954 -62.420725229618 0.942535400965369 -158.826057622277 0.942535400965369 -158.826057622277 0.193794937822169 -62.4296746756786 
! Gamma         0                0                0                0                
! Port Impedance         50               0                50               0                
15.7                           0.180127891401848 -63.0620259757789 0.944765431169344 -160.126325367575 0.944765431169344 -160.126325367575 0.180079816167447 -63.071429423419 
! Gamma         0                0                0                0                
! Port Impedance         50               0                50               0                
15.8                           0.166285101267108 -63.5981321499743 0.946823913922171 -161.432834260404 0.946823913922171 -161.432834260404 0.16623636681447 -63.6080300601019 
! Gamma         0                0                0                0                
! Port Impedance         50               0                50               0                
15.9                           0.152332859200199 -63.9971069376929 0.948704324109426 -162.74510900464 0.948704324109426 -162.74510900464 0.152283410589064 -64.0075388223435 
! Gamma         0                0                0                0                
! Port Impedance         50               0                50               0                
16                             0.138293750900018 -64.2140521808364 0.950400595239148 -164.062653371392 0.950400595239148 -164.062653371392 0.138243521760821 -64.2250504194684 
! Gamma         0                0                0                0                
! Port Impedance         50               0                50               0                
16.1                           0.124195918713793 -64.1838255830659 0.951907161746384 -165.384951689119 0.951907161746384 -165.384951689119 0.124144828242081 -64.1954019014025 
! Gamma         0                0                0                0                
! Port Impedance         50               0                50               0                
16.2                           0.110076264442617 -63.8083454265826 0.953218998744925 -166.711470494671 0.953218998744925 -166.711470494671 0.110024214231489 -63.8204611194814 
! Gamma         0                0                0                0                
! Port Impedance         50               0                50               0                
16.3                           0.095986463189813 -62.9333121695814 0.954331658687124 -168.041660335273 0.954331658687124 -168.041660335274 0.0959333356813464 -62.9458105148635 
! Gamma         0                0                0                0                
! Port Impedance         50               0                50               0                
16.4                           0.0820050143729369 -61.3030003417877 0.955241304419659 -169.374957709091 0.955241304419659 -169.374957709091 0.0819506794769437 -61.3154455506699 
! Gamma         0                0                0                0                
! Port Impedance         50               0                50               0                
16.5                           0.0682633424218098 -58.4668415292153 0.955944738161536 -170.710787129853 0.955944738161536 -170.710787129853 0.0682076958627731 -58.4781098472883 
! Gamma         0                0                0                0                
! Port Impedance         50               0                50               0                
16.6                           0.0550076177576506 -53.5754904071752 0.956439425979952 -172.048563298948 0.956439425979952 -172.048563298949 0.0549507394769148 -53.5826595390708 
! Gamma         0                0                0                0                
! Port Impedance         50               0                50               0                
16.7                           0.0427585215157252 -44.9372446219301 0.956723517398989 -173.387693366654 0.956723517398989 -173.387693366654 0.042701300363588 -44.9325030890967 
! Gamma         0                0                0                0                
! Port Impedance         50               0                50               0                
16.8                           0.0327285254481822 -29.3482906033758 0.956795859844343 -174.7275792626  0.956795859844343 -174.7275792626  0.0326749624288942 -29.3123640110374 
! Gamma         0                0                0                0                
! Port Impedance         50               0                50               0                
16.9                           0.0275067352329311 -3.78415903532664 0.956656007702842 -176.067620074428 0.956656007702842 -176.067620074428 0.0274686241778688 -3.69479536058968 
! Gamma         0                0                0                0                
! Port Impedance         50               0                50               0                
17                             0.0297510838293247 24.7117955388971 0.95630422585657 -177.407214452736 0.95630422585657 -177.407214452736 0.0297398587887307 24.8201393613755 
! Gamma         0                0                0                0                
! Port Impedance         50               0                50               0                
17.1                           0.0381493747428105 44.377452561318  0.955741487636078 -178.745763019952 0.955741487636078 -178.745763019952 0.0381595566908132 44.4621823662128 
! Gamma         0                0                0                0                
! Port Impedance         50               0                50               0                
17.2                           0.0496420458123114 55.4322275226199 0.954969467223179 179.917329239281 0.954969467223179 179.917329239281 0.0496645719898983 55.4930193619946 
! Gamma         0                0                0                0                
! Port Impedance         50               0                50               0                
17.3                           0.0625081561104247 61.613451202531  0.953990526619151 178.582650628326 0.953990526619151 178.582650628326 0.0625378253502023 61.6583121350302 
! Gamma         0                0                0                0                
! Port Impedance         50               0                50               0                
17.4                           0.0760118371292864 65.1745001650382 0.952807697376528 177.25078045076  0.952807697376528 177.25078045076  0.0760459927521547 65.209051324573  
! Gamma         0                0                0                0                
! Port Impedance         50               0                50               0                
17.5                           0.089821715966394 67.2428547349228 0.951424657370095 175.922286804911 0.951424657370094 175.922286804911 0.0898589225333867 67.2704650041513 
! Gamma         0                0                0                0                
! Port Impedance         50               0                50               0                
17.6                           0.103769885550126 68.4007434373574 0.949845702953325 174.59772447964  0.949845702953325 174.597724479639 0.103809303703517 68.4234571119167 
! Gamma         0                0                0                0                
! Port Impedance         50               0                50               0                
17.7                           0.117760785081039 68.9695180954425 0.948075716908685 173.277632968595 0.948075716908685 173.277632968595 0.117801887363029 68.9886298214632 
! Gamma         0                0                0                0                
! Port Impedance         50               0                50               0                
17.8                           0.13173418573833 69.1383775177567 0.946120132652687 171.962534618226 0.946120132652687 171.962534618226 0.131776619746923 69.1547446316999 
! Gamma         0                0                0                0                
! Port Impedance         50               0                50               0                
17.9                           0.145648706025655 69.0251124497363 0.943984895198357 170.652932922664 0.943984895198357 170.652932922664 0.145692223769899 69.0393259657206 
! Gamma         0                0                0                0                
! Port Impedance         50               0                50               0                
18                             0.159473831779173 68.7065918105362 0.941676419408239 169.349310976331 0.941676419408239 169.349310976331 0.159518250799968 68.7190735465731 
! Gamma         0                0                0                0                
! Port Impedance         50               0                50               0                
18.1                           0.173185770409965 68.2350079565272 0.93920154608998 168.052130092691 0.93920154608998 168.052130092691 0.173230951168547 68.2460680576629 
! Gamma         0                0                0                0                
! Port Impedance         50               0                50               0                
18.2                           0.18676516582566 67.6470091041816 0.936567496494041 166.761828595208 0.936567496494041 166.761828595208 0.186810997923265 67.6568814941848 
! Gamma         0                0                0                0                
! Port Impedance         50               0                50               0                
18.3                           0.200195774361258 66.9690782513072 0.933781825769616 165.478820784097 0.933781825769616 165.478820784097 0.200242167802775 66.9779432838744 
! Gamma         0                0                0                0                
! Port Impedance         50               0                50               0                
18.4                           0.213463663702666 66.2208320743029 0.930852375921114 164.203496080183 0.930852375921114 164.203496080183 0.213510543170663 66.2288314775963 
! Gamma         0                0                0                0                
! Port Impedance         50               0                50               0                
18.5                           0.226556709137159 65.4171165608627 0.927787228784605 162.936218344936 0.927787228784605 162.936218344936 0.22660401013226 65.4243635816131 
! Gamma         0                0                0                0                
! Port Impedance         50               0                50               0                
18.6                           0.239464265077793 64.5693798263507 0.924594659512588 161.67732537365  0.924594659512589 161.67732537365  0.239511931254964 64.5759662909835 
! Gamma         0                0                0                0                
! Port Impedance         50               0                50               0                
18.7                           0.252176943033695 63.6865960796359 0.921283091017663 160.427128556912 0.921283091017663 160.427128556912 0.252224924327138 63.6925974204394 
! Gamma         0                0                0                0                
! Port Impedance         50               0                50               0                
18.8                           0.264686455798789 62.7759025716918 0.917861049782501 159.185912703742 0.917861049782501 159.185912703742 0.264734707079926 62.7813814764402 
! Gamma         0                0                0                0                
! Port Impedance         50               0                50               0                
18.9                           0.27698550362148 61.8430481691654 0.914337123396451 157.953936018396 0.914337123396451 157.953936018396 0.277033983725262 61.8480572788219 
! Gamma         0                0                0                0                
! Port Impedance         50               0                50               0                
19                             0.289067687376275 60.892715385685  0.910719920129405 156.731430221564 0.910719920129405 156.731430221564 0.289116358386604 60.8972993206556 
! Gamma         0                0                0                0                
! Port Impedance         50               0                50               0                
19.1                           0.300927439287736 59.9287556154885 0.90701803080271 155.518600805703 0.90701803080271 155.518600805703 0.300976266008199 59.9329525196621 
! Gamma         0                0                0                0                
! Port Impedance         50               0                50               0                
19.2                           0.312559965151486 58.954363700173  0.903239993166013 154.315627413519 0.903239993166013 154.315627413519 0.31260891471027 58.9582064330015 
! Gamma         0                0                0                0                
! Port Impedance         50               0                50               0                
19.3                           0.323961194130946 57.9722093634949 0.899394258939108 153.122664328075 0.899394258939109 153.122664328075 0.324010235684067 57.9757264313347 
! Gamma         0                0                0                0                
! Port Impedance         50               0                50               0                
19.4                           0.335127733578475 56.9845375011515 0.895489163630106 151.93984106268  0.895489163630106 151.93984106268  0.33517683808553 56.9877537928264 
! Gamma         0                0                0                0                
! Port Impedance         50               0                50               0                
19.5                           0.346056827223874 55.9932456594646 0.89153289919629 150.767263038632 0.89153289919629 150.767263038632 0.346105967277687 55.9961830330036 
! Gamma         0                0                0                0                
! Port Impedance         50               0                50               0                
19.6                           0.356746315665396 54.9999445872625 0.887533489572463 149.605012338927 0.887533489572464 149.605012338927 0.356795465361874 55.0026223421987 
! Gamma         0                0                0                0                
! Port Impedance         50               0                50               0                
19.7                           0.367194598494022 54.0060060748981 0.883498769053984 148.45314852631  0.883498769053985 148.45314852631  0.367243733331907 54.0084413356597 
! Gamma         0                0                0                0                
! Port Impedance         50               0                50               0                
19.8                           0.377400597646967 53.0126011376578 0.87943636348819 147.311709514372 0.879436363488191 147.311709514372 0.377449694449966 53.0148091672077 
! Gamma         0                0                0                0                
! Port Impedance         50               0                50               0                
19.9                           0.387363721764542 52.0207307884508 0.875353674198832 146.18071248092  0.875353674198832 146.18071248092  0.387412758619984 52.0227252467211 
! Gamma         0                0                0                0                
! Port Impedance         50               0                50               0                
20                             0.397083831442476 51.0312510665565 0.871257864543392 145.060154813395 0.871257864543392 145.060154813395 0.397132787652165 51.0330442248234 
! Gamma         0                0                0                0                
! Port Impedance         50               0                50               0                
20.1                           0.406561205348676 50.0448935728333 0.867155848982751 143.950015076779 0.867155848982751 143.950015076779 0.406610061388546 50.0464964926525 
! Gamma         0                0                0                0                
! Port Impedance         50               0                50               0                
20.2                           0.415796507221603 49.062282458453  0.863054284526407 142.850253995129 0.863054284526406 142.850253995129 0.415845244707725 49.063705141891  
! Gamma         0                0                0                0                
! Port Impedance         50               0                50               0                
20.3                           0.424790753795659 48.0839485909904 0.8589595644041  141.760815438621 0.858959564404101 141.760815438621 0.424839355454589 48.0852001074474 
! Gamma         0                0                0                0                
! Port Impedance         50               0                50               0                
20.4                           0.43354528371307 47.1103414557355 0.854877813805965 140.681627408743 0.854877813805964 140.681627408743 0.433593733355131 47.1114300495606 
! Gamma         0                0                0                0                
! Port Impedance         50               0                50               0                
20.5                           0.442061727486426 46.1418392256542 0.850814887527895 139.612603015031 0.850814887527896 139.612603015031 0.44211000998083 46.1427724079034 
! Gamma         0                0                0                0                
! Port Impedance         50               0                50               0                
20.6                           0.450341978574068 45.1787573392778 0.846776369356368 138.55364143751  0.846776369356368 138.55364143751  0.450390079825045 45.1795419663079 
! Gamma         0                0                0                0                
! Port Impedance         50               0                50               0                
20.7                           0.458388165624176 44.2213558540158 0.842767573026992 137.504628869731 0.842767573026992 137.504628869731 0.458436072547546 44.2219981950993 
! Gamma         0                0                0                0                
! Port Impedance         50               0                50               0                
20.8                           0.466202625934564 43.2698457872793 0.838793544593468 136.465439437991 0.838793544593467 136.465439437991 0.466250326434317 43.270351583008  
! Gamma         0                0                0                0                
! Port Impedance         50               0                50               0                
20.9                           0.473787880164641 42.3243946151505 0.834859066047747 135.435936093025 0.834859066047747 135.435936093025 0.473835363109274 42.3247691280786 
! Gamma         0                0                0                0                
! Port Impedance         50               0                50               0                
21                             0.481146608325018 41.3851310651336 0.830968660037964 134.415971471062 0.830968660037965 134.415971471063 0.481193863523429 41.3853791238569 
! Gamma         0                0                0                0                
! Port Impedance         50               0                50               0                
21.1                           0.488281627059107 40.4521493135121 0.827126595537629 133.405388721748 0.827126595537629 133.405388721748 0.488328645235965 40.4522753511612 
! Gamma         0                0                0                0                
! Port Impedance         50               0                50               0                
21.2                           0.495195868220354 39.5255126773405 0.823336894327449 132.404022300973 0.82333689432745 132.404022300973 0.495242640990893 39.5255207653103 
! Gamma         0                0                0                0                
! Port Impedance         50               0                50               0                
21.3                           0.501892358738766 38.6052568748393 0.819603338159699 131.411698727148 0.8196033381597  131.411698727148 0.501938878583055 38.6051507524356 
! Gamma         0                0                0                0                
! Port Impedance         50               0                50               0                
21.4                           0.508374201761336 37.6913929150155 0.815929476484025 130.42823729992  0.815929476484026 130.42823729992  0.50842046199801 37.6911760155864 
! Gamma         0                0                0                0                
! Port Impedance         50               0                50               0                
21.5                           0.514644559042786 36.7839096669466 0.812318634622802 129.453450780706 0.812318634622802 129.453450780706 0.514690553802368 36.7835851409799 
! Gamma         0                0                0                0                
! Port Impedance         50               0                50               0                
21.6                           0.520706634556069 35.8827761508117 0.808773922293429 128.487146034824 0.80877392229343 128.487146034824 0.520752358753917 35.8823468864008 
! Gamma         0                0                0                0                
! Port Impedance         50               0                50               0                
21.7                           0.526563659286034 34.9879435859751 0.805298242384159 127.529124635259 0.80529824238416 127.529124635259 0.526609108595041 34.9874122269951 
! Gamma         0                0                0                0                
! Port Impedance         50               0                50               0                
21.8                           0.532218877164641 34.0993472259309 0.801894299899028 126.579183428435 0.801894299899029 126.579183428436 0.532264047987759 34.0987161882159 
! Gamma         0                0                0                0                
! Port Impedance         50               0                50               0                
21.9                           0.537675532102212 33.2169080054061 0.798564610996146 125.637115062543 0.798564610996146 125.637115062543 0.537720421544922 33.2161794911721 
! Gamma         0                0                0                0                
! Port Impedance         50               0                50               0                
22                             0.542936856066006 32.3405340212206 0.79531151205194 124.702708479219 0.795311512051941 124.702708479219 0.542981461908815 32.3397100319472 
! Gamma         0                0                0                0                
! Port Impedance         50               0                50               0                
22.1                           0.548006058155188 31.4701218654437 0.792137168691757 123.775749369504 0.792137168691757 123.775749369504 0.548050378826247 31.4692042133933 
! Gamma         0                0                0                0                
! Port Impedance         50               0                50               0                
22.2                           0.552886314619806 30.6055578268525 0.789043584734688 122.856020595169 0.789043584734689 122.856020595169 0.552930349167746 30.6045481453822 
! Gamma         0                0                0                0                
! Port Impedance         50               0                50               0                
22.3                           0.557580759770488 29.7467189745748 0.786032611007341 121.94330257659  0.786032611007341 121.94330257659  0.557624507837526 29.7456187273739 
! Gamma         0                0                0                0                
! Port Impedance         50               0                50               0                
22.4                           0.562092477725342 28.8934741360276 0.783105953987637 121.037373648432 0.783105953987636 121.037373648432 0.562135939520773 28.8922846253956 
! Gamma         0                0                0                0                
! Port Impedance         50               0                50               0                
22.5                           0.566424494940918 28.045684779765  0.780265184245637 120.138010384487 0.780265184245638 120.138010384487 0.566467671215   28.0444071540291 
! Gamma         0                0                0                0                
! Port Impedance         50               0                50               0                
22.6                           0.570579773474631 27.2032058125791 0.777511744653654 119.244987893037 0.777511744653654 119.244987893037 0.570622665492976 27.2018410727364 
! Gamma         0                0                0                0                
! Port Impedance         50               0                50               0                
22.7                           0.574561204927299 26.3658862991233 0.77484695834281 118.358080084128 0.774846958342811 118.358080084128 0.57460381444577 26.3644353047834 
! Gamma         0                0                0                0                
! Port Impedance         50               0                50               0                
22.8                           0.578371605015711 25.5335701113971 0.772272036387536 117.477059910185 0.772272036387536 117.477059910185 0.578413934255889 25.5320335860875 
! Gamma         0                0                0                0                
! Port Impedance         50               0                50               0                
22.9                           0.582013708726843 24.706096514647  0.769788085203366 116.601699581359 0.769788085203366 116.601699581359 0.58205576035209 24.7044750505375 
! Gamma         0                0                0                0                
! Port Impedance         50               0                50               0                
23                             0.58549016600713 23.8833006955392 0.767396113646884 115.731770757013 0.767396113646884 115.731770757013 0.585531943099266 23.881594757636  
! Gamma         0                0                0                0                
! Port Impedance         50               0                50               0                
23.1                           0.58880353794219 23.0650142378794 0.76509703980965 114.867044714726 0.765097039809651 114.867044714726 0.588845043978798 23.063224167728  
! Gamma         0                0                0                0                
! Port Impedance         50               0                50               0                
23.2                           0.59195629338445 22.2510655506217 0.762891697500644 114.007292498148 0.762891697500643 114.007292498148 0.591997532216848 22.2491915695572 
! Gamma         0                0                0                0                
! Port Impedance         50               0                50               0                
23.3                           0.594950805988334 21.4412802524652 0.760780842413974 113.152285045038 0.760780842413974 113.152285045038 0.594991781820161 21.4393224644403 
! Gamma         0                0                0                0                
! Port Impedance         50               0                50               0                
23.4                           0.597789351614753 20.6354815169309 0.758765157980655 112.301793296752 0.758765157980655 112.301793296753 0.597830068981234 20.6334399109505 
! Gamma         0                0                0                0                
! Port Impedance         50               0                50               0                
23.5                           0.600474106068952 19.8334903814618 0.756845260904802 111.455588290421 0.756845260904802 111.455588290421 0.600514569816784 19.8313648336462 
! Gamma         0                0                0                0                
! Port Impedance         50               0                50               0                
23.6                           0.603007143137886 19.0351260237781 0.755021706386041 110.613441234998 0.755021706386041 110.613441234998 0.603047358405753 19.0329162990755 
! Gamma         0                0                0                0                
! Port Impedance         50               0                50               0                
23.7                           0.605390432895484 18.240206008441  0.753294993031029 109.77512357234  0.753294993031029 109.77512357234  0.605430405095188 18.2379117620074 
! Gamma         0                0                0                0                
! Port Impedance         50               0                50               0                
23.8                           0.60762584024631 17.4485465063355 0.751665567457861 108.940407024414 0.751665567457862 108.940407024414 0.607665575044493 17.4461672845949 
! Gamma         0                0                0                0                
! Port Impedance         50               0                50               0                
23.9                           0.609715123680174 16.6599624895606 0.750133828597847 108.109063627673 0.750133828597849 108.109063627674 0.609754626980607 16.6574977309589 
! Gamma         0                0                0                0                
! Port Impedance         50               0                50               0                
24                             0.61165993421228 15.8742679040234 0.748700131699633 107.280865755632 0.748700131699634 107.280865755633 0.611699212138697 15.8717169394846 
! Gamma         0                0                0                0                
! Port Impedance         50               0                50               0                
24.1                           0.61346181448546 15.0912758218567 0.74736479204097 106.45558613059  0.747364792040971 106.45558613059  0.613500873364899 15.0886378749506 
! Gamma         0                0                0                0                
! Port Impedance         50               0                50               0                
24.2                           0.615122198012902 14.310798575627  0.746128088353678 105.632997825431 0.746128088353679 105.632997825431 0.615161044359536 14.3080727624525 
! Gamma         0                0                0                0                
! Port Impedance         50               0                50               0                
24.3                           0.616642408541615 13.5326478761586 0.74499026596731 104.812874256384 0.74499026596731 104.812874256384 0.616681049041019 13.5298332049479 
! Gamma         0                0                0                0                
! Port Impedance         50               0                50               0                
24.4                           0.618023659518608 12.7566349156782 0.743951539677083 103.994989167584 0.743951539677084 103.994989167584 0.618062101012445 12.7537302861242 
! Gamma         0                0                0                0                
! Port Impedance         50               0                50               0                
24.5                           0.619267053643436 11.982570457876  0.74301209634142 103.179116608234 0.74301209634142 103.179116608234 0.619305303114509 11.9795746601826 
! Gamma         0                0                0                0                
! Port Impedance         50               0                50               0                
24.6                           0.62037358249236 11.2102649163791 0.742172097214202 102.365030903157 0.742172097214202 102.365030903157 0.62041164705    11.2071766300351 
! Gamma         0                0                0                0                
! Port Impedance         50               0                50               0                
24.7                           0.621344126200932 10.4395284230544 0.741431680016567 101.552506617469 0.741431680016568 101.55250661747  0.62138201306667 10.4363462153275 
! Gamma         0                0                0                0                
! Port Impedance         50               0                50               0                
24.8                           0.622179453193264 9.67017088747858 0.740790960752631 100.741318516085 0.740790960752632 100.741318516085 0.622217169686757 9.66689321162567 
! Gamma         0                0                0                0                
! Port Impedance         50               0                50               0                
24.9                           0.622880219947703 8.90200204885302 0.740250035273128 99.9312415187591 0.740250035273128 99.9312415187591 0.622917773472856 8.89862724204256 
! Gamma         0                0                0                0                
! Port Impedance         50               0                50               0                
25                             0.623446970789979 8.13483152158821 0.739808980590442 99.1220506513179 0.739808980590443 99.1220506513182 0.623484368821225 8.13135780252651 
! Gamma         0                0                0                0                
! Port Impedance         50               0                50               0                
25.1                           0.623880137706237 7.36846883573607 0.73946785594798 98.3135209937432 0.73946785594798 98.3135209937434 0.623917387774928 7.36489430198977 
! Gamma         0                0                0                0                
! Port Impedance         50               0                50               0                
25.2                           0.62418004016967 6.60272347341456 0.739226703646276 97.5054276257322 0.739226703646277 97.5054276257325 0.624217149850519 6.59904609841919 
! Gamma         0                0                0                0                
! Port Impedance         50               0                50               0                
25.3                           0.624346884975699 5.83740490234261 0.73908554962761 96.6975455703651 0.739085549627611 96.6975455703653 0.624383861873243 5.83362253208554 
! Gamma         0                0                0                0                
! Port Impedance         50               0                50               0                
25.4                           0.624380766081934 5.07232260758454 0.739044403820342 95.8896497364915 0.739044403820342 95.8896497364917 0.624417617816947 5.06843295694897 
! Gamma         0                0                0                0                
! Port Impedance         50               0                50               0                
25.5                           0.624281664450335 4.30728612259388 0.739103260243486 95.081514860446  0.739103260243486 95.0815148604462 0.624318398646145 4.30328677134863 
! Gamma         0                0                0                0                
! Port Impedance         50               0                50               0                
25.6                           0.624049447890206 3.54210506064495 0.739262096871472 94.2729154477035 0.739262096871472 94.2729154477035 0.624086072158869 3.53799344906306 
! Gamma         0                0                0                0                
! Port Impedance         50               0                50               0                
25.7                           0.623683870901907 2.77658914774704 0.739520875258341 93.4636257150816 0.739520875258341 93.4636257150817 0.623720392830173 2.77236257183356 
! Gamma         0                0                0                0                
! Port Impedance         50               0                50               0                
25.8                           0.623184574522338 2.01054825815158 0.739879539920018 92.6534195341108 0.739879539920018 92.6534195341108 0.62322100165735 2.00620386445991 
! Gamma         0                0                0                0                
! Port Impedance         50               0                50               0                
25.9                           0.622551086174503 1.24379245358657 0.740338017472663 91.8420703761942 0.740338017472663 91.8420703761944 0.622587426009183 1.23932723359852 
! Gamma         0                0                0                0                
! Port Impedance         50               0                50               0                
26                             0.621782819524726 0.47613202738488 0.740896215524461 91.0293512601971 0.740896215524461 91.0293512601972 0.62181907948277 0.471542811428912 
! Gamma         0                0                0                0                
! Port Impedance         50               0                50               0                
26.1                           0.620879074352344 -0.292622445284841 0.741554021317629 90.2150347031193 0.74155402131763 90.2150347031195 0.620915261772779 -0.297338994607  
! Gamma         0                0                0                0                
! Port Impedance         50               0                50               0                
26.2                           0.619839036438055 -1.06266004982482 0.742311300116826 89.398892674527  0.742311300116827 89.3988926745271 0.619875158559284 -1.06750744473531 
! Gamma         0                0                0                0                
! Port Impedance         50               0                50               0                
26.3                           0.618661777478429 -1.83416946593089 0.743167893339586 88.580696555436  0.743167893339586 88.5806965554361 0.618697841421696 -1.83915140113237 
! Gamma         0                0                0                0                
! Port Impedance         50               0                50               0                
26.4                           0.617346255035531 -2.60733889123759 0.744123616423925 87.7602171023759 0.744123616423925 87.7602171023761 0.617382267787745 -2.61245925216868 
! Gamma         0                0                0                0                
! Port Impedance         50               0                50               0                
26.5                           0.615891312532065 -3.38235595340806 0.745178256427759 86.9372244173863 0.745178256427759 86.9372244173866 0.61592728092791 -3.38761882514165 
! Gamma         0                0                0                0                
! Port Impedance         50               0                50               0                
26.6                           0.614295679304001 -4.15940760909615 0.746331569354389 86.1114879247315 0.746331569354389 86.1114879247317 0.614331610007246 -4.16481728592788 
! Gamma         0                0                0                0                
! Port Impedance         50               0                50               0                
26.7                           0.612557970724238 -4.9386800280975 0.747583277197949 85.2827763551575 0.747583277197949 85.2827763551576 0.612593870208187 -4.94424102387809 
! Gamma         0                0                0                0                
! Port Impedance         50               0                50               0                
26.8                           0.610676688412591 -5.72035846088392 0.748933064702477 84.4508577385584 0.748933064702478 84.4508577385587 0.610712562939583 -5.72607552015366 
! Gamma         0                0                0                0                
! Port Impedance         50               0                50               0                
26.9                           0.608650220549106 -6.50462708757446 0.750380575828055 83.6154994059556 0.750380575828055 83.6154994059558 0.608686076148987 -6.51050519756528 
! Gamma         0                0                0                0                
! Port Impedance         50               0                50               0                
27                             0.606476842309654 -7.29166884624176 0.75192540991739 82.7764680017386 0.751925409917391 82.7764680017389 0.606512684757127 -7.29771324981772 
! Gamma         0                0                0                0                
! Port Impedance         50               0                50               0                
27.1                           0.604154716444624 -8.08166523827188 0.75356711755633 81.9335295071781 0.753567117556331 81.9335295071783 0.604190551235398 -8.08788144788864 
! Gamma         0                0                0                0                
! Port Impedance         50               0                50               0                
27.2                           0.60168189402369 -8.87479610830298 0.755305196121845 81.0864492762479 0.755305196121845 81.086449276248  0.601717726349328 -8.88118992107294 
! Gamma         0                0                0                0                
! Port Impedance         50               0                50               0                
27.3                           0.599056315371701 -9.67123939604122 0.757139085011507 80.2349920848705 0.757139085011506 80.2349920848706 0.599092150093063 -9.67781691000406 
! Gamma         0                0                0                0                
! Port Impedance         50               0                50               0                
27.4                           0.596275811223029 -10.4711708570067 0.759068160548879 79.3789221947364 0.759068160548879 79.3789221947365 0.596311652842216 -10.4779384887131 
! Gamma         0                0                0                0                
! Port Impedance         50               0                50               0                
27.5                           0.593338104124105 -11.2747637489817 0.761091730560002 78.5180034329085 0.761091730560002 78.5180034329088 0.593373956754792 -11.2817282525105 
! Gamma         0                0                0                0                
! Port Impedance         50               0                50               0                
27.6                           0.590240810116201 -12.0821884806177 0.76320902861708 77.6519992884836 0.76320902861708 77.6519992884837 0.590276677452246 -12.0893569681625 
! Gamma         0                0                0                0                
! Port Impedance         50               0                50               0                
27.7                           0.586981440733193 -12.8936122183048 0.765419207946612 76.780673027622  0.765419207946613 76.7806730276223 0.587017326015397 -12.900992182481 
! Gamma         0                0                0                0                
! Port Impedance         50               0                50               0                
27.8                           0.583557405351512 -13.709198447008 0.767721335000722 75.9037878283321 0.767721335000722 75.9037878283321 0.5835933113324  -13.716797785048 
! Gamma         0                0                0                0                
! Port Impedance         50               0                50               0                
27.9                           0.579966013932228 -14.5291064803228 0.770114382692103 75.0211069364228 0.770114382692103 75.0211069364228 0.580001942838735 -14.5369335203484 
! Gamma         0                0                0                0                
! Port Impedance         50               0                50               0                
28                             0.576204480197947 -15.3534909144875 0.772597223295175 74.1323938441099 0.772597223295175 74.13239384411   0.576240433691828 -15.3615544440705 
! Gamma         0                0                0                0                
! Port Impedance         50               0                50               0                
28.1                           0.572269925289867 -16.1825010205096 0.775168621018401 73.2374124927853 0.775168621018402 73.2374124927854 0.572305904425705 -16.1908103177603 
! Gamma         0                0                0                0                
! Port Impedance         50               0                50               0                
28.2                           0.568159381953147 -17.0162800678952 0.777827224255602 72.3359275015062 0.777827224255602 72.3359275015065 0.568195387133783 -17.0248449353463 
! Gamma         0                0                0                0                
! Port Impedance         50               0                50               0                
28.3                           0.563869799301457 -17.8549645727077 0.780571557527387 71.4277044227927 0.780571557527388 71.4277044227929 0.56390583023065 -17.8637953742949 
! Gamma         0                0                0                0                
! Port Impedance         50               0                50               0                
28.4                           0.559398048214197 -18.6986834618033 0.783400013127489 70.5125100273322 0.783400013127489 70.5125100273324 0.559434103846312 -18.7077911632874 
! Gamma         0                0                0                0                
! Port Impedance         50               0                50               0                
28.5                           0.554740927422435 -19.5475571440749 0.786310842493085 69.5901126192145 0.786310842493085 69.5901126192146 0.554777005908973 -19.5569533572938 
! Gamma         0                0                0                0                
! Port Impedance         50               0                50               0                
28.6                           0.549895170342019 -20.401696478367 0.789302147322858 68.6602823832973 0.789302147322858 68.6602823832972 0.549931268974684 -20.4113935097525 
! Gamma         0                0                0                0                
! Port Impedance         50               0                50               0                
28.7                           0.544857452714489 -21.2612016263353 0.792371870471885 67.7227917663003 0.792371870471884 67.7227917663003 0.544893567864603 -21.2712125302065 
! Gamma         0                0                0                0                
! Port Impedance         50               0                50               0                
28.8                           0.539624401118354 -22.1261607769401 0.795517786658276 66.777415893173  0.795517786658277 66.7774158931731 0.539660528172228 -22.1364994141395 
! Gamma         0                0                0                0                
! Port Impedance         50               0                50               0                
28.9                           0.534192602414817 -22.996648727364 0.798737493022932 65.8239330202267 0.798737493022932 65.823933020227  0.534228735704789 -23.0073298298907 
! Gamma         0                0                0                0                
! Port Impedance         50               0                50               0                
29                             0.528558614193338 -23.8727253029089 0.802028399590798 64.8621250264353 0.802028399590797 64.8621250264354 0.528594746924092 -23.8837645453082 
! Gamma         0                0                0                0                
! Port Impedance         50               0                50               0                
29.1                           0.522718976282966 -24.7544335957963 0.805387719689655 63.891777944193  0.805387719689656 63.8917779441931 0.522755100452638 -24.7658476741624 
! Gamma         0                0                0                0                
! Port Impedance         50               0                50               0                
29.2                           0.516670223395615 -25.6417979996193 0.808812460390657 62.9126825306779 0.808812460390657 62.9126825306781 0.51670632971119 -25.6536047192156 
! Gamma         0                0                0                0                
! Port Impedance         50               0                50               0                
29.3                           0.510408898966899 -26.5348220124264 0.812299413043576 61.9246348807873 0.812299413043577 61.9246348807875 0.510444976753306 -26.5470403850724 
! Gamma         0                0                0                0                
! Port Impedance         50               0                50               0                
29.4                           0.503931570258925 -27.4334857768457 0.815845143989   60.9274370823897 0.815845143989001 60.9274370823896 0.503967607361087 -27.4461361294111 
! Gamma         0                0                0                0                
! Port Impedance         50               0                50               0                
29.5                           0.497234844787369 -28.3377433201524 0.819445985539408 59.9208979143898 0.819445985539409 59.9208979143901 0.497270827464379 -28.350847415716 
! Gamma         0                0                0                0                
! Port Impedance         50               0                50               0                
29.6                           0.490315388132367 -29.24751945047  0.823098027331141 58.9048335877942 0.823098027331142 58.9048335877947 0.490351300942832 -29.2611006239636 
! Gamma         0                0                0                0                
! Port Impedance         50               0                50               0                
29.7                           0.483169943188853 -30.1627062570956 0.826797108159569 57.8790685296006 0.826797108159569 57.8790685296007 0.483205768866152 -30.17678956756  
! Gamma         0                0                0                0                
! Port Impedance         50               0                50               0                
29.8                           0.475795350907402 -31.0831591528819 0.830538808420227 56.8434362089567 0.830538808420228 56.8434362089569 0.47583107022352 -31.0977715548423 
! Gamma         0                0                0                0                
! Port Impedance         50               0                50               0                
29.9                           0.468188572570968 -32.0086923841607 0.834318443289056 55.7977800045546 0.834318443289056 55.7977800045547 0.468224164187126 -32.0238629210734 
! Gamma         0                0                0                0                
! Port Impedance         50               0                50               0                
30                             0.460346713646585 -32.9390739182927 0.838131056784999 54.7419541117267 0.838131056784999 54.7419541117266 0.460382153948711 -32.9548339415652 
! Gamma         0                0                0                0                
! Port Impedance         50               0                50               0                
30.1                           0.452267049244158 -33.8740195996811 0.841971416867865 53.6758244871373 0.841971416867865 53.6758244871376 0.452302312160569 -33.8904030174195 
! Gamma         0                0                0                0                
! Port Impedance         50               0                50               0                
30.2                           0.443947051206987 -34.8131864409654 0.845834011733269 52.599269828347  0.84583401173327 52.5992698283471 0.443982108005419 -34.8302300014238 
! Gamma         0                0                0                0                
! Port Impedance         50               0                50               0                
30.3                           0.43538441685155 -35.7561648857095 0.849713047474266 51.5121825848348 0.849713047474267 51.5121825848348 0.435419235911708 -35.7739085013916 
! Gamma         0                0                0                0                
! Port Impedance         50               0                50               0                
30.4                           0.42657709936734 -36.7024698403064 0.85360244728575 50.4144699963517 0.85360244728575 50.4144699963517 0.426611645924506 -36.7209569598951 
! Gamma         0                0                0                0                
! Port Impedance         50               0                50               0                
30.5                           0.417523339882565 -37.6515302236075 0.857495852392386 49.3060551536814 0.857495852392387 49.3060551536814 0.417557575736695 -37.6708082604122 
! Gamma         0                0                0                0                
! Port Impedance         50               0                50               0                
30.6                           0.408221701199196 -38.6026767195791 0.861386624883349 48.1868780760777 0.86138662488335 48.1868780760778 0.408255584382596 -38.622797547059 
! Gamma         0                0                0                0                
! Port Impedance         50               0                50               0                
30.7                           0.398671103203064 -39.5551273365739 0.865267852637124 47.0568967987864 0.865267852637125 47.0568967987867 0.398704587598154 -39.5761478638724 
! Gamma         0                0                0                0                
! Port Impedance         50               0                50               0                
30.8                           0.388870859963656 -40.5079702704542 0.869132356516581 45.9160884631832 0.869132356516583 45.9160884631834 0.38890389486015 -40.5299531138315 
! Gamma         0                0                0                0                
! Port Impedance         50               0                50               0                
30.9                           0.378820718557317 -41.4601434293186 0.872972700008144 44.7644504011731 0.872972700008144 44.7644504011731 0.378853248135558 -41.4831576991544 
! Gamma         0                0                0                0                
! Port Impedance         50               0                50               0                
31                             0.368520899681113 -42.4104097931539 0.876781201468517 43.6020012046042 0.876781201468517 43.6020012046043 0.368552862404784 -42.4345320210111 
! Gamma         0                0                0                0                
! Port Impedance         50               0                50               0                
31.1                           0.357972140178998 -43.3573275359703 0.880549949128098 42.4287817696008 0.880549949128099 42.4287817696007 0.358003468075947 -43.382642772389 
! Gamma         0                0                0                0                
! Port Impedance         50               0                50               0                
31.2                           0.347175737685869 -44.2992135072832 0.884270818981053 41.244856304876  0.884270818981054 41.244856304876  0.347206355490104 -44.3258166290474 
! Gamma         0                0                0                0                
! Port Impedance         50               0                50               0                
31.3                           0.336133597721161 -45.2340982207649 0.887935495668313 40.0503132923485 0.887935495668314 40.0503132923486 0.33616342184117 -45.2620954968414 
! Gamma         0                0                0                0                
! Port Impedance         50               0                50               0                
31.4                           0.324848283749827 -46.1596698817353 0.891535496430899 38.8452663876998 0.8915354964309  38.8452663876999 0.324877221018412 -46.1891808609458 
! Gamma         0                0                0                0                
! Port Impedance         50               0                50               0                
31.5                           0.313323071001354 -47.0732041303057 0.895062198177129 37.6298552479553 0.895062198177131 37.6298552479553 0.313351017148273 -47.1043639321527 
! Gamma         0                0                0                0                
! Port Impedance         50               0                50               0                
31.6                           0.301562005235453 -47.9714749769562 0.898506867668404 36.4042462727527 0.898506867668404 36.4042462727527 0.301588843005783 -48.0044370916649 
! Gamma         0                0                0                0                
! Port Impedance         50               0                50               0                
31.7                           0.289569968225923 -48.8506407010235 0.901860694784637 35.1686332457077 0.901860694784639 35.1686332457078 0.28959556504137 -48.8855804381962 
! Gamma         0                0                0                0                
! Port Impedance         50               0                50               0                
31.8                           0.277352752591165 -49.7060960230347 0.905114828782419 33.9232378622142 0.90511482878242 33.9232378622142 0.277376957616273 -49.7432147938703 
! Gamma         0                0                0                0                
! Port Impedance         50               0                50               0                
31.9                           0.264917149873612 -50.5322782637449 0.908260417407123 32.6683101301833 0.908260417407124 32.6683101301834 0.264939790298718 -50.5718089446271 
! Gamma         0                0                0                0                
! Port Impedance         50               0                50               0                
32                             0.252271057684701 -51.322409854339 0.911288648665402 31.4041286306109 0.911288648665403 31.404128630611  0.252291933966299 -51.3646235671563 
! Gamma         0                0                0                0                
! Port Impedance         50               0                50               0                
32.1                           0.23942361465593 -52.068151473837 0.914190795007523 30.1310006255126 0.914190795007525 30.1310006255127 0.239442494351343 -52.1133662415672 
! Gamma         0                0                0                0                
! Port Impedance         50               0                50               0                
32.2                           0.226385376480995 -52.7591276268113 0.916958259611228 28.849262001689  0.91695825961123 28.8492620016891 0.226401986161482 -52.8077195375751 
! Gamma         0                0                0                0                
! Port Impedance         50               0                50               0                
32.3                           0.213168553545123 -53.3822668786718 0.919582624401369 27.5592770399942 0.91958262440137 27.5592770399947 0.213182568041778 -53.4346846408265 
! Gamma         0                0                0                0                
! Port Impedance         50               0                50               0                
32.4                           0.199787342348972 -53.9208674721247 0.922055699384093 26.2614380012555 0.922055699384096 26.2614380012555 0.199798370234322 -53.9776515998644 
! Gamma         0                0                0                0                
! Port Impedance         50               0                50               0                
32.5                           0.186258402453526 -54.3532472194106 0.924369572822369 24.9561645217538 0.924369572822369 24.9561645217538 0.186265966112494 -54.4150555966308 
! Gamma         0                0                0                0                
! Port Impedance         50               0                50               0                
32.6                           0.172601564154135 -54.6507490675479 0.926516661732762 23.6439028132216 0.926516661732763 23.6439028132219 0.172605071922695 -54.7183913467332 
! Gamma         0                0                0                0                
! Port Impedance         50               0                50               0                
32.7                           0.158840911381738 -54.774721950884 0.928489762143444 22.3251246645423 0.928489762143447 22.3251246645422 0.158839617806363 -54.8492061781414 
! Gamma         0                0                0                0                
! Port Impedance         50               0                50               0                
32.8                           0.145006493062715 -54.6718256577078 0.930282098521771 21.000326244834  0.930282098521773 21.0003262448342 0.144999440967792 -54.754421560659 
! Gamma         0                0                0                0                
! Port Impedance         50               0                50               0                
32.9                           0.131137123362383 -54.2665110239706 0.931887371758211 19.6700267102303 0.931887371758212 19.6700267102305 0.131123057426525 -54.3588349155358 
! Gamma         0                0                0                0                
! Port Impedance         50               0                50               0                
33                             0.11728514266309 -53.4485896038353 0.933299805083009 18.3347666194121 0.93329980508301 18.3347666194122 0.117262377468522 -53.5527133898712 
! Gamma         0                0                0                0                
! Port Impedance         50               0                50               0                
33.1                           0.103524863811512 -52.0520125488413 0.934514187293879 16.9951061657793 0.93451418729388 16.9951061657794 0.103491078270056 -52.170585308492 
! Gamma         0                0                0                0                
! Port Impedance         50               0                50               0                
33.2                           0.0899682681981167 -49.8175827556859 0.935525912687986 15.6516232369499 0.935525912687988 15.6516232369497 0.0899201822922566 -49.9538984007942 
! Gamma         0                0                0                0                
! Port Impedance         50               0                50               0                
33.3                           0.0767955950111247 -46.3265181783745 0.936331017119754 14.3049113150284 0.936331017119755 14.3049113150285 0.0767284737032108 -46.4842662940402 
! Gamma         0                0                0                0                
! Port Impedance         50               0                50               0                
33.4                           0.0643173237049691 -40.8862754569453 0.936926209647648 12.955577233702  0.93692620964765 12.9555772337023 0.064224314894825 -41.0680440583771 
! Gamma         0                0                0                0                
! Port Impedance         50               0                50               0                
33.5                           0.0530996940985289 -32.3747201324106 0.937308899287517 11.6042388106334 0.937308899287519 11.6042388106333 0.0529714786372064 -32.57632055641  
! Gamma         0                0                0                0                
! Port Impedance         50               0                50               0                
33.6                           0.0441838914548212 -19.2672992017336 0.937477216456286 10.2515223757694 0.937477216456289 10.2515223757695 0.0440111401741849 -19.4619383957845 
! Gamma         0                0                0                0                
! Port Impedance         50               0                50               0                
33.7                           0.0392288167071828 -0.843652052177125 0.937430028766606 8.89806021801951 0.937430028766608 8.89806021801976 0.0390133207782006 -0.964853217543197 
! Gamma         0                0                0                0                
! Port Impedance         50               0                50               0                
33.8                           0.0397748982956418 19.8963237172992 0.937166950918485 7.54448797419701 0.937166950918487 7.54448797419689 0.0395419954195808 19.9036889330419 
! Gamma         0                0                0                0                
! Port Impedance         50               0                50               0                
33.9                           0.0456309064893407 37.4136336877382 0.936688348526095 6.19144198516576 0.936688348526097 6.19144198516564 0.0454104486280818 37.5161180938806 
! Gamma         0                0                0                0                
! Port Impedance         50               0                50               0                
34                             0.0551177086404168 49.55607192278   0.935995335814349 4.83955664472589 0.935995335814351 4.83955664472558 0.054920940003058 49.6936448501386 
! Gamma         0                0                0                0                
! Port Impedance         50               0                50               0                
34.1                           0.0666795644255297 57.3885139734715 0.935089767218055 3.48946176689412 0.935089767218057 3.48946176689401 0.0665052519467643 57.5291046144867 
! Gamma         0                0                0                0                
! Port Impedance         50               0                50               0                
34.2                           0.0793833437975452 62.3948553968703 0.933974223013853 2.14177999691265 0.933974223013856 2.14177999691272 0.0792272359751301 62.5272980410248 
! Gamma         0                0                0                0                
! Port Impedance         50               0                50               0                
34.3                           0.0927240055003711 65.6073218393775 0.932651989209219 0.797124290514333 0.93265198920922 0.797124290514395 0.0925821603844136 65.729005271873  
! Gamma         0                0                0                0                
! Port Impedance         50               0                50               0                
34.4                           0.106421938847069 67.6565305540819 0.931127032001079 -0.543904515243947 0.93112703200108 -0.543904515244253 0.106291302369011 67.7677365674583 
! Gamma         0                0                0                0                
! Port Impedance         50               0                50               0                
34.5                           0.120312526248992 68.9247815409071 0.929403967196893 -1.88072001789434 0.929403967196893 -1.88072001789412 0.120190824867077 69.026615111303  
! Gamma         0                0                0                0                
! Port Impedance         50               0                50               0                
34.6                           0.134291924244664 69.650130681219  0.927488025061451 -3.21275243251084 0.927488025061453 -3.21275243251078 0.134177465701685 69.7438147963796 
! Gamma         0                0                0                0                
! Port Impedance         50               0                50               0                
34.7                           0.148290152469494 69.9861086613116 0.925385011111672 -4.53945062426645 0.925385011111674 -4.53945062426656 0.148181660776447 70.0727628355651 
! Gamma         0                0                0                0                
! Port Impedance         50               0                50               0                
34.8                           0.162257167573154 70.0352525464772 0.923101263428096 -5.86028397567284 0.923101263428097 -5.86028397567331 0.162153664207063 70.1158397717631 
! Gamma         0                0                0                0                
! Port Impedance         50               0                50               0                
34.9                           0.176155306027392 69.8682792910777 0.920643607085059 -7.17474407625781 0.92064360708506 -7.1747440762581 0.176056027360103 69.943609452512  
! Gamma         0                0                0                0                
! Port Impedance         50               0                50               0                
35                             0.189954992461252 69.5353829616486 0.918019306321294 -8.48234622523264 0.918019306321295 -8.48234622523258 0.189859332517078 69.6061327219465 
! Gamma         0                0                0                0                
! Port Impedance         50               0                50               0                
35.1                           0.203632199887037 69.073109844296  0.915236015079223 -9.78263074051122 0.915236015079225 -9.78263074051099 0.20353967027783 69.1398449316512 
! Gamma         0                0                0                0                
! Port Impedance         50               0                50               0                
35.2                           0.217166890130644 68.5086752045444 0.912301726535044 -11.0751640702477 0.912301726535045 -11.075164070248 0.217077091614646 68.571870532288  
! Gamma         0                0                0                0                
! Port Impedance         50               0                50               0                
35.3                           0.230542023667734 67.8627534428642 0.909224722223818 -12.3595397057653 0.909224722223819 -12.3595397057657 0.230454625644085 67.9228099546546 
! Gamma         0                0                0                0                
! Port Impedance         50               0                50               0                
35.4                           0.243742911257589 67.1513298620313 0.906013521335287 -13.6353788973171 0.906013521335289 -13.6353788973175 0.243657636751384 67.2085882039626 
! Gamma         0                0                0                0                
! Port Impedance         50               0                50               0                
35.5                           0.256756776623764 66.38695946576   0.902676830718651 -14.9023311765065 0.902676830718652 -14.9023311765063 0.2566733911268  66.4417109452832 
! Gamma         0                0                0                0                
! Port Impedance         50               0                50               0                
35.6                           0.269572452611299 65.5796414394107 0.89922349608948 -16.160074691353 0.89922349608948 -16.1600746913532 0.269490755671595 65.6321367787336 
! Gamma         0                0                0                0                
! Port Impedance         50               0                50               0                
35.7                           0.282180163474999 64.7374387143643 0.89566245488105 -17.4083163619112 0.89566245488105 -17.4083163619114 0.282099982274755 64.7878950503247 
! Gamma         0                0                0                0                
! Port Impedance         50               0                50               0                
35.8                           0.294571363678574 63.8669248455952 0.892002691127441 -18.6467918659719 0.892002691127442 -18.6467918659722 0.294492548070561 63.9155313478965 
! Gamma         0                0                0                0                
! Port Impedance         50               0                50               0                
35.9                           0.306738614279059 62.9735116379143 0.888253192708144 -19.8752654657612 0.888253192708146 -19.8752654657612 0.306661032906677 63.0204340411628 
! Gamma         0                0                0                0                
! Port Impedance         50               0                50               0                
36                             0.318675484591217 62.0616929648377 0.884422911225507 -21.0935296876154 0.884422911225509 -21.0935296876155 0.318599021823461 62.1070772453279 
! Gamma         0                0                0                0                
! Port Impedance         50               0                50               0                
36.1                           0.330376471020139 61.1352287369359 0.8805207247283  -22.3014048674197 0.8805207247283  -22.3014048674198 0.330301024506261 61.1792041135883 
! Gamma         0                0                0                0                
! Port Impedance         50               0                50               0                
36.2                           0.341836927661353 60.1972854945242 0.876555403438345 -23.4987385751279 0.876555403438346 -23.4987385751281 0.341762406361666 60.2399668931779 
! Gamma         0                0                0                0                
! Port Impedance         50               0                50               0                
36.3                           0.353053005051824 59.2505451357872 0.872535578583577 -24.685404931974 0.872535578583578 -24.6854049319741 0.352979327637807 59.2920352250589 
! Gamma         0                0                0                0                
! Port Impedance         50               0                50               0                
36.4                           0.364021594646887 58.2972899417169 0.868469714390902 -25.8613038340319 0.868469714390903 -25.861303834032 0.36394868819036 58.3376808248511 
! Gamma         0                0                0                0                
! Port Impedance         50               0                50               0                
36.5                           0.374740277403952 57.3394697630163 0.864366083246483 -27.0263600956384 0.864366083246484 -27.0263600956385 0.374668076294313 57.3788443918935 
! Gamma         0                0                0                0                
! Port Impedance         50               0                50               0                
36.6                           0.385207275403028 56.3787556368291 0.860232743990077 -28.1805225258604 0.860232743990078 -28.1805225258603 0.385135720445894 56.4171890002779 
! Gamma         0                0                0                0                
! Port Impedance         50               0                50               0                
36.7                           0.395421405810641 55.4165829750494 0.856077523274054 -29.3237629507007 0.856077523274055 -29.3237629507007 0.395350443471788 55.4541431027598 
! Gamma         0                0                0                0                
! Port Impedance         50               0                50               0                
36.8                           0.40538203675155 54.4541866619227 0.851907999886815 -30.4560751931263 0.851907999886816 -30.4560751931266 0.405311618518097 54.4909354768771 
! Gamma         0                0                0                0                
! Port Impedance         50               0                50               0                
36.9                           0.41508904482873 53.4926298179101 0.847731491914584 -31.5774740222983 0.847731491914584 -31.5774740222984 0.415019126665514 53.5286238636938 
! Gamma         0                0                0                0                
! Port Impedance         50               0                50               0                
37                             0.424542774150237 52.5328275626677 0.843555046594708 -32.6879940825759 0.84355504659471 -32.6879940825761 0.424473316034031 52.5681186269038 
! Gamma         0                0                0                0                
! Port Impedance         50               0                50               0                
37.1                           0.433743996799755 51.5755667971865 0.839385432697529 -33.7876888120476 0.83938543269753 -33.7876888120477 0.433674962317511 51.6102024482992 
! Gamma         0                0                0                0                
! Port Impedance         50               0                50               0                
37.2                           0.442693874736635 50.6215227921568 0.835229135262131 -34.8766293594453 0.83522913526213 -34.8766293594457 0.442625230736745 50.6555468434777 
! Gamma         0                0                0                0                
! Port Impedance         50               0                50               0                
37.3                           0.451393923140413 49.6712731946281 0.8310923525037  -35.9549035074269 0.8310923525037  -35.9549035074271 0.45132563942813 49.7047261073084 
! Gamma         0                0                0                0                
! Port Impedance         50               0                50               0                
37.4                           0.459845975229545 48.7253099324491 0.826980994706046 -37.0226146093187 0.826980994706046 -37.0226146093188 0.459778024299439 48.7582291666156 
! Gamma         0                0                0                0                
! Port Impedance         50               0                50               0                
37.5                           0.468052148589065 47.7840493947794 0.822900684912066 -38.0798805455424 0.822900684912065 -38.0798805455425 0.467984505388708 47.8164697167216 
! Gamma         0                0                0                0                
! Port Impedance         50               0                50               0                
37.6                           0.476014813040157 46.8478411891261 0.818856761226748 -39.1268327051129 0.818856761226747 -39.1268327051131 0.475947454760352 46.8797949409927 
! Gamma         0                0                0                0                
! Port Impedance         50               0                50               0                
37.7                           0.483736560078595 45.9169757151161 0.814854280551554 -40.1636149967912 0.814854280551554 -40.1636149967914 0.483669465966252 45.9484930525102 
! Gamma         0                0                0                0                
! Port Impedance         50               0                50               0                
37.8                           0.491220173900277 44.9916907482477 0.810898023575119 -41.1903828937153 0.810898023575119 -41.1903828937154 0.491153325090795 45.0227998502435 
! Gamma         0                0                0                0                
! Port Impedance         50               0                50               0                
37.9                           0.498468604021971 44.0721771900423 0.806992500852859 -42.2073025146327 0.80699250085286 -42.2073025146328 0.49840198338849 44.1029044454201 
! Gamma         0                0                0                0                
! Port Impedance         50               0                50               0                
38                             0.505484939494766 43.1585841119864 0.803141959816942 -43.2145497441951 0.803141959816941 -43.2145497441953 0.505418531512104 43.1889542848931 
! Gamma         0                0                0                0                
! Port Impedance         50               0                50               0                
38.1                           0.512272384697169 42.2510231976055 0.799350392567711 -44.2123093941855 0.79935039256771 -44.2123093941856 0.512206175318653 42.2810595753591 
! Gamma         0                0                0                0                
! Port Impedance         50               0                50               0                
38.2                           0.518834236684871 41.3495726686542 0.795621544307986 -45.2007744069988 0.795621544307986 -45.200774406999 0.518768213230528 41.379297194002  
! Gamma         0                0                0                0                
! Port Impedance         50               0                50               0                
38.3                           0.525173864065032 40.4542807666734 0.791958922292172 -46.1801451022206 0.791958922292171 -46.1801451022205 0.525108015119845 40.4837141564767 
! Gamma         0                0                0                0                
! Port Impedance         50               0                50               0                
38.4                           0.531294687354826 39.5651688493026 0.788365805172852 -47.1506284667036 0.78836580517285 -47.1506284667038 0.531229002675998 39.594330701337  
! Gamma         0                0                0                0                
! Port Impedance         50               0                50               0                
38.5                           0.537200160777016 38.6822341511276 0.784845252638131 -48.112437488176 0.784845252638131 -48.1124374881762 0.537134631209283 38.711143040452  
! Gamma         0                0                0                0                
! Port Impedance         50               0                50               0                
38.6                           0.542893755439395 37.8054522510223 0.781400115243399 -49.0657905320751 0.781400115243399 -49.065790532075 0.542828372837621 37.8341258171647 
! Gamma         0                0                0                0                
! Port Impedance         50               0                50               0                
38.7                           0.548378943840222 36.9347792815518 0.778033044351214 -50.0109107610215 0.778033044351213 -50.010910761022 0.548313700998579 36.9632343075975 
! Gamma         0                0                0                0                
! Port Impedance         50               0                50               0                
38.8                           0.55365918563809 36.0701539107427 0.774746502102624 -50.9480255961148 0.774746502102623 -50.9480255961149 0.553594076225238 36.0984063952622 
! Gamma         0                0                0                0                
! Port Impedance         50               0                50               0                
38.9                           0.558737914621959 35.2114991221954 0.771542771352345 -51.8773662190183 0.771542771352343 -51.8773662190182 0.558672933121689 35.2395643448283 
! Gamma         0                0                0                0                
! Port Impedance         50               0                50               0                
39                             0.563618526815324 34.3587238159027 0.768423965508728 -52.7991671136566 0.768423965508728 -52.7991671136566 0.563553668472245 34.3866163973127 
! Gamma         0                0                0                0                
! Port Impedance         50               0                50               0                
39.1                           0.568304369647577 33.5117242491436 0.765392038227432 -53.7136656462027 0.765392038227432 -53.7136656462026 0.568239630417414 33.5394582059662 
! Gamma         0                0                0                0                
! Port Impedance         50               0                50               0                
39.2                           0.572798732125353 32.6703853342982 0.762448792914994 -54.6211016819424 0.762448792914993 -54.6211016819426 0.572734108629517 32.6979741296317 
! Gamma         0                0                0                0                
! Port Impedance         50               0                50               0                
39.3                           0.577104835937102 31.8345818083147 0.759595892005281 -55.5217172375316 0.75959589200528 -55.5217172375318 0.577040325421222 31.8620383982352 
! Gamma         0                0                0                0                
! Port Impedance         50               0                50               0                
39.4                           0.581225827425082 31.0041792867635 0.756834865977852 -56.4157561670958 0.756834865977851 -56.415756167096 0.581161427721195 31.03151616329   
! Gamma         0                0                0                0                
! Port Impedance         50               0                50               0                
39.5                           0.585164770360377 30.1790352138887 0.754167122092827 -57.3034638806189 0.754167122092825 -57.3034638806189 0.585100479852551 30.2062644447779 
! Gamma         0                0                0                0                
! Port Impedance         50               0                50               0                
39.6                           0.588924639458338 29.3589997187661 0.751593952821774 -58.1850870930216 0.751593952821773 -58.185087093022 0.588860457051473 29.3861329844689 
! Gamma         0                0                0                0                
! Port Impedance         50               0                50               0                
39.7                           0.592508314573939 28.5439163865543 0.749116543958536 -59.060873602372 0.749116543958535 -59.0608736023719 0.592444239665558 28.5709650146355 
! Gamma         0                0                0                0                
! Port Impedance         50               0                50               0                
39.8                           0.595918575518867 27.7336229528662 0.746735982397795 -59.9310720956397 0.746735982397793 -59.9310720956396 0.595854607973699 27.7605979501532 
! Gamma         0                0                0                0                
! Port Impedance         50               0                50               0                
39.9                           0.599158097444661 26.9279519284476 0.744453263572558 -60.7959319804773 0.744453263572557 -60.7959319804772 0.599094237571856 26.9548640111478 
! Gamma         0                0                0                0                
! Port Impedance         50               0                50               0                
40                             0.602229446738857 26.1267311606284 0.742269298544695 -61.6557032415099 0.742269298544693 -61.65570324151  0.602165695271668 26.1535907826316 
! Gamma         0                0                0                0                
! Port Impedance         50               0                50               0                
40.1                           0.605135077383785 25.3297843373742 0.740184920745138 -62.5106363196737 0.740184920745137 -62.5106363196736 0.605071435461588 25.3566017169332 
! Gamma         0                0                0                0                
! Port Impedance         50               0                50               0                
40.2                           0.607877327730422 24.536931439213  0.738200892362534 -63.3609820131849 0.738200892362533 -63.3609820131849 0.607813796882938 24.5637165841805 
! Gamma         0                0                0                0                
! Port Impedance         50               0                50               0                
40.3                           0.610458417642451 23.7479891438236 0.736317910380837 -64.2069913987687 0.736317910380835 -64.2069913987686 0.61039499977607 23.7747518756048 
! Gamma         0                0                0                0                
! Port Impedance         50               0                50               0                
40.4                           0.612880445968429 22.9627711876415 0.734536612267818 -65.0489157718306 0.734536612267817 -65.0489157718307 0.612817143354512 22.9895211640103 
! Gamma         0                0                0                0                
! Port Impedance         50               0                50               0                
40.5                           0.615145388302629 22.1810886884623 0.732857581317593 -65.8870066043112 0.732857581317592 -65.8870066043112 0.615082203567709 22.2078354253747 
! Gamma         0                0                0                0                
! Port Impedance         50               0                50               0                
40.6                           0.617255094997779 21.4027504326829 0.731281351651125 -66.7215155190038 0.731281351651124 -66.7215155190036 0.617192031115582 21.4295033252132 
! Gamma         0                0                0                0                
! Port Impedance         50               0                50               0                
40.7                           0.619211289395503 20.6275631305299 0.729808412879318 -67.5526942791936 0.729808412879317 -67.5526942791941 0.619148349680696 20.6543314730447 
! Gamma         0                0                0                0                
! Port Impedance         50               0                50               0                
40.8                           0.6210155662427  19.855331642357  0.728439214433685 -68.3807947925021 0.728439214433684 -68.3807947925022 0.620952754346322 19.8821246480342 
! Gamma         0                0                0                0                
! Port Impedance         50               0                50               0                
40.9                           0.622669390264555 19.0858591788669 0.727174169569828 -69.2060691278883 0.727174169569827 -69.2060691278881 0.622606710171056 19.112685998662  
! Gamma         0                0                0                0                
! Port Impedance         50               0                50               0                
41                             0.624174094867134 18.318947477906  0.726013659048975 -70.0287695448092 0.726013659048974 -70.0287695448091 0.624111550892988 18.3458172190597 
! Gamma         0                0                0                0                
! Port Impedance         50               0                50               0                
41.1                           0.625530880944777 17.5543969603026 0.724958034502677 -70.8491485335724 0.724958034502676 -70.8491485335727 0.625468477738616 17.5813187044821 
! Gamma         0                0                0                0                
! Port Impedance         50               0                50               0                
41.2                           0.626740815769585 16.7920068670623 0.724007621485558 -71.6674588659725 0.724007621485557 -71.6674588659729 0.626678558313828 16.8189896882229 
! Gamma         0                0                0                0                
! Port Impedance         50               0                50               0                
41.3                           0.627804831942378 16.0315753801006 0.723162722220543 -72.4839536553352 0.723162722220542 -72.483953655335 0.627742725556324 16.0586283621518 
! Gamma         0                0                0                0                
! Port Impedance         50               0                50               0                
41.4                           0.628723726386437 15.2728997285754 0.722423618040547 -73.2988864251291 0.722423618040546 -73.2988864251288 0.628661776730812 15.3000319829325 
! Gamma         0                0                0                0                
! Port Impedance         50               0                50               0                
41.5                           0.629498159367244 14.5157762827854 0.721790571529949 -74.1125111853423 0.721790571529947 -74.1125111853423 0.629436372450172 14.5429969658897 
! Gamma         0                0                0                0                
! Port Impedance         50               0                50               0                
41.6                           0.630128653523235 13.7600006375222 0.721263828368498 -74.9250825158399 0.721263828368497 -74.9250825158403 0.630067035707656 13.7873189684065 
! Gamma         0                0                0                0                
! Port Impedance         50               0                50               0                
41.7                           0.630615592894377 13.0053676866982 0.720843618879517 -75.7368556559525 0.720843618879516 -75.7368556559522 0.630554150906886 13.0327929646795 
! Gamma         0                0                0                0                
! Port Impedance         50               0                50               0                
41.8                           0.630959221937043 12.2516716910296 0.720530159283393 -76.5480865995517 0.720530159283392 -76.5480865995514 0.630897962878183 12.2792133136079 
! Gamma         0                0                0                0                
! Port Impedance         50               0                50               0                
41.9                           0.631159644515387 11.4987063405202 0.72032365265643 -77.3590321948982 0.720323652656429 -77.3590321948984 0.631098575871401 11.5263738215651 
! Gamma         0                0                0                0                
! Port Impedance         50               0                50               0                
42                             0.631216822861035 10.7462648134796 0.720224289594172 -78.1699502485433 0.720224289594171 -78.1699502485435 0.631155952517107 10.7740678017886 
! Gamma         0                0                0                0                
! Port Impedance         50               0                50               0                
42.1                           0.631130576494556 9.99413983381101 0.720232248577235 -78.9810996325694 0.720232248577233 -78.9810996325692 0.631069912749575 10.0220881321236 
! Gamma         0                0                0                0                
! Port Impedance         50               0                50               0                
42.2                           0.630900581103831 9.24212372832123 0.720347696036626 -79.7927403944665 0.720347696036625 -79.7927403944662 0.630840132686717 9.27022731288117 
! Gamma         0                0                0                0                
! Port Impedance         50               0                50               0                
42.3                           0.630526367376057 8.49000848584269 0.720570786114392 -80.6051338689145 0.72057078611439 -80.6051338689145 0.630466143463699 8.5182775265986  
! Gamma         0                0                0                0                
! Port Impedance         50               0                50               0                
42.4                           0.63000731978183 7.73758582000956 0.720901660114261 -81.4185427907433 0.720901660114259 -81.4185427907435 0.6299473300187  7.7660307015543  
! Gamma         0                0                0                0                
! Port Impedance         50               0                50               0                
42.5                           0.629342675311466 6.98464723760117 0.721340445635777 -82.2332314083153 0.721340445635775 -82.2332314083154 0.629282929830973 7.01327858095354 
! Gamma         0                0                0                0                
! Port Impedance         50               0                50               0                
42.6                           0.628531522165508 6.23098411445909 0.721887255384145 -83.0494655965462 0.721887255384143 -83.0494655965458 0.628472031613168 6.25981279979888 
! Gamma         0                0                0                0                
! Port Impedance         50               0                50               0                
42.7                           0.627572798403213 5.47638778109596 0.722542185646819 -83.8675129687613 0.722542185646817 -83.867512968761 0.627513573961737 5.50542497157169 
! Gamma         0                0                0                0                
! Port Impedance         50               0                50               0                
42.8                           0.626465290554806 4.72064962025042 0.723305314426549 -84.6876429865239 0.723305314426548 -84.6876429865241 0.626406343971191 4.74990678698748 
! Gamma         0                0                0                0                
! Port Impedance         50               0                50               0                
42.9                           0.625207632205315 3.96356117880326 0.724176699219386 -85.5101270665489 0.724176699219384 -85.5101270665488 0.62514897582007 3.99305012725106 
! Gamma         0                0                0                0                
! Port Impedance         50               0                50               0                
43                             0.623798302560052 3.20491429665725 0.725156374424814 -86.3352386837358 0.725156374424813 -86.3352386837357 0.623739949338669 3.23464719442556 
! Gamma         0                0                0                0                
! Port Impedance         50               0                50               0                
43.1                           0.622235625004132 2.44450125540279 0.726244348373997 -87.1632534693217 0.726244348373995 -87.1632534693214 0.622177588570961 2.47449066175142 
! Gamma         0                0                0                0                
! Port Impedance         50               0                50               0                
43.2                           0.620517765670961 1.68211494984249 0.727440599960833 -87.9944493030576 0.727440599960832 -87.9944493030575 0.620460060345643 1.71237384700238 
! Gamma         0                0                0                0                
! Port Impedance         50               0                50               0                
43.3                           0.618642732037373 0.917549085735451 0.728745074859358 -88.8291063982559 0.728745074859356 -88.8291063982557 0.618585372874013 0.948090912258617 
! Gamma         0                0                0                0                
! Port Impedance         50               0                50               0                
43.4                           0.616608371566033 0.150598407457734 0.730157681309873 -89.667507378455 0.730157681309872 -89.6675073784549 0.616551374395304 0.181437093811091 
! Gamma         0                0                0                0                
! Port Impedance         50               0                50               0                
43.5                           0.614412370418893 -0.618941040353563 0.731678285455144 -90.5099373443633 0.731678285455143 -90.5099373443632 0.614355751893308 -0.58779103371113 
! Gamma         0                0                0                0                
! Port Impedance         50               0                50               0                
43.6                           0.612052252268991 -1.39127161266481 0.733306706206995 -91.3566839296323 0.733306706206993 -91.356683929632 0.611996029911586 -1.3597952544597 
! Gamma         0                0                0                0                
! Port Impedance         50               0                50               0                
43.7                           0.609525377241581 -2.16659372042817 0.735042709622847 -92.2080373439035 0.735042709622846 -92.2080373439036 0.609469569498281 -2.13477536471001 
! Gamma         0                0                0                0                
! Port Impedance         50               0                50               0                
43.8                           0.606828941019665 -2.9451054379201 0.736886002770999 -93.0642904014462 0.736886002770997 -93.064290401446 0.606773567315658 -2.91292877683586 
! Gamma         0                0                0                0                
! Port Impedance         50               0                50               0                
43.9                           0.603959974153384 -3.72700205484182 0.738836227062969 -93.9257385335753 0.738836227062968 -93.9257385335752 0.603905054953836 -3.69445006768323 
! Gamma         0                0                0                0                
! Port Impedance         50               0                50               0                
44                             0.60091534161747 -4.51247556624756 0.740892951030958 -94.7926797828968 0.740892951030957 -94.7926797828965 0.600860898492989 -4.47953046436706 
! Gamma         0                0                0                0                
! Port Impedance         50               0                50               0                
44.1                           0.597691742666097 -5.3017140925351 0.743055662528451 -95.6654147772852 0.743055662528451 -95.6654147772852 0.597637798363371 -5.26835725967656 
! Gamma         0                0                0                0                
! Port Impedance         50               0                50               0                
44.2                           0.594285711039983 -6.09490122076816 0.74532376033235 -96.5442466813321 0.745323760332348 -96.5442466813322 0.594232289558097 -6.06111314830289 
! Gamma         0                0                0                0                
! Port Impedance         50               0                50               0                
44.3                           0.590693615586569 -6.89221525749583 0.747696545125686 -97.4294811228481 0.747696545125684 -97.4294811228483 0.590640742259557 -6.85797547399181 
! Gamma         0                0                0                0                
! Port Impedance         50               0                50               0                
44.4                           0.586911661360431 -7.69382838197073 0.750173209841172 -98.3214260918273 0.750173209841171 -98.3214260918271 0.58685936294669 -7.65911537644769 
! Gamma         0                0                0                0                
! Port Impedance         50               0                50               0                
44.5                           0.582935891277945 -8.49990568718962 0.752752829347494 -99.2203918091033 0.752752829347493 -99.220391809103 0.582884196057236 -8.46469682533088 
! Gamma         0                0                0                0                
! Port Impedance         50               0                50               0                
44.6                           0.578762188407442 -9.31060409449066 0.755434349462534 -100.126690561754 0.755434349462534 -100.126690561755 0.578711126286292 -9.27487552698352 
! Gamma         0                0                0                0                
! Port Impedance         50               0                50               0                
44.7                           0.574386278983844 -10.1260711254606 0.758216575280727 -101.04063650212 0.758216575280726 -101.04063650212 0.574335881610267 -10.0897976875256 
! Gamma         0                0                0                0                
! Port Impedance         50               0                50               0                
44.8                           0.569803736244882 -10.9464435126065 0.761098158805456 -101.962545407115 0.761098158805455 -101.962545407115 0.569754037133486 -10.909598613646 
! Gamma         0                0                0                0                
! Port Impedance         50               0                50               0                
44.9                           0.5650099851946  -11.7718456275486 0.764077585882108 -102.892734394353 0.764077585882108 -102.892734394353 0.56496101986331 -11.7344011296928 
! Gamma         0                0                0                0                
! Port Impedance         50               0                50               0                
45                             0.560000308408818 -12.6023877023274 0.767153162433038 -103.831521591403 0.767153162433038 -103.831521591403 0.55995211452858 -12.5643137864809 
! Gamma         0                0                0                0                
! Port Impedance         50               0                50               0                
45.1                           0.554769853006589 -13.4381638156799 0.770323000002453 -104.779225754347 0.770323000002452 -104.779225754347 0.554722470565699 -13.3994288334649 
! Gamma         0                0                0                0                
! Port Impedance         50               0                50               0                
45.2                           0.549313638921345 -14.2792496117062 0.773585000627311 -105.736165831662 0.773585000627309 -105.736165831662 0.549267110406235 -14.2398199214595 
! Gamma         0                0                0                0                
! Port Impedance         50               0                50               0                
45.3                           0.543626568615427 -15.1256997130861 0.776936841059647 -106.702660469315 0.776936841059646 -106.702660469315 0.5435809392101  -15.0855394977787 
! Gamma         0                0                0                0                
! Port Impedance         50               0                50               0                
45.4                           0.537703438391859 -15.9775447846796 0.780375956376666 -107.679027452847 0.780375956376665 -107.679027452847 0.537658756198445 -15.936615849301 
! Gamma         0                0                0                0                
! Port Impedance         50               0                50               0                
45.5                           0.531538951467575 -16.8347881957763 0.783899523027414 -108.665583082183 0.783899523027414 -108.665583082183 0.531495267750978 -16.7930497413243 
! Gamma         0                0                0                0                
! Port Impedance         50               0                50               0                
45.6                           0.52512773298277 -17.6974022200833 0.787504441379084 -109.662641474847 0.787504441379084 -109.662641474847 0.52508510244281 -17.6548105908341 
! Gamma         0                0                0                0                
! Port Impedance         50               0                50               0                
45.7                           0.51846434713153 -18.5653237014137 0.791187317842031 -110.670513793305 0.791187317842031 -110.670513793305 0.518422828206638 -18.5218321015903 
! Gamma         0                0                0                0                
! Port Impedance         50               0                50               0                
45.8                           0.511543316609361 -19.438449099444 0.794944446670577 -111.689507392239 0.794944446670576 -111.689507392239 0.511502971816569 -19.3940072747323 
! Gamma         0                0                0                0                
! Port Impedance         50               0                50               0                
45.9                           0.504359144583758 -20.3166288132181 0.798771791556572 -112.719924881714 0.798771791556571 -112.719924881714 0.50432004090062 -20.2711826917815 
! Gamma         0                0                0                0                
! Port Impedance         50               0                50               0                
46                             0.496906339404402 -21.1996606594639 0.802664967154654 -113.762063102449 0.802664967154653 -113.762063102449 0.496868548699561 -21.1531519461459 
! Gamma         0                0                0                0                
! Port Impedance         50               0                50               0                
46.1                           0.489179442280361 -22.0872823571969 0.806619220701966 -114.816212009731 0.806619220701966 -114.816212009731 0.489143041800713 -22.0396480734368 
! Gamma         0                0                0                0                
! Port Impedance         50               0                50               0                
46.2                           0.481173058162687 -22.9791628381039 0.810629413920913 -115.882653462981 0.810629413920913 -115.882653462981 0.481138131086728 -22.9303347986788 
! Gamma         0                0                0                0                
! Port Impedance         50               0                50               0                
46.3                           0.472881890082913 -23.8748921620123 0.814690005420979 -116.961659918541 0.814690005420978 -116.961659918541 0.472848526151774 -23.8247963779973 
! Gamma         0                0                0                0                
! Port Impedance         50               0                50               0                
46.4                           0.464300777211618 -24.7739697659071 0.818795033844631 -118.053493023986 0.818795033844629 -118.053493023985 0.464269073451695 -24.7225257611381 
! Gamma         0                0                0                0                
! Port Impedance         50               0                50               0                
46.5                           0.455424736917715 -25.6757907102428 0.822938102032449 -119.158402113113 0.822938102032449 -119.158402113113 0.455394798471768 -25.6229107359711 
! Gamma         0                0                0                0                
! Port Impedance         50               0                50               0                
46.6                           0.44624901113022 -26.5796295033454 0.827112362513463 -120.276622601824 0.827112362513463 -120.276622601824 0.446220952217553 -26.5252176325685 
! Gamma         0                0                0                0                
! Port Impedance         50               0                50               0                
46.7                           0.436769117332448 -27.48462097765  0.831310504657619 -121.40837428631 0.83131050465762 -121.40837428631 0.436743062363438 -27.4285720566168 
! Gamma         0                0                0                0                
! Port Impedance         50               0                50               0                
46.8                           0.426980904557673 -28.3897375523413 0.835524743857734 -122.553859546359 0.835524743857734 -122.553859546359 0.426956989433821 -28.3319359817583 
! Gamma         0                0                0                0                
! Port Impedance         50               0                50               0                
46.9                           0.416880614810876 -29.293762034664 0.839746813137153 -123.713261458222 0.839746813137154 -123.713261458222 0.416858988449066 -29.234080346881 
! Gamma         0                0                0                0                
! Port Impedance         50               0                50               0                
47                             0.406464950420786 -30.195254871443 0.843967957605887 -124.886741823249 0.843967957605888 -124.886741823249 0.406445776550026 -30.1335520620181 
! Gamma         0                0                0                0                
! Port Impedance         50               0                50               0                
47.1                           0.395731147941793 -31.0925144418097 0.848178932210751 -126.074439120519 0.848178932210752 -126.074439120519 0.395714607233172 -31.0286340038523 
! Gamma         0                0                0                0                
! Port Impedance         50               0                50               0                
47.2                           0.384677059392515 -31.9835285515242 0.852370003242933 -127.276466393866 0.852370003242934 -127.276466393866 0.384663351999145 -31.9172961484567 
! Gamma         0                0                0                0                
! Port Impedance         50               0                50               0                
47.3                           0.373301241860846 -32.8659147053185 0.856530954077821 -128.492909086079 0.856530954077821 -128.492909086079 0.373290590465824 -32.797135401347 
! Gamma         0                0                0                0                
! Port Impedance         50               0                50               0                
47.4                           0.361603056858904 -33.7368459339013 0.860651095625291 -129.723822835547 0.860651095625291 -129.723822835547 0.361595710357199 -33.6653008803897 
! Gamma         0                0                0                0                
! Port Impedance         50               0                50               0                
47.5                           0.349582781327029 -34.5929578451632 0.864719281962382 -130.969231253276 0.864719281962382 -130.969231253276 0.34957901930459 -34.5184002938106 
! Gamma         0                0                0                0                
! Port Impedance         50               0                50               0                
47.6                           0.337241732940484 -35.4302310193343 0.868723931602592 -132.229123700896 0.868723931602592 -132.229123700896 0.337241871164159 -35.3523814975661 
! Gamma         0                0                0                0                
! Port Impedance         50               0                50               0                
47.7                           0.324582413482056 -36.2438406721291 0.872653054825311 -133.503453093039 0.872653054825312 -133.503453093039 0.324586810682473 -36.1623811098565 
! Gamma         0                0                0                0                
! Port Impedance         50               0                50               0                
47.8                           0.311608675686634 -37.0279623589712 0.876494287443672 -134.79213375014 0.876494287443672 -134.79213375014 0.311617742010492 -36.9425288955501 
! Gamma         0                0                0                0                
! Port Impedance         50               0                50               0                
47.9                           0.298325921418164 -37.7755179095587 0.880234931327851 -136.095039330297 0.880234931327852 -136.095039330297 0.298340129057711 -37.6856920313291 
! Gamma         0                0                0                0                
! Port Impedance         50               0                50               0                
48                             0.284741342747058 -38.4778390160274 0.883862001922791 -137.412000871233 0.883862001922793 -137.412000871233 0.284761239439511 -38.3831365736236 
! Gamma         0                0                0                0                
! Port Impedance         50               0                50               0                
48.1                           0.270864223171595 -39.1242157553848 0.887362282903667 -138.742804975427 0.887362282903668 -138.742804975427 0.270890449524954 -39.024073281903 
! Gamma         0                0                0                0                
! Port Impedance         50               0                50               0                
48.2                           0.256706325051799 -39.701281871912 0.890722387999194 -140.087192173203 0.890722387999195 -140.087192173203 0.256739637033803 -39.5950394669158 
! Gamma         0                0                0                0                
! Port Impedance         50               0                50               0                
48.3                           0.24228240329185 -40.1921646866993 0.893928829882743 -141.444855499715 0.893928829882744 -141.444855499715 0.242323701774372 -40.0790445560984 
! Gamma         0                0                0                0                
! Port Impedance         50               0                50               0                
48.4                           0.227610907863512 -40.5752896915781 0.896968095885407 -142.815439322301 0.896968095885408 -142.815439322301 0.227661277933966 -40.4543692762939 
! Gamma         0                0                0                0                
! Port Impedance         50               0                50               0                
48.5                           0.212714975007834 -40.8226691229745 0.899826730126079 -144.198538454521 0.89982673012608 -144.198538454521 0.212775738978484 -40.6928477168547 
! Gamma         0                0                0                0                
! Port Impedance         50               0                50               0                
48.6                           0.197623869960167 -40.8974044240242 0.902491421484096 -145.593697592193 0.902491421484098 -145.593697592193 0.197696659825771 -40.7573625544909 
! Gamma         0                0                0                0                
! Port Impedance         50               0                50               0                
48.7                           0.182375153434454 -40.7499673583139 0.904949096664442 -147.000411104833 0.904949096664443 -147.000411104833 0.182462011225584 -40.5981196934692 
! Gamma         0                0                0                0                
! Port Impedance         50               0                50               0                
48.8                           0.167018039204546 -40.3125471407611 0.907187017428404 -148.418123213065 0.907187017428405 -148.418123213065 0.167121557564405 -40.1469940825545 
! Gamma         0                0                0                0                
! Port Impedance         50               0                50               0                
48.9                           0.151618767426338 -39.4902852212611 0.909192880889989 -149.84622857871 0.909192880889991 -149.84622857871 0.151742287859405 -39.3087801615425 
! Gamma         0                0                0                0                
! Port Impedance         50               0                50               0                
49                             0.136269487909142 -38.1474584647316 0.910954921616329 -151.284073329404 0.910954921616331 -151.284073329404 0.136417379196659 -37.9474384223158 
! Gamma         0                0                0                0                
! Port Impedance         50               0                50               0                
49.1                           0.121103418067169 -36.0855476268426 0.91246201412557 -152.730956533798 0.912462014125571 -152.730956533798 0.121281455624165 -35.8643539779747 
! Gamma         0                0                0                0                
! Port Impedance         50               0                50               0                
49.2                           0.106321415047429 -33.009030655972 0.91370377425517 -154.186132136692 0.913703774255172 -154.186132136692 0.106537247913238 -32.7646464144745 
! Gamma         0                0                0                0                
! Port Impedance         50               0                50               0                
49.3                           0.0922391399488921 -28.4764015081299 0.914670657783599 -155.648811355989 0.9146706577836  -155.648811355989 0.0925026788891813 -28.2095085467316 
! Gamma         0                0                0                0                
! Port Impedance         50               0                50               0                
49.4                           0.0793684394508712 -21.8505535024282 0.915354054635158 -157.118165535268 0.915354054635159 -157.118165535268 0.0796914733242812 -21.5696359265456 
! Gamma         0                0                0                0                
! Port Impedance         50               0                50               0                
49.5                           0.0685384051159933 -12.3348227642373 0.915746376986188 -158.593329437305 0.91574637698619 -158.593329437305 0.0689313716197689 -12.0664657936157 
! Gamma         0                0                0                0                
! Port Impedance         50               0                50               0                
49.6                           0.060985599287844 0.633097136559701 0.915841139624767 -160.073404955165 0.915841139624768 -160.073404955165 0.0614478788715668 0.833591663809302 
! Gamma         0                0                0                0                
! Port Impedance         50               0                50               0                
49.7                           0.058123247702117 16.3489876573185 0.915633030997389 -161.557465208924 0.91563303099739 -161.557465208924 0.0586295169018182 16.4159998342426 
! Gamma         0                0                0                0                
! Port Impedance         50               0                50               0                
49.8                           0.0607073627022681 32.2251691493897 0.915117973505164 -163.044558987758 0.915117973505166 -163.044558987758 0.0612121616747727 32.1444359460729 
! Gamma         0                0                0                0                
! Port Impedance         50               0                50               0                
49.9                           0.0681752648025447 45.5373250337755 0.914293171786806 -164.533715489558 0.914293171786807 -164.533715489558 0.0686423292275193 45.3594019091594 
! Gamma         0                0                0                0                
! Port Impedance         50               0                50               0                
50                             0.0791820525290525 55.3828911701169 0.913157147942285 -166.023949303396 0.913157147942286 -166.023949303396 0.0795988313155888 55.165790594391  
! Gamma         0                0                0                0                
! Port Impedance         50               0                50               0                
50.1                           0.0924757827889477 62.2496928374505 0.911709762903428 -167.514265574571 0.911709762903429 -167.514265574571 0.092844666031025 62.0277049873943 
! Gamma         0                0                0                0                
! Port Impedance         50               0                50               0                
50.2                           0.107195653700808 66.9384517962169 0.909952223438176 -169.003665287631 0.909952223438177 -169.003665287631 0.10752377220622 66.7263851500428 
! Gamma         0                0                0                0                
! Port Impedance         50               0                50               0                
50.3                           0.122804218639237 70.1079378718015 0.907887074574624 -170.49115059994 0.907887074574624 -170.49115059994 0.123098837888189 69.9106669357552 
! Gamma         0                0                0                0                
! Port Impedance         50               0                50               0                
50.4                           0.138967409117849 72.218372364105  0.905518177538959 -171.975730157176 0.905518177538959 -171.975730157176 0.1392346282823  72.0365365439905 
! Gamma         0                0                0                0                
! Port Impedance         50               0                50               0                
50.5                           0.15547048298234 73.578274813324  0.902850673607512 -173.456424322524 0.902850673607512 -173.456424322524 0.155715126367805 73.4109108621123 
! Gamma         0                0                0                0                
! Port Impedance         50               0                50               0                
50.6                           0.172168753918764 74.3947434196349 0.899890934566539 -174.932270253447 0.89989093456654 -174.932270253447 0.172394577791405 74.2403969540321 
! Gamma         0                0                0                0                
! Port Impedance         50               0                50               0                
50.7                           0.188959792560186 74.8091793070176 0.896646500744184 -176.402326763486 0.896646500744185 -176.402326763486 0.189169725505961 74.6663495602356 
! Gamma         0                0                0                0                
! Port Impedance         50               0                50               0                
50.8                           0.2057676207188  74.920293043268  0.893126007818334 -177.865678911602 0.893126007818334 -177.865678911602 0.205963965077008 74.7875964469361 
! Gamma         0                0                0                0                
! Port Impedance         50               0                50               0                
50.9                           0.222533508905672 74.798601547284  0.889339103804498 -179.321442267803 0.889339103804499 -179.321442267803 0.222718094678115 74.6748191572439 
! Gamma         0                0                0                0                
! Port Impedance         50               0                50               0                
51                             0.239210463853667 74.4956111943116 0.885296357783848 179.231233188905 0.885296357783848 179.231233188905 0.239384762763257 74.3796898204103 
! Gamma         0                0                0                0                
! Port Impedance         50               0                50               0                
51.1                           0.255759829918333 74.0497273739255 0.881009162039785 177.793159576254 0.881009162039785 177.793159576254 0.255925039345872 73.9407639145562 
! Gamma         0                0                0                0                
! Port Impedance         50               0                50               0                
51.2                           0.272149134763917 73.4901327335172 0.876489629330601 176.365108045607 0.8764896293306  176.365108045607 0.272306239723044 73.387354017838  
! Gamma         0                0                0                0                
! Port Impedance         50               0                50               0                
51.3                           0.28835068682382 72.8393850814198 0.871750487036566 174.94780616887  0.871750487036565 174.947806168869 0.288500506089448 72.7421281380774 
! Gamma         0                0                0                0                
! Port Impedance         50               0                50               0                
51.4                           0.304340637772212 72.1151929709935 0.866804969885182 173.541935785614 0.866804969885179 173.541935785614 0.304483858563164 72.0228874713397 
! Gamma         0                0                0                0                
! Port Impedance         50               0                50               0                
51.5                           0.320098338514813 71.3316526902948 0.861666712882147 172.148131312351 0.861666712882146 172.148131312351 0.320235542855611 71.243805976472  
! Gamma         0                0                0                0                
! Port Impedance         50               0                50               0                
51.6                           0.3356058835844  70.5001256346188 0.856349645964011 170.766978508077 0.856349645964011 170.766978508077 0.335737568562616 70.4163102089131 
! Gamma         0                0                0                0                
! Port Impedance         50               0                50               0                
51.7                           0.350847778090274 69.629871110972  0.850867891747394 169.399013683147 0.850867891747393 169.399013683147 0.350974371589376 69.5497142794152 
! Gamma         0                0                0                0                
! Port Impedance         50               0                50               0                
51.8                           0.365810685195847 68.7285099157321 0.845235667586647 168.044723332294 0.845235667586646 168.044723332294 0.365932558238628 68.6516852444973 
! Gamma         0                0                0                0                
! Port Impedance         50               0                50               0                
51.9                           0.380483226902803 67.8023689109112 0.839467192973509 166.704544167278 0.839467192973508 166.704544167278 0.380600703428751 67.7285891785441 
! Gamma         0                0                0                0                
! Port Impedance         50               0                50               0                
52                             0.394855820320328 66.856740650736  0.833576603125993 165.378863520326 0.833576603125992 165.378863520326 0.3949691850001  66.7857520229804 
! Gamma         0                0                0                0                
! Port Impedance         50               0                50               0                
52.1                           0.408920537681935 65.8960815131004 0.827577869425721 164.068020086201 0.827577869425721 164.068020086201 0.409030042215383 65.8276587131185 
! Gamma         0                0                0                0                
! Port Impedance         50               0                50               0                
52.2                           0.42267098237519 64.9241647317554 0.82148472717882 162.772304968375 0.821484727178819 162.772304968375 0.422776850606757 64.8581070202829 
! Gamma         0                0                0                0                
! Port Impedance         50               0                50               0                
52.3                           0.436102175917865 63.9441999495552 0.81531061100048 161.491962993383 0.815310611000479 161.491962993383 0.436204608021363 63.8803277650424 
! Gamma         0                0                0                0                
! Port Impedance         50               0                50               0                
52.4                           0.449210452608714 62.9589276346011 0.809068597960891 160.227194256841 0.80906859796089 160.227194256841 0.449309628533653 62.8970797725952 
! Gamma         0                0                0                0                
! Port Impedance         50               0                50               0                
52.5                           0.461993359794162 61.9706944193631 0.802771358483791 158.978155864885 0.802771358483791 158.978155864885 0.462089442121366 61.9107256539984 
! Gamma         0                0                0                0                
! Port Impedance         50               0                50               0                
52.6                           0.474449562510954 60.9815138142874 0.796431114860032 157.744963835593 0.796431114860032 157.744963835593 0.474542698832221 60.9232928836572 
! Gamma         0                0                0                0                
! Port Impedance         50               0                50               0                
52.7                           0.486578751813249 59.9931155997819 0.79005960712863 156.527695126476 0.79005960712863 156.527695126476 0.486669076724729 59.936523492061  
! Gamma         0                0                0                0                
! Port Impedance         50               0                50               0                
52.8                           0.498381556453246 59.0069863725523 0.783668065987025 155.326389755964 0.783668065987024 155.326389755964 0.498469193233371 58.9519148617562 
! Gamma         0                0                0                0                
! Port Impedance         50               0                50               0                
52.9                           0.509859457814231 58.0244031187346 0.777267192320275 154.14105298908  0.777267192320275 154.14105298908  0.509944519842434 57.9707535085776 
! Gamma         0                0                0                0                
! Port Impedance         50               0                50               0                
53                             0.521014708133102 57.0464612420315 0.770867142884848 152.97165756     0.770867142884847 152.97165756     0.521097300094332 56.9941432840114 
! Gamma         0                0                0                0                
! Port Impedance         50               0                50               0                
53.1                           0.531850252123802 56.0740981451497 0.764477521645395 151.818145906829 0.764477521645393 151.818145906829 0.53193047103513 56.0230291031097 
! Gamma         0                0                0                0                
! Port Impedance         50               0                50               0                
53.2                           0.542369652143654 55.1081132157023 0.758107376240308 150.680432396659 0.758107376240306 150.680432396659 0.542447588232421 55.0582170540488 
! Gamma         0                0                0                0                
! Port Impedance         50               0                50               0                
53.3                           0.552577017045677 54.1491848812201 0.751765199042866 149.558405521696 0.751765199042865 149.558405521696 0.552652754503147 54.1003915579562 
! Gamma         0                0                0                0                
! Port Impedance         50               0                50               0                
53.4                           0.562476934841824 53.1978852560397 0.745458932286861 148.451930049946 0.74545893228686 148.451930049946 0.562550552472092 53.1501301049806 
! Gamma         0                0                0                0                
! Port Impedance         50               0                50               0                
53.5                           0.572074409272517 52.2546927942126 0.739195976737437 147.36084911649  0.739195976737435 147.36084911649  0.572145981052883 52.2079159833767 
! Gamma         0                0                0                0                
! Port Impedance         50               0                50               0                
53.6                           0.581374800342045 51.3200032788417 0.732983203407123 146.284986243844 0.732983203407123 146.284986243844 0.581444395908379 51.2741493341382 
! Gamma         0                0                0                0                
! Port Impedance         50               0                50               0                
53.7                           0.590383768841477 50.3941394132981 0.726826967842596 145.224147282162 0.726826967842596 145.224147282163 0.590451453909757 50.349156798382  
! Gamma         0                0                0                0                
! Port Impedance         50               0                50               0                
53.8                           0.599107224843146 49.4773592290769 0.72073312653743 144.178122262129 0.720733126537429 144.178122262129 0.599173061576575 49.4331999736821 
! Gamma         0                0                0                0                
! Port Impedance         50               0                50               0                
53.9                           0.607551280115617 48.5698634852627 0.714707055059012 143.146687155284 0.714707055059011 143.146687155284 0.607615327445205 48.5264828555159 
! Gamma         0                0                0                0                
! Port Impedance         50               0                50               0                
54                             0.615722204376236 47.671802203155  0.708753667512524 142.129605538215 0.70875366751252 142.129605538215 0.615784518281486 47.629158408348  
! Gamma         0                0                0                0                
! Port Impedance         50               0                50               0                
54.1                           0.623626385270761 46.7832804546507 0.702877437000406 141.126630158554 0.702877437000405 141.126630158554 0.623687019026078 46.7413343857797 
! Gamma         0                0                0                0                
! Port Impedance         50               0                50               0                
54.2                           0.631270291946347 45.9043635030529 0.697082416771152 140.137504402012 0.69708241677115 140.137504402012 0.631329296337922 45.8630784991118 
! Gamma         0                0                0                0                
! Port Impedance         50               0                50               0                
54.3                           0.638660442065358 45.0350813789693 0.691372261786049 139.161963660819 0.691372261786048 139.161963660819 0.638717865582605 44.9944230175557 
! Gamma         0                0                0                0                
! Port Impedance         50               0                50               0                
54.4                           0.645803372093105 44.1754329610144 0.685750250465821 138.199736604865 0.685750250465818 138.199736604865 0.645859261098072 44.1353688702969 
! Gamma         0                0                0                0                
! Port Impedance         50               0                50               0                
54.5                           0.652705610682052 43.3253896205195 0.680219306410875 137.250546357645 0.680219306410871 137.250546357645 0.652760009559778 43.285889310015  
! Gamma         0                0                0                0                
! Port Impedance         50               0                50               0                
54.6                           0.659373654968316 42.4848984808446 0.674782019918561 136.314111579744 0.674782019918558 136.314111579743 0.65942660626065 42.4459331888018 
! Gamma         0                0                0                0                
! Port Impedance         50               0                50               0                
54.7                           0.665813949592703 41.6538853347957 0.669440669148324 135.390147463104 0.669440669148325 135.390147463104 0.665865494117751 41.6154278902751 
! Gamma         0                0                0                0                
! Port Impedance         50               0                50               0                
54.8                           0.672032868257799 40.8322572577885 0.664197240810847 134.478366639713 0.664197240810848 134.478366639713 0.672083045216861 40.7942819557747 
! Gamma         0                0                0                0                
! Port Impedance         50               0                50               0                
54.9                           0.678036697634341 40.0199049494938 0.659053450280217 133.578480008632 0.659053450280216 133.578480008632 0.678085544707935 39.9823874375938 
! Gamma         0                0                0                0                
! Port Impedance         50               0                50               0                
55                             0.683831623433752 39.2167048325953 0.654010761048637 132.690197485499 0.654010761048635 132.690197485499 0.683879176868106 39.1796220080553 
! Gamma         0                0                0                0                
! Port Impedance         50               0                50               0                
55.1                           0.689423718469048 38.4225209338116 0.649070403461584 131.813228678721 0.649070403461582 131.813228678721 0.689470013154248 38.3858508497429 
! Gamma         0                0                0                0                
! Port Impedance         50               0                50               0                
55.2                           0.69481893253295 37.6372065693807 0.644233392687501 130.947283496667 0.644233392687498 130.947283496667 0.694864002073764 37.6009283492209 
! Gamma         0                0                0                0                
! Port Impedance         50               0                50               0                
55.3                           0.700023083929551 36.8606058546761 0.639500545890225 130.092072690134 0.63950054589022 130.092072690134 0.700066960709828 36.8246996140287 
! Gamma         0                0                0                0                
! Port Impedance         50               0                50               0                
55.4                           0.705041852504232 36.0925550554412 0.634872498584602 129.247308334316 0.634872498584599 129.247308334316 0.705084567745626 36.0570018305352 
! Gamma         0                0                0                0                
! Port Impedance         50               0                50               0                
55.5                           0.709880774025189 35.3328837962446 0.630349720166417 128.412704254428 0.630349720166417 128.412704254428 0.709922357840889 35.2976654783484 
! Gamma         0                0                0                0                
! Port Impedance         50               0                50               0                
55.6                           0.714545235779015 34.58141614011   0.625932528616471 127.587976399    0.62593252861647 127.587976399    0.714585717223042 34.5465154153046 
! Gamma         0                0                0                0                
! Port Impedance         50               0                50               0                
55.7                           0.719040473251801 33.8379715518353 0.6216211043863  126.77284316472  0.621621104386297 126.77284316472  0.719079880364383 33.8033718456229 
! Gamma         0                0                0                0                
! Port Impedance         50               0                50               0                
55.8                           0.723371567776355 33.1023657562467 0.61741550347923 125.967025676554 0.617415503479228 125.967025676554 0.723409927625802 33.0680511825261 
! Gamma         0                0                0                0                
! Port Impedance         50               0                50               0                
55.9                           0.727543445034947 32.3744115015113 0.61331566974546 125.170248026673 0.613315669745457 125.170248026673 0.727580783756408 32.3403668155039 
! Gamma         0                0                0                0                
! Port Impedance         50               0                50               0                
56                             0.731560874315706 31.6539192366354 0.609321446413879 124.382237475565 0.609321446413881 124.382237475566 0.731597217147139 31.6201297913902 
! Gamma         0                0                0                0                
! Port Impedance         50               0                50               0                
56.1                           0.735428468429061 30.9406977113923 0.605432586886586 123.602724618497 0.605432586886583 123.602724618496 0.735463839744688 30.9071494175361 
! Gamma         0                0                0                0                
! Port Impedance         50               0                50               0                
56.2                           0.739150684198596 30.2345545061249 0.601648764824328 122.831443520316 0.601648764824323 122.831443520315 0.739185107540105 30.2012337945616 
! Gamma         0                0                0                0                
! Port Impedance         50               0                50               0                
56.3                           0.742731823448241 29.5352964981614 0.597969583552832 122.068131821402 0.597969583552834 122.068131821402 0.742765321553944 29.5021902854511 
! Gamma         0                0                0                0                
! Port Impedance         50               0                50               0                
56.4                           0.746176034414802 28.8427302709436 0.594394584821155 121.312530817371 0.594394584821157 121.312530817371 0.746208629246932 28.8098259271226 
! Gamma         0                0                0                0                
! Port Impedance         50               0                50               0                
56.5                           0.749487313521539 28.1566624713891 0.590923256943653 120.56438551497  0.590923256943652 120.56438551497  0.749519026291867 28.123947790013  
! Gamma         0                0                0                0                
! Port Impedance         50               0                50               0                
56.6                           0.752669507454705 27.476900120493  0.587555042357657 119.823444666431 0.587555042357653 119.823444666431 0.752700358648597 27.4443632907093 
! Gamma         0                0                0                0                
! Port Impedance         50               0                50               0                
56.7                           0.755726315490736 26.8032508817027 0.584289344628523 119.089460784369 0.584289344628524 119.089460784369 0.755756324889806 26.7708804621749 
! Gamma         0                0                0                0                
! Port Impedance         50               0                50               0                
56.8                           0.758661292027151 26.135523291178  0.581125534933612 118.362190139159 0.581125534933609 118.362190139158 0.758690478730589 26.1033081857025 
! Gamma         0                0                0                0                
! Port Impedance         50               0                50               0                
56.9                           0.761477849275114 25.4735269536603 0.578062958055799 117.641392740566 0.5780629580558  117.641392740566 0.761506231719813 25.4414563883309 
! Gamma         0                0                0                0                
! Port Impedance         50               0                50               0                
57                             0.764179260076169 24.8170727073288 0.575100937916686 116.926832305275 0.575100937916681 116.926832305275 0.764206856055713 24.7851362091187 
! Gamma         0                0                0                0                
! Port Impedance         50               0                50               0                
57.1                           0.766768660809741 24.1659727607056 0.572238782678274 116.218276211799 0.57223878267827 116.218276211799 0.766795487492353 24.1341601373455 
! Gamma         0                0                0                0                
! Port Impedance         50               0                50               0                
57.2                           0.769249054361846 23.5200408043808 0.569475789441264 115.515495444151 0.569475789441266 115.515495444151 0.769275128307336 23.4883421254263 
! Gamma         0                0                0                0                
! Port Impedance         50               0                50               0                
57.3                           0.77162331312878 22.8790921000719 0.566811248566644 114.818264525517 0.566811248566644 114.818264525516 0.771648650304575 22.8474976790595 
! Gamma         0                0                0                0                
! Port Impedance         50               0                50               0                
57.4                           0.77389418203276 22.2429435492916 0.564244447646155 114.126361443071 0.564244447646153 114.126361443071 0.773918797829047 22.2114439268939 
! Gamma         0                0                0                0                
! Port Impedance         50               0                50               0                
57.5                           0.776064281529223 21.6114137436852 0.561774675146055 113.439567564963 0.561774675146051 113.439567564963 0.776088190773267 21.5799996717813 
! Gamma         0                0                0                0                
! Port Impedance         50               0                50               0                
57.6                           0.778136110588052 20.9843229988996 0.559401223747269 112.757667550404 0.559401223747271 112.757667550404 0.778159327557717 20.952985425485  
! Gamma         0                0                0                0                
! Port Impedance         50               0                50               0                
57.7                           0.780112049633259 20.361493373672  0.557123393403815 112.080449253705 0.557123393403815 112.080449253705 0.780134588069775 20.3302234285387 
! Gamma         0                0                0                0                
! Port Impedance         50               0                50               0                
57.8                           0.781994363427684 19.7427486756611 0.554940494140082 111.407703623018 0.554940494140078 111.407703623018 0.782016236547689 19.7115376567821 
! Gamma         0                0                0                0                
! Port Impedance         50               0                50               0                
57.9                           0.783785203891088 19.1279144553979 0.552851848606434 110.739224594461 0.552851848606429 110.73922459446  0.783806424397965 19.0967538159585 
! Gamma         0                0                0                0                
! Port Impedance         50               0                50               0                
58                             0.785486612841617 18.5168179896004 0.550856794411408 110.074808982244 0.550856794411407 110.074808982244 0.785507192936165 18.4856993256205 
! Gamma         0                0                0                0                
! Port Impedance         50               0                50               0                
58.1                           0.787100524652068 17.9092882549739 0.548954686247485 109.414256365337 0.548954686247483 109.414256365336 0.787120476042519 17.8782032934703 
! Gamma         0                0                0                0                
! Port Impedance         50               0                50               0                
58.2                           0.788628768813643 17.3051558935092 0.547144897826448 108.757368971157 0.547144897826446 108.757368971157 0.788648102725041 17.274096481152  
! Gamma         0                0                0                0                
! Port Impedance         50               0                50               0                
58.3                           0.79007307240096 16.7042531701897 0.545426823639276 108.103951556725 0.545426823639275 108.103951556725 0.790091799583932 16.6732112624079 
! Gamma         0                0                0                0                
! Port Impedance         50               0                50               0                
58.4                           0.791435062433134 16.1064139239313 0.543799880554296 107.453811287639 0.543799880554294 107.453811287639 0.791453193172045 16.0753815744268 
! Gamma         0                0                0                0                
! Port Impedance         50               0                50               0                
58.5                           0.792716268126513 15.5114735124904 0.542263509266579 106.80675761523  0.542263509266575 106.806757615229 0.792733812247043 15.4804428631233 
! Gamma         0                0                0                0                
! Port Impedance         50               0                50               0                
58.6                           0.793918123035447 14.9192687520092 0.540817175610421 106.162602152165 0.540817175610422 106.162602152165 0.793935089911585 14.8882320230173 
! Gamma         0                0                0                0                
! Port Impedance         50               0                50               0                
58.7                           0.795041967078083 14.329637851792  0.539460371745997 105.521158546769 0.539460371745993 105.521158546769 0.795058365638545 14.2985873323109 
! Gamma         0                0                0                0                
! Port Impedance         50               0                50               0                
58.8                           0.796089048444733 13.7424203448512 0.538192617230221 104.882242356265 0.538192617230219 104.882242356265 0.796104887178822 13.711348383705  
! Gamma         0                0                0                0                
! Port Impedance         50               0                50               0                
58.9                           0.797060525386811 13.1574570147046 0.537013459981281 104.245670919132 0.53701345998128 104.245670919132 0.797075812349715 13.1263560114342 
! Gamma         0                0                0                0                
! Port Impedance         50               0                50               0                
59                             0.797957467884742 12.5745898188548 0.535922477145326 103.611263226733 0.535922477145324 103.611263226733 0.797972210702281 12.5434522149578 
! Gamma         0                0                0                0                
! Port Impedance         50               0                50               0                
59.1                           0.798780859193553 11.9936618093415 0.534919275873114 102.978839794343 0.534919275873115 102.978839794343 0.798795065066369 11.962480079695  
! Gamma         0                0                0                0                
! Port Impedance         50               0                50               0                
59.2                           0.799531597265137 11.414517050711  0.534003494013774 102.348222531687 0.534003494013772 102.348222531686 0.799545272972344 11.3832836951518 
! Gamma         0                0                0                0                
! Port Impedance         50               0                50               0                
59.3                           0.800210496046385 10.8370005357197 0.533174800732005 101.719234613071 0.533174800732001 101.719234613071 0.800223647948662 10.8057080707568 
! Gamma         0                0                0                0                
! Port Impedance         50               0                50               0                
59.4                           0.800818286652538 10.260958099049  0.532432897054654 101.09170034719  0.532432897054647 101.091700347189 0.80083092069467 10.2295990496832 
! Gamma         0                0                0                0                
! Port Impedance         50               0                50               0                
59.5                           0.801355618415254 9.68623632928768 0.531777516351653 100.46544504663  0.531777516351652 100.46544504663  0.801367740128128 9.65480322091643 
! Gamma         0                0                0                0                
! Port Impedance         50               0                50               0                
59.6                           0.801823059804963 9.11268247940783 0.531208424756081 99.8402948971535 0.531208424756079 99.8402948971531 0.801834674306998 9.08116782979087 
! Gamma         0                0                0                0                
! Port Impedance         50               0                50               0                
59.7                           0.802221099227136 8.54014437594434 0.530725421527163 99.2160768267381 0.530725421527161 99.2160768267378 0.802232211225154 8.50854068720865 
! Gamma         0                0                0                0                
! Port Impedance         50               0                50               0                
59.8                           0.80255014569213 7.96847032706406 0.530328339359861 98.5926183744242 0.530328339359855 98.5926183744237 0.802560759481657 7.93677007772533 
! Gamma         0                0                0                0                
! Port Impedance         50               0                50               0                
59.9                           0.802810529358272 7.39750902970066 0.530017044643799 97.9697475589491 0.530017044643797 97.9697475589489 0.802820648823267 7.3657046666799  
! Gamma         0                0                0                0                
! Port Impedance         50               0                50               0                
60                             0.803002501947847 6.82710947591505 0.529791437674143 97.3472927471828 0.529791437674144 97.3472927471826 0.803012130559836 6.79519340652823 
! Gamma         0                0                0                0                
! Port Impedance         50               0                50               0                
60.1                           0.803126237035573 6.25712085863095 0.529651452816118 96.7250825223351 0.529651452816118 96.7250825223347 0.803135377852194 6.22508544252992 
! Gamma         0                0                0                0                
! Port Impedance         50               0                50               0                
60.2                           0.803181830209174 5.68739247689032 0.529597058624799 96.1029455519357 0.529597058624798 96.1029455519354 0.803190485872107 5.65523001793327 
! Gamma         0                0                0                0                
! Port Impedance         50               0                50               0                
60.3                           0.803169299101537 5.11777364076468 0.529628257920947 95.4807104555608 0.529628257920947 95.4807104555606 0.803177471833812 5.08547637879401 
! Gamma         0                0                0                0                
! Port Impedance         50               0                50               0                
60.4                           0.803088583293921 4.54811357605914 0.529745087823456 94.8582056722835 0.529745087823454 94.8582056722832 0.803096274896587 4.51567367856408 
! Gamma         0                0                0                0                
! Port Impedance         50               0                50               0                
60.5                           0.802939544089577 3.97826132894067 0.529947619738271 94.2352593278231 0.529947619738269 94.2352593278228 0.802946755937711 3.94567088258193 
! Gamma         0                0                0                0                
! Port Impedance         50               0                50               0                
60.6                           0.802721964157107 3.408065670631   0.530235959303378 93.611699101383  0.530235959303376 93.6116991013827 0.802728697195155 3.37531667260405 
! Gamma         0                0                0                0                
! Port Impedance         50               0                50               0                
60.7                           0.802435547042774 2.83737500230113 0.530610246288768 92.9873520921375 0.530610246288769 92.9873520921378 0.802441801779186 2.80445935151373 
! Gamma         0                0                0                0                
! Port Impedance         50               0                50               0                
60.8                           0.802079916550953 2.26603726031818 0.531070654449922 92.3620446853681 0.53107065444992 92.3620446853679 0.802085693052103 2.23294674835746 
! Gamma         0                0                0                0                
! Port Impedance         50               0                50               0                
60.9                           0.801654615991792 1.69389982200108 0.53161739133282 91.7356024182221 0.531617391332819 91.7356024182218 0.801659913875144 1.6606261238638  
! Gamma         0                0                0                0                
! Port Impedance         50               0                50               0                
61                             0.801159107295147 1.1208094120538  0.532250698027939 91.1078498450947 0.532250698027937 91.1078498450944 0.801163925721658 1.08734407661362 
! Gamma         0                0                0                0                
! Port Impedance         50               0                50               0                
61.1                           0.800592769989795 0.546612009863091 0.532970848870187 90.4786104026281 0.532970848870186 90.4786104026278 0.800597107655506 0.512946450045353 
! Gamma         0                0                0                0                
! Port Impedance         50               0                50               0                
61.2                           0.799954900046889 -0.028847242139308 0.533778151081175 89.8477062743433 0.533778151081174 89.847706274343  0.799958755173681 -0.0627217595036147 
! Gamma         0                0                0                0                
! Port Impedance         50               0                50               0                
61.3                           0.799244708586636 -0.605724128822705 0.534672944349659 89.2149582549168 0.534672944349656 89.2149582549163 0.799248078912109 -0.63981649349615 
! Gamma         0                0                0                0                
! Port Impedance         50               0                50               0                
61.4                           0.798461320447168 -1.18417545116606 0.535655600345332 88.5801856141396 0.535655600345332 88.5801856141395 0.798464203213617 -1.21849472038938 
! Gamma         0                0                0                0                
! Port Impedance         50               0                50               0                
61.5                           0.797603772614646 -1.76435911324935 0.536726522160631 87.9432059606021 0.536726522160628 87.9432059606018 0.797606164557071 -1.79891452304671 
! Gamma         0                0                0                0                
! Port Impedance         50               0                50               0                
61.6                           0.796671012513696 -2.34643420711977 0.537886143674399 87.3038351051711 0.537886143674398 87.3038351051706 0.796672909846822 -2.38123518406176 
! Gamma         0                0                0                0                
! Port Impedance         50               0                50               0                
61.7                           0.795661896157402 -2.93056109518514 0.539134928830789 86.6618869243388 0.539134928830788 86.6618869243385 0.795663294561643 -2.96561726864894 
! Gamma         0                0                0                0                
! Port Impedance         50               0                50               0                
61.8                           0.794575186156215 -3.51690148974808 0.540473370825755 86.0171732235446 0.540473370825753 86.017173223544  0.794576080762543 -3.55222270471704 
! Gamma         0                0                0                0                
! Port Impedance         50               0                50               0                
61.9                           0.793409549585398 -4.10561852924495 0.541901991193066 85.3695036006029 0.541901991193066 85.3695036006028 0.793409934959037 -4.14121485969252 
! Gamma         0                0                0                0                
! Port Impedance         50               0                50               0                
62                             0.79216355571082 -4.69687685070351 0.543421338780639 84.7186853093879 0.543421338780638 84.7186853093878 0.792163425833736 -4.73275861360994 
! Gamma         0                0                0                0                
! Port Impedance         50               0                50               0                
62.1                           0.790835673573331 -5.29084265787432 0.545031988607379 84.0645231239561 0.545031988607376 84.0645231239556 0.790835021825411 -5.327020427928  
! Gamma         0                0                0                0                
! Port Impedance         50               0                50               0                
62.2                           0.78942426943227 -5.88768378442406 0.546734540589655 83.4068192033299 0.546734540589651 83.4068192033295 0.789423088571151 -5.92416840946336 
! Gamma         0                0                0                0                
! Port Impedance         50               0                50               0                
62.3                           0.787927604069224 -6.48756975150886 0.54852961812571 82.745372957193  0.548529618125707 82.7453729571926 0.787925886208671 -6.52437236876441 
! Gamma         0                0                0                0                
! Port Impedance         50               0                50               0                
62.4                           0.78634382995371 -7.09067181896122 0.55041786652515 82.0799809127904 0.55041786652515 82.0799809127906 0.786341566540459 -7.12780387216398 
! Gamma         0                0                0                0                
! Port Impedance         50               0                50               0                
62.5                           0.78467098827313 -7.69716302923787 0.5523999512698  81.4104365833791 0.552399951269797 81.4104365833787 0.784668170062115 -7.73463628666275 
! Gamma         0                0                0                0                
! Port Impedance         50               0                50               0                
62.6                           0.782907005830231 -8.30721824317103 0.554476556090888 80.7365303386136 0.554476556090886 80.7365303386132 0.782903622858074 -8.34504481669253 
! Gamma         0                0                0                0                
! Port Impedance         50               0                50               0                
62.7                           0.781049691812166 -8.9210141664596 0.55664838084654 80.0580492773157 0.556648380846537 80.0580492773152 0.781045733368844 -8.95920653170171 
! Gamma         0                0                0                0                
! Port Impedance         50               0                50               0                
62.8                           0.779096734436455 -9.53872936570773 0.558916139182206 79.3747771031301 0.558916139182205 79.3747771031298 0.77909218903499 -9.57730038337785 
! Gamma         0                0                0                0                
! Port Impedance         50               0                50               0                
62.9                           0.777045697480328 -10.160544272685 0.561280555955455 78.6864940036408 0.561280555955453 78.6864940036404 0.77704055282441 -10.1995072111894 
! Gamma         0                0                0                0                
! Port Impedance         50               0                50               0                
63                             0.774894016701475 -10.7866411753293 0.563742364405191 77.992976533588  0.56374236440519 77.9929765335879 0.774888259650835 -10.8260097347762 
! Gamma         0                0                0                0                
! Port Impedance         50               0                50               0                
63.1                           0.772638996159846 -11.4172041938434 0.566302303044024 77.293997502914  0.566302303044021 77.2939975029135 0.772632612693258 -11.4569925315499 
! Gamma         0                0                0                0                
! Port Impedance         50               0                50               0                
63.2                           0.770277804452093 -12.0524192400512 0.568961112251033 76.5893258704381 0.56896111225103 76.5893258704376 0.77027077962781 -12.0926419976803 
! Gamma         0                0                0                0                
! Port Impedance         50               0                50               0                
63.3                           0.767807470872381 -12.6924739579706 0.571719530540818 75.8787266440788 0.571719530540817 75.8787266440789 0.767799788785831 -12.733146290437 
! Gamma         0                0                0                0                
! Port Impedance         50               0                50               0                
63.4                           0.765224881515771 -13.3375576433309 0.574578290483137 75.1619607886128 0.574578290483135 75.1619607886127 0.765216525254317 -13.3786952496277 
! Gamma         0                0                0                0                
! Port Impedance         50               0                50               0                
63.5                           0.76252677534313 -13.9878611395077 0.577538114245996 74.4387851420966 0.577538114245992 74.4387851420961 0.762517726937644 -14.0294802956198 
! Gamma         0                0                0                0                
! Port Impedance         50               0                50               0                
63.6                           0.759709740229641 -14.6435767070637 0.580599708733624 73.708952342188  0.580599708733621 73.7089523421879 0.759699980602686 -14.6856943011515 
! Gamma         0                0                0                0                
! Port Impedance         50               0                50               0                
63.7                           0.756770209022442 -15.3048978637732 0.583763760289129 72.9722107637297 0.583763760289127 72.9722107637296 0.756759717932756 -15.3475314338274 
! Gamma         0                0                0                0                
! Port Impedance         50               0                50               0                
63.8                           0.753704455636886 -15.972019191656 0.587030928930373 72.2283044691012 0.587030928930373 72.2283044691013 0.753693211619898 -16.0151869658458 
! Gamma         0                0                0                0                
! Port Impedance         50               0                50               0                
63.9                           0.750508591225154 -16.6451361071639 0.590401842086123 71.4769731729963 0.590401842086118 71.4769731729959 0.750496571529189 -16.6888570471224 
! Gamma         0                0                0                0                
! Port Impedance         50               0                50               0                
64                             0.747178560455884 -17.3244445902308 0.593877087798299 70.7179522234387 0.593877087798296 70.7179522234384 0.747165740973705 -17.3687384375482 
! Gamma         0                0                0                0                
! Port Impedance         50               0                50               0                
64.1                           0.743710137948731 -18.0101408674201 0.597457207355104 69.950972601028  0.597457207355101 69.9509726010279 0.743696493144012 -18.0550281936446 
! Gamma         0                0                0                0                
! Port Impedance         50               0                50               0                
64.2                           0.740098924913722 -18.7024210438747 0.601142687318676 69.1757609385781 0.601142687318672 69.1757609385778 0.740084427742007 -18.747923304351 
! Gamma         0                0                0                0                
! Port Impedance         50               0                50               0                
64.3                           0.736340346051736 -19.4014806781827 0.604933950910415 68.3920395635078 0.604933950910412 68.3920395635074 0.7363249678754  -19.4476202700972 
! Gamma         0                0                0                0                
! Port Impedance         50               0                50               0                
64.4                           0.732429646779586 -20.1075142936101 0.608831348716604 67.599526565553  0.6088313487166  67.5995265655526 0.732413357276229 -20.1543146186509 
! Gamma         0                0                0                0                
! Port Impedance         50               0                50               0                
64.5                           0.728361890850888 -20.8207148184239 0.612835148676925 66.7979358925704 0.612835148676922 66.7979358925705 0.728344657914584 -20.868200350511 
! Gamma         0                0                0                0                
! Port Impedance         50               0                50               0                
64.6                           0.724131958452453 -21.541272947198 0.616945525318876 65.9869774774264 0.616945525318872 65.9869774774262 0.724113748087119 -21.5894693057919 
! Gamma         0                0                0                0                
! Port Impedance         50               0                50               0                
64.7                           0.719734544865044 -22.2693764140826 0.62116254820205 65.1663573991993 0.621162548202045 65.1663573991991 0.719715321069202 -22.3183104436372 
! Gamma         0                0                0                0                
! Port Impedance         50               0                50               0                
64.8                           0.715164159787223 -23.0052091679815 0.625486169537802 64.3357780821483 0.625486169537799 64.3357780821483 0.71514388442928 -23.0549090241769 
! Gamma         0                0                0                0                
! Port Impedance         50               0                50               0                
64.9                           0.710415127431711 -23.74895043842  0.629916210952151 63.4949385361491 0.629916210952149 63.4949385361492 0.710393760114773 -23.7994456818858 
! Gamma         0                0                0                0                
! Port Impedance         50               0                50               0                
65                             0.705481587514906 -24.5007736795847 0.63445234936303 62.6435346425231 0.634452349363028 62.6435346425232 0.705459085430065 -24.5520953779118 
! Gamma         0                0                0                0                
! Port Impedance         50               0                50               0                
65.1                           0.700357497272329 -25.2608453785255 0.639094101947156 61.7812594894395 0.639094101947152 61.7812594894397 0.700333815039138 -25.3130262174664 
! Gamma         0                0                0                0                
! Port Impedance         50               0                50               0                
65.2                           0.695036634645343 -26.0293237118502 0.643840810177278 60.9078037612797 0.643840810177275 60.9078037612798 0.695011724138141 -26.0823981167181 
! Gamma         0                0                0                0                
! Port Impedance         50               0                50               0                
65.3                           0.689512602797819 -26.8063570333151 0.648691622917252 60.0228561865899 0.648691622917249 60.0228561865896 0.689486412956251 -26.8603613017279 
! Gamma         0                0                0                0                
! Port Impedance         50               0                50               0                
65.4                           0.683778836135067 -27.5920821725498 0.653645478570691 59.1261040494333 0.653645478570686 59.1261040494332 0.683751312757052 -27.6470546198097 
! Gamma         0                0                0                0                
! Port Impedance         50               0                50               0                
65.5                           0.677828608011498 -28.3866225226408 0.65870108628889 58.217233769145  0.658701086288886 58.2172337691448 0.677799693526546 -28.4426036412194 
! Gamma         0                0                0                0                
! Port Impedance         50               0                50               0                
65.6                           0.671655040327617 -29.1900858914205 0.663856906255577 57.2959315536123 0.663856906255575 57.2959315536127 0.671624673548151 -29.247118526215 
! Gamma         0                0                0                0                
! Port Impedance         50               0                50               0                
65.7                           0.665251115231381 -30.0025620879645 0.669111129079984 56.3618841313347 0.669111129079981 56.3618841313345 0.665219231079371 -30.060691629224 
! Gamma         0                0                0                0                
! Port Impedance         50               0                50               0                
65.8                           0.658609689152689 -30.8241202119049 0.674461654345976 55.4147795675392 0.67446165434597 55.4147795675389 0.658576218358497 -30.8833948079933 
! Gamma         0                0                0                0                
! Port Impedance         50               0                50               0                
65.9                           0.651723509413306 -31.6548056086161 0.679906068383661 54.4543081696331 0.679906068383658 54.4543081696335 0.65168837818316 -31.7152764010898 
! Gamma         0                0                0                0                
! Port Impedance         50               0                50               0                
66                             0.644585233666979 -32.4946364479485 0.685441621351187 53.4801634871615 0.685441621351182 53.4801634871617 0.644548363314995 -32.5563578317955 
! Gamma         0                0                0                0                
! Port Impedance         50               0                50               0                
66.1                           0.637187452435612 -33.3435998778401 0.691065203738585 52.492043411269  0.691065203738582 52.4920434112691 0.637148758975515 -33.4066297901431 
! Gamma         0                0                0                0                
! Port Impedance         50               0                50               0                
66.2                           0.629522715016721 -34.201647696526 0.696773322432468 51.4896513783589 0.696773322432465 51.4896513783591 0.629482108707872 -34.2660479373216 
! Gamma         0                0                0                0                
! Port Impedance         50               0                50               0                
66.3                           0.621583559044713 -35.0686914779887 0.702562076510273 50.4726976822202 0.702562076510273 50.4726976822209 0.621540943885815 -35.1345280676738 
! Gamma         0                0                0                0                
! Port Impedance         50               0                50               0                
66.4                           0.613362543992628 -35.9445970742766 0.70842713296562 49.4409008983422 0.708427132965617 49.4409008983427 0.613317817155758 -36.0119406526047 
! Gamma         0                0                0                0                
! Port Impedance         50               0                50               0                
66.5                           0.604852288902454 -36.8291784049811 0.714363702601856 48.3939894233737 0.714363702601853 48.3939894233737 0.604805340098526 -36.8981046775155 
! Gamma         0                0                0                0                
! Port Impedance         50               0                50               0                
66.6                           0.596045514629148 -37.7221904278239 0.720366516369259 47.3317031318186 0.720366516369255 47.3317031318188 0.595996225394456 -37.7927806666742 
! Gamma         0                0                0                0                
! Port Impedance         50               0                50               0                
66.7                           0.586935090876989 -38.6233211642179 0.726429802461609 46.2537951509016 0.726429802461608 46.2537951509023 0.586883333768705 -38.695662771046 
! Gamma         0                0                0                0                
! Port Impedance         50               0                50               0                
66.8                           0.577514088295496 -39.5321826287873 0.732547264530302 45.1600337532327 0.732547264530299 45.1600337532329 0.577459725981608 -39.6063697694463 
! Gamma         0                0                0                0                
! Port Impedance         50               0                50               0                
66.9                           0.567775835886327 -40.4483004808549 0.738712061417303 44.0502043653201 0.738712061417301 44.0502043653206 0.567718720112944 -40.5244348026683 
! Gamma         0                0                0                0                
! Port Impedance         50               0                50               0                
67                             0.557713983952656 -41.3711021770686 0.744916788851956 42.9241116881753 0.744916788851954 42.9241116881758 0.557653954368292 -41.4492936217419 
! Gamma         0                0                0                0                
! Port Impedance         50               0                50               0                
67.1                           0.54732257279881 -42.2999033553864 0.751153463599227 41.781581924166  0.751153463599226 41.7815819241664 0.547259455611098 -42.3802710829235 
! Gamma         0                0                0                0                
! Port Impedance         50               0                50               0                
67.2                           0.536596107362073 -43.2338921185444 0.757413510587636 40.6224651019592 0.757413510587634 40.6224651019593 0.536529713797731 -43.3165655604345 
! Gamma         0                0                0                0                
! Port Impedance         50               0                50               0                
67.3                           0.525529637933149 -44.1721108058865 0.763687753581787 39.4466374887911 0.763687753581787 39.4466374887922 0.525459762465565 -44.2572308693116 
! Gamma         0                0                0                0                
! Port Impedance         50               0                50               0                
67.4                           0.514118847099598 -45.1134347406774 0.769966409995943 38.2540040764807 0.769966409995943 38.2540040764814 0.514045265401141 -45.2011551897602 
! Gamma         0                0                0                0                
! Port Impedance         50               0                50               0                
67.5                           0.502360143033721 -46.056547308558 0.776239090468662 37.0445011245345 0.776239090468661 37.0445011245347 0.502282609600236 -46.1470363538405 
! Gamma         0                0                0                0                
! Port Impedance         50               0                50               0                
67.6                           0.490250759250115 -46.9999105517931 0.782494803832775 35.8180987404651 0.782494803832774 35.8180987404653 0.490169004633433 -47.0933526854874 
! Gamma         0                0                0                0                
! Port Impedance         50               0                50               0                
67.7                           0.477788860989464 -47.9417302400985 0.788721968116877 34.5748034740437 0.788721968116877 34.5748034740441 0.477702588558547 -48.0383283624177 
! Gamma         0                0                0                0                
! Port Impedance         50               0                50               0                
67.8                           0.464973658459446 -48.8799140836286 0.794908428202008 33.3146608987657 0.794908428202008 33.3146608987661 0.464882540591961 -48.9798919750205 
! Gamma         0                0                0                0                
! Port Impedance         50               0                50               0                
67.9                           0.451805527302075 -49.8120213616187 0.80104148072767 32.0377581503283 0.801041480727672 32.0377581503288 0.451709200883838 -49.9156265674161 
! Gamma         0                0                0                0                
! Port Impedance         50               0                50               0                
68                             0.438286136890223 -50.7352017152543 0.807107906792615 30.7442263885748 0.807107906792617 30.7442263885756 0.438184197968411 -50.8427089235425 
! Gamma         0                0                0                0                
! Port Impedance         50               0                50               0                
68.1                           0.424418587426069 -51.6461201449018 0.81309401292569 29.4342431461738 0.813094012925695 29.4342431461747 0.424310584821826 -51.7578351558851 
! Gamma         0                0                0                0                
! Port Impedance         50               0                50               0                
68.2                           0.410207557382031 -52.5408642872485 0.818985680708979 28.1080345244797 0.81898568070898 28.1080345244799 0.410092985014524 -52.6571286935169 
! Gamma         0                0                0                0                
! Port Impedance         50               0                50               0                
68.3                           0.395659463676468 -53.4148287224717 0.824768425318335 26.7658771946281 0.824768425318334 26.765877194628  0.395537751280843 -53.5360254448915 
! Gamma         0                0                0                0                
! Port Impedance         50               0                50               0                
68.4                           0.380782638239089 -54.2625692225415 0.830427463104974 25.4081001601531 0.830427463104977 25.4081001601534 0.38065314006803 -54.3891290760739 
! Gamma         0                0                0                0                
! Port Impedance         50               0                50               0                
68.5                           0.365587526481234 -55.0776172738305 0.835947788176557 24.0350862363766 0.835947788176561 24.0350862363769 0.365449507455866 -55.2100267708353 
! Gamma         0                0                0                0                
! Port Impedance         50               0                50               0                
68.6                           0.350086915924263 -55.8522415546035 0.841314257748988 22.6472732016812 0.841314257748994 22.6472732016819 0.349939534533997 -55.9910521877981 
! Gamma         0                0                0                0                
! Port Impedance         50               0                50               0                
68.7                           0.334296207285668 -56.5771378149114 0.846511685833924 21.2451545766787 0.846511685833928 21.2451545766794 0.334138494311029 -56.7229770921523 
! Gamma         0                0                0                0                
! Port Impedance         50               0                50               0                
68.8                           0.318233746342682 -57.2410210229213 0.851524944605829 19.8292799893062 0.851524944605833 19.8292799893066 0.318064578168926 -57.394605538269 
! Gamma         0                0                0                0                
! Port Impedance         50               0                50               0                
68.9                           0.301921243944894 -57.8300825254741 0.856339072562044 18.400255087157  0.856339072562049 18.4002550871575 0.301739308815856 -57.992233317786 
! Gamma         0                0                0                0                
! Port Impedance         50               0                50               0                
69                             0.285384325329866 -58.3272584927097 0.860939388356505 16.9587409629127 0.860939388356512 16.9587409629133 0.285188080320654 -58.4989188069946 
! Gamma         0                0                0                0                
! Port Impedance         50               0                50               0                
69.1                           0.268653271196941 -58.7112312388371 0.865311608960218 15.5054530645969 0.865311608960222 15.5054530645969 0.268440886909508 -58.8934864501983 
! Gamma         0                0                0                0                
! Port Impedance         50               0                50               0                
69.2                           0.25176404645106 -58.9550477447783 0.869441970588568 14.0411595695199 0.869441970588574 14.0411595695202 0.251533335403945 -59.1491463918855 
! Gamma         0                0                0                0                
! Port Impedance         50               0                50               0                
69.3                           0.234759765975039 -59.0241831809408 0.873317350645679 12.5666792090879 0.873317350645684 12.5666792090878 0.234508089333935 -59.2315562977332 
! Gamma         0                0                0                0                
! Port Impedance         50               0                50               0                
69.4                           0.217692833591845 -58.8737917408094 0.876925388779289 11.0828785409941 0.876925388779294 11.082878540994  0.217416979338703 -59.0960639623758 
! Gamma         0                0                0                0                
! Port Impedance         50               0                50               0                
69.5                           0.200628133427664 -58.4447601010586 0.880254605024497 9.59066867548721 0.880254605024505 9.59066867548751 0.200324157677559 -58.6837382483302 
! Gamma         0                0                0                0                
! Port Impedance         50               0                50               0                
69.6                           0.183647890934274 -57.657999476795 0.883294512949539 8.0910014731463  0.88329451294955 8.09100147314703 0.183310914168689 -57.9156080876949 
! Gamma         0                0                0                0                
! Port Impedance         50               0                50               0                
69.7                           0.166859216666049 -56.4061918197585 0.886035725707766 6.58486524258551 0.886035725707773 6.5848652425859  0.166483171874968 -56.6842912317871 
! Gamma         0                0                0                0                
! Port Impedance         50               0                50               0                
69.8                           0.150405988708376 -54.5420500852784 0.8884700529517  5.07327997743519 0.88847005295171 5.07327997743554 0.149983338849408 -54.842002829747 
! Gamma         0                0                0                0                
! Port Impedance         50               0                50               0                
69.9                           0.134487693412767 -51.8624937152037 0.89059058667976 3.55729218240609 0.890590586679769 3.5572921824065  0.134009196884656 -52.1842063455676 
! Gamma         0                0                0                0                
! Port Impedance         50               0                50               0                
70                             0.119388951983716 -48.0904083364192 0.89239177426271 2.03796934790975 0.892391774262718 2.03796934790999 0.118843717647076 -48.4303300172851 
! Gamma         0                0                0                0                
! Port Impedance         50               0                50               0                
70.1                           0.105523355797326 -42.8638998057701 0.893869477132224 0.516394141180624 0.893869477132231 0.516394141180927 0.104899811236701 -43.2111641588787 
! Gamma         0                0                0                0                
! Port Impedance         50               0                50               0                
70.2                           0.0934885530666325 -35.7658478313061 0.895021013900963 -1.00634161115017 0.895021013900972 -1.00634161114992 0.0927776497231867 -36.0960247809773 
! Gamma         0                0                0                0                
! Port Impedance         50               0                50               0                
70.3                           0.0841019999435757 -26.4693385453084 0.895845187013832 -2.52914306886583 0.895845187013842 -2.52914306886544 0.0833044450197562 -26.738442113936 
! Gamma         0                0                0                0                
! Port Impedance         50               0                50               0                
70.4                           0.0783244172635377 -15.0797763031451 0.896342292391656 -4.0509185689424 0.896342292391666 -4.05091856894211 0.0774610476838818 -15.2299926450347 
! Gamma         0                0                0                0                
! Port Impedance         50               0                50               0                
70.5                           0.0769483731198588 -2.51480429306963 0.896514111909022 -5.57058577674209 0.896514111909034 -5.57058577674188 0.0760636844384321 -2.50535078352938 
! Gamma         0                0                0                0                
! Port Impedance         50               0                50               0                
70.6                           0.0801516682856528 9.66559329592214 0.896363888932903 -7.08707771408163 0.896363888932913 -7.08707771408177 0.0792980062913844 9.82482485759395 
! Gamma         0                0                0                0                
! Port Impedance         50               0                50               0                
70.7                           0.0873646537675262 20.1293527607615 0.895896287524233 -8.59934858376466 0.895896287524246 -8.59934858376445 0.0865785193575623 20.3879716914779 
! Gamma         0                0                0                0                
! Port Impedance         50               0                50               0                
70.8                           0.0976232316903503 28.3743756920728 0.895117336256959 -10.1063793152852 0.895117336256969 -10.1063793152855 0.0969177435675138 28.6793135551122 
! Gamma         0                0                0                0                
! Port Impedance         50               0                50               0                
70.9                           0.109991973978136 34.5554403432233 0.894034357925854 -11.607182763302 0.894034357925862 -11.6071827633022 0.109364565568099 34.8710540401846 
! Gamma         0                0                0                0                
! Port Impedance         50               0                50               0                
71                             0.123749425612125 39.0719035658623 0.892655886685545 -13.1008084988927 0.892655886685557 -13.1008084988927 0.123191065351814 39.3794334824564 
! Gamma         0                0                0                0                
! Port Impedance         50               0                50               0                
71.1                           0.138390370976862 42.3230613415873 0.890991574380236 -14.5863471431929 0.890991574380247 -14.5863471431925 0.137890831241693 42.6143192590489 
! Gamma         0                0                0                0                
! Port Impedance         50               0                50               0                
71.2                           0.153571003297602 44.6302092664552 0.889052087981647 -16.0629342034648 0.88905208798166 -16.0629342034645 0.1531209687908  44.9025452649113 
! Gamma         0                0                0                0                
! Port Impedance         50               0                50               0                
71.3                           0.169056194768468 46.2327213494058 0.88684900014928 -17.5297533825284 0.886849000149288 -17.5297533825289 0.168647823321118 46.486110723497  
! Gamma         0                0                0                0                
! Port Impedance         50               0                50               0                
71.4                           0.184681885833819 47.3045773449444 0.884394674962341 -18.9860393435043 0.884394674962352 -18.9860393435045 0.184308772301125 47.5401247644656 
! Gamma         0                0                0                0                
! Port Impedance         50               0                50               0                
71.5                           0.200330652493631 47.9719697885354 0.88170215085002 -20.4310799225638 0.881702150850028 -20.4310799225642 0.199987614200539 48.1911838650309 
! Gamma         0                0                0                0                
! Port Impedance         50               0                50               0                
71.6                           0.215916251003619 48.3271817650406 0.878785022670774 -21.8642177926126 0.878785022670782 -21.8642177926127 0.215599092557021 48.5316380321942 
! Gamma         0                0                0                0                
! Port Impedance         50               0                50               0                
71.7                           0.231373829063525 48.4385539262156 0.875657324769659 -23.2848515902147 0.875657324769669 -23.284851590215 0.231079136711179 48.629747607033  
! Gamma         0                0                0                0                
! Port Impedance         50               0                50               0                
71.8                           0.246653639243459 48.3574181548488 0.872333416682684 -24.6924365264556 0.872333416682693 -24.6924365264557 0.246378614743149 48.5367079468161 
! Gamma         0                0                0                0                
! Port Impedance         50               0                50               0                
71.9                           0.261716920773082 48.122886858576  0.868827872968491 -26.0864845096408 0.8688278729685  -26.0864845096409 0.261459251403004 48.2914813517434 
! Gamma         0                0                0                0                
! Port Impedance         50               0                50               0                
72                             0.276533139775494 47.7651751480266 0.865155378438751 -27.466563813673 0.865155378438759 -27.4665638136732 0.276290897822706 47.9241383019418 
! Gamma         0                0                0                0                
! Port Impedance         50               0                50               0                
72.1                           0.291078094419009 47.3079276736993 0.861330629838743 -28.8322983305762 0.861330629838752 -28.8322983305761 0.290849659624802 47.4581919442815 
! Gamma         0                0                0                0                
! Port Impedance         50               0                50               0                
72.2                           0.305332580691308 46.7698682556731 0.857368244806436 -30.1833664489874 0.857368244806442 -30.1833664489876 0.3051165802355  46.9122499423321 
! Gamma         0                0                0                0                
! Port Impedance         50               0                50               0                
72.3                           0.31928142829429 46.1659848835532 0.853282678719796 -31.5194996025311 0.853282678719803 -31.5194996025312 0.319076690094001 46.3011992119752 
! Gamma         0                0                0                0                
! Port Impedance         50               0                50               0                
72.4                           0.332912785435424 45.5083923962412 0.849088149833499 -32.8404805329447 0.849088149833506 -32.8404805329449 0.332718301554012 45.6370672985059 
! Gamma         0                0                0                0                
! Port Impedance         50               0                50               0                
72.5                           0.346217574117424 44.8069688156913 0.844798572913089 -34.1461413127515 0.844798572913096 -34.1461413127518 0.346032471879815 44.9296570694797 
! Gamma         0                0                0                0                
! Port Impedance         50               0                50               0                
72.6                           0.359189064435319 44.0698307195915 0.840427501400357 -35.4363611712825 0.840427501400364 -35.4363611712828 0.359012583451699 44.1870204355312 
! Gamma         0                0                0                0                
! Port Impedance         50               0                50               0                
72.7                           0.371822533569637 43.3036927105865 0.835988077990666 -36.7110641661233 0.835988077990671 -36.7110641661236 0.371654007319739 43.4158162982817 
! Gamma         0                0                0                0                
! Port Impedance         50               0                50               0                
72.8                           0.384114986300635 42.5141424043283 0.83149299337254 -37.9702167397091 0.831492993372546 -37.970216739709 0.383953827264069 42.6215841976318 
! Gamma         0                0                0                0                
! Port Impedance         50               0                50               0                
72.9                           0.396064921189798 41.7058531129461 0.826954452772426 -39.2138251979659 0.826954452772432 -39.2138251979657 0.395910608754021 41.8089558414465 
! Gamma         0                0                0                0                
! Port Impedance         50               0                50               0                
73                             0.407672131448549 40.8827500596546 0.822384149862301 -40.4419331447704 0.822384149862303 -40.4419331447708 0.407524202008702 40.9818203404357 
! Gamma         0                0                0                0                
! Port Impedance         50               0                50               0                
73.1                           0.4189375327952  40.0481415612929 0.81779324752419 -41.6546189026118 0.817793247524194 -41.6546189026121 0.418795571595914 40.1434545647556 
! Gamma         0                0                0                0                
! Port Impedance         50               0                50               0                
73.2                           0.429863012831018 39.2048235289835 0.813192364921305 -42.8519929464102 0.813192364921307 -42.8519929464108 0.429726647202433 39.2966269508592 
! Gamma         0                0                0                0                
! Port Impedance         50               0                50               0                
73.3                           0.440451297994754 38.3551634474228 0.808591570298966 -44.03419537397  0.808591570298967 -44.0341953739706 0.440320191711662 38.4436808986691 
! Gamma         0                0                0                0                
! Port Impedance         50               0                50               0                
73.4                           0.450705835209544 37.5011684232013 0.804000378927404 -45.2013934331527 0.804000378927405 -45.2013934331532 0.450579683761194 37.5866023313337 
! Gamma         0                0                0                0                
! Port Impedance         50               0                50               0                
73.5                           0.460630686068592 36.6445407552985 0.799427755600416 -46.353779122622 0.799427755600421 -46.353779122622 0.460509212671243 36.7270748551145 
! Gamma         0                0                0                0                
! Port Impedance         50               0                50               0                
73.6                           0.470230431917412 35.7867236489864 0.794882121116923 -47.4915668799181 0.794882121116926 -47.4915668799184 0.470113384136232 35.8665251275081 
! Gamma         0                0                0                0                
! Port Impedance         50               0                50               0                
73.7                           0.479510088549597 34.9289390802483 0.790371362193998 -48.6149913678095 0.790371362193999 -48.6149913678096 0.479397235423147 35.0061604297531 
! Gamma         0                0                0                0                
! Port Impedance         50               0                50               0                
73.8                           0.4884750294868  34.0722193603626 0.785902844288609 -49.7243053672166 0.785902844288612 -49.7243053672166 0.488366159068211 34.1469999843037 
! Gamma         0                0                0                0                
! Port Impedance         50               0                50               0                
73.9                           0.497130916994613 33.2174336066855 0.781483426838446 -50.8197777827125 0.781483426838448 -50.8197777827126 0.497025834239941 33.2899012157992 
! Gamma         0                0                0                0                
! Port Impedance         50               0                50               0                
74                             0.505483640116156 32.3653100654609 0.777119480469123 -51.9016917644665 0.777119480469124 -51.9016917644666 0.505382165063357 32.4355818952016 
! Gamma         0                0                0                0                
! Port Impedance         50               0                50               0                
74.1                           0.51353925910079 31.5164550338875 0.772816905753543 -52.9703429487027 0.772816905753543 -52.9703429487029 0.513441225292999 31.5846389092277 
! Gamma         0                0                0                0                
! Port Impedance         50               0                50               0                
74.2                           0.521303955676354 30.6713689760375 0.768581153148739 -54.026037817143 0.76858115314874 -54.0260378171433 0.521209208791489 30.73756424547   
! Gamma         0                0                0                0                
! Port Impedance         50               0                50               0                
74.3                           0.52878398866821 29.830460308968  0.764417243774646 -55.0690921745691 0.764417243774648 -55.0690921745692 0.528692385323454 29.8947586660878 
! Gamma         0                0                0                0                
! Port Impedance         50               0                50               0                
74.4                           0.535985654511702 28.9940572432208 0.760329790737514 -56.0998297425071 0.760329790737514 -56.099829742507 0.535897061216821 29.0565434513739 
! Gamma         0                0                0                0                
! Port Impedance         50               0                50               0                
74.5                           0.542915252240217 28.1624179895496 0.756323020737406 -57.1185808661175 0.756323020737406 -57.1185808661175 0.54282954447802 28.223170522659  
! Gamma         0                0                0                0                
! Port Impedance         50               0                50               0                
74.6                           0.549579052561571 27.3357395865724 0.75240079573385 -58.1256813306322 0.752400795733851 -58.1256813306322 0.549496113977345 27.3948311972649 
! Gamma         0                0                0                0                
! Port Impedance         50               0                50               0                
74.7                           0.555983270662164 26.51416555862   0.748566634476127 -59.1214712831021 0.748566634476124 -59.1214712831022 0.555902992346864 26.5716637831165 
! Gamma         0                0                0                0                
! Port Impedance         50               0                50               0                
74.8                           0.562134042402802 25.6977925767173 0.744823733734502 -60.1062942547957 0.7448237337345  -60.106294254796 0.562056322257149 25.7537601845643 
! Gamma         0                0                0                0                
! Port Impedance         50               0                50               0                
74.9                           0.568037403592584 24.8866762664179 0.741174989096092 -61.0804962792753 0.741174989096092 -61.0804962792754 0.56796214576121 24.9411716619728 
! Gamma         0                0                0                0                
! Port Impedance         50               0                50               0                
75                             0.573699272048622 24.0808362825473 0.737623015213598 -62.0444251009946 0.737623015213599 -62.0444251009947 0.573626386415065 24.1339138641515 
! Gamma         0                0                0                0                
! Port Impedance         50               0                50               0                
75.1                           0.579125432169494 23.2802607516815 0.734170165417343 -62.9984294691562 0.734170165417344 -62.9984294691562 0.579054833904188 23.3319712336294 
! Gamma         0                0                0                0                
! Port Impedance         50               0                50               0                
75.2                           0.584321521769733 22.4849101674353 0.730818550620606 -63.9428585115422 0.730818550620606 -63.9428585115423 0.584253130924311 22.5353008691417 
! Gamma         0                0                0                0                
! Port Impedance         50               0                50               0                
75.3                           0.589293020941101 21.6947208106831 0.727570057465529 -64.878061183086 0.727570057465529 -64.878061183086 0.58922676208327 21.7438359168637 
! Gamma         0                0                0                0                
! Port Impedance         50               0                50               0                
75.4                           0.594045242724083 20.9096077561349 0.724426365671885 -65.8043857840368 0.724426365671884 -65.8043857840366 0.593981044608148 20.9574885513055 
! Gamma         0                0                0                0                
! Port Impedance         50               0                50               0                
75.5                           0.598583325389933 20.1294675177845 0.721388964563966 -66.7221795427215 0.721388964563963 -66.7221795427213 0.598521120658734 20.1761525979506 
! Gamma         0                0                0                0                
! Port Impedance         50               0                50               0                
75.6                           0.602912226149657 19.3541803783245 0.71845916876198 -67.6317882580656 0.718459168761978 -67.6317882580655 0.60285195106424 19.3997058423681 
! Gamma         0                0                0                0                
! Port Impedance         50               0                50               0                
75.7                           0.607036716121537 18.5836124413884 0.715638133033663 -68.5335559972445 0.715638133033661 -68.5335559972444 0.606978310315406 18.6280120643379 
! Gamma         0                0                0                0                
! Port Impedance         50               0                50               0                
75.8                           0.610961376403218 17.8176174402339 0.712926866309642 -69.427824844041 0.712926866309641 -69.427824844041 0.610904782658388 17.8609228303289 
! Gamma         0                0                0                0                
! Port Impedance         50               0                50               0                
75.9                           0.614690595107897 17.056038332029  0.710326244872512 -70.3149346937157 0.71032624487251 -70.3149346937155 0.614635759150358 17.0982790732619 
! Gamma         0                0                0                0                
! Port Impedance         50               0                50               0                
76                             0.618228565236843 16.2987087031436 0.707837024734789 -71.1952230904264 0.707837024734788 -71.1952230904263 0.618175435549339 16.3399124847476 
! Gamma         0                0                0                0                
! Port Impedance         50               0                50               0                
76.1                           0.621579283272382 15.5454540076161 0.705459853224988 -72.069025103466 0.705459853224988 -72.0690251034657 0.62152781092266 15.5856467418015 
! Gamma         0                0                0                0                
! Port Impedance         50               0                50               0                
76.2                           0.624746548386464 14.7960926582193 0.703195279804198 -72.9366732388236 0.703195279804198 -72.9366732388235 0.624696686869383 14.8352985872988 
! Gamma         0                0                0                0                
! Port Impedance         50               0                50               0                
76.3                           0.627733962170201 14.0504369871824 0.701043766137898 -73.7984973827991 0.701043766137895 -73.7984973827991 0.627685667262286 14.0886787810962 
! Gamma         0                0                0                0                
! Port Impedance         50               0                50               0                
76.4                           0.63054492879926 13.3082940915882 0.699005695449257 -74.6548247746256 0.699005695449254 -74.6548247746252 0.630498158424433 13.345592936722  
! Gamma         0                0                0                0                
! Port Impedance         50               0                50               0                
76.5                           0.63318265555868 12.5694665767075 0.69708138118127 -75.5059800052653 0.697081381181267 -75.5059800052649 0.633137369664073 12.6058422567939 
! Gamma         0                0                0                0                
! Port Impedance         50               0                50               0                
76.6                           0.635650153658787 11.8337532090108 0.695271074995364 -76.3522850397563 0.695271074995364 -76.3522850397562 0.635606314099646 11.8692241788126 
! Gamma         0                0                0                0                
! Port Impedance         50               0                50               0                
76.7                           0.63795023928123 11.1009494892761 0.693574974134278 -77.1940592606684 0.693574974134277 -77.1940592606682 0.637907809714015 11.135532941675  
! Gamma         0                0                0                0                
! Port Impedance         50               0                50               0                
76.8                           0.64008553480093 10.3708481550651 0.691993228176506 -78.0316195304241 0.691993228176505 -78.031619530424 0.64004448058385 10.4045600821029 
! Gamma         0                0                0                0                
! Port Impedance         50               0                50               0                
76.9                           0.642058470135952 9.6432396208428  0.690525945209032 -78.8652802703996 0.690525945209031 -78.8652802703994 0.642018758236211 9.67609486920785 
! Gamma         0                0                0                0                
! Port Impedance         50               0                50               0                
77                             0.643871284182944 8.91791236314761 0.689173197444046 -79.6953535548881 0.689173197444045 -79.6953535548879 0.643832883090073 8.94992468453666 
! Gamma         0                0                0                0                
! Port Impedance         50               0                50               0                
77.1                           0.645526026300991 8.19465325746129 0.68793502630424 -80.5221492181522 0.687935026304238 -80.5221492181522 0.645488905945687 8.22583535420193 
! Gamma         0                0                0                0                
! Port Impedance         50               0                50               0                
77.2                           0.647024557811418 7.47324787277114 0.686811446999945 -81.3459749729249 0.686811446999944 -81.3459749729247 0.646988689489374 7.50361143904677 
! Gamma         0                0                0                0                
! Port Impedance         50               0                50               0                
77.3                           0.648368553485459 6.75348072924609 0.685802452619928 -82.167136538848 0.685802452619927 -82.1671365388477 0.648333909785703 6.78303648822145 
! Gamma         0                0                0                0                
! Port Impedance         50               0                50               0                
77.4                           0.649559502995597 6.03513552395009 0.684908017756063 -82.9859377794437 0.684908017756062 -82.9859377794434 0.649526057732907 6.06389326106381 
! Gamma         0                0                0                0                
! Port Impedance         50               0                50               0                
77.5                           0.650598712310062 5.31799532908744 0.684128101680532 -83.8026808463201 0.684128101680531 -83.8026808463197 0.650566440461065 5.3459639217456  
! Gamma         0                0                0                0                
! Port Impedance         50               0                50               0                
77.6                           0.651487305013288 4.60184276691105 0.683462651092431 -84.6176663293948 0.683462651092432 -84.6176663293945 0.651456182655851 4.62903021078185 
! Gamma         0                0                0                0                
! Port Impedance         50               0                50               0                
77.7                           0.652226223538238 3.88646016510033 0.682911602448977 -85.4311934120087 0.682911602448977 -85.4311934120084 0.652196227793816 3.91287359718918 
! Gamma         0                0                0                0                
! Port Impedance         50               0                50               0                
77.8                           0.652816230299348 3.17162969616116 0.68247488389469 -86.2435600298594 0.682474883894689 -86.2435600298593 0.652787339277963 3.19727541481624 
! Gamma         0                0                0                0                
! Port Impedance         50               0                50               0                
77.9                           0.653257908717561 2.45713350416674 0.6821524168002  -87.0550630327527 0.682152416800199 -87.0550630327526 0.653230101465092 2.48201698614347 
! Gamma         0                0                0                0                
! Port Impedance         50               0                50               0                
78                             0.65355166413144 1.74275382198796 0.681944116920468 -87.8659983482089 0.681944116920466 -87.8659983482086 0.653524920578932 1.76687973667905 
! Gamma         0                0                0                0                
! Port Impedance         50               0                50               0                
78.1                           0.653697724590752 1.02827308201184 0.681849895180486 -88.6766611460071 0.681849895180485 -88.6766611460069 0.653672025505457 1.05164530292921 
! Gamma         0                0                0                0                
! Port Impedance         50               0                50               0                
78.2                           0.653696141531267 0.313474023241089 0.681869658094698 -89.4873460027752 0.681869658094697 -89.4873460027749 0.653671468469131 0.336095636815984 
! Gamma         0                0                0                0                
! Port Impedance         50               0                50               0                
78.3                           0.653546790331738 -0.401860202404586 0.682003307824622 -90.2983470657534 0.682003307824621 -90.298347065753 0.653523125591076 -0.379986890654708 
! Gamma         0                0                0                0                
! Port Impedance         50               0                50               0                
78.4                           0.65324937075631 -1.11794592180762 0.682250741877434 -91.109958214873 0.682250741877434 -91.1099582148727 0.653226697332359 -1.09681938371693 
! Gamma         0                0                0                0                
! Port Impedance         50               0                50               0                
78.5                           0.652803407287753 -1.83499882762615 0.682611852446499 -91.9224732222892 0.682611852446497 -91.9224732222888 0.652781708827872 -1.81461831141023 
! Gamma         0                0                0                0                
! Port Impedance         50               0                50               0                
78.6                           0.652208249359243 -2.5532338577319 0.683086525393195 -92.736185908506 0.683086525393195 -92.7361859085058 0.652187510118437 -2.53359938961689 
! Gamma         0                0                0                0                
! Port Impedance         50               0                50               0                
78.7                           0.651463071494619 -3.27286506427405 0.683674638867684 -93.5513902942105 0.683674638867684 -93.5513902942102 0.651443276291135 -3.25397745274898 
! Gamma         0                0                0                0                
! Port Impedance         50               0                50               0                
78.8                           0.650566873369482 -3.99410546944745 0.684376061564639 -94.3683807469118 0.684376061564638 -94.3683807469115 0.650548007540152 -3.97596631218232 
! Gamma         0                0                0                0                
! Port Impedance         50               0                50               0                
78.9                           0.649518479807918 -4.71716690492685 0.685190650608416 -95.1874521214498 0.685190650608416 -95.1874521214495 0.649500529162948 -4.6997785984196 
! Gamma         0                0                0                0                
! Port Impedance         50               0                50               0                
79                             0.648316540732214 -5.44225983178425 0.686118249060584 -96.0088998933938 0.686118249060583 -96.0088998933936 0.648299491509097 -5.42562558381682 
! Gamma         0                0                0                0                
! Port Impedance         50               0                50               0                
79.1                           0.646959531085715 -6.16959313752486 0.687158683041262 -96.833020284306 0.687158683041262 -96.8330202843058 0.646943369901903 -6.15371698253071 
! Gamma         0                0                0                0                
! Port Impedance         50               0                50               0                
79.2                           0.645445750751813 -6.89937390665102 0.688311758454379 -97.6601103777819 0.68831175845438 -97.6601103777817 0.645430464555786 -6.88426072411999 
! Gamma         0                0                0                0                
! Port Impedance         50               0                50               0                
79.3                           0.643773324495224 -7.63180716091506 0.689577257305557 -98.4904682251224 0.689577257305556 -98.4904682251222 0.643758900515554 -7.61746269698152 
! Gamma         0                0                0                0                
! Port Impedance         50               0                50               0                
79.4                           0.641940201955004 -8.36709556511001 0.69095493360021 -99.3243929394059 0.69095493360021 -99.3243929394058 0.641926627646973 -8.35352645749935 
! Gamma         0                0                0                0                
! Port Impedance         50               0                50               0                
79.5                           0.639944157722337 -9.10543909390534 0.692444508808292 -100.162184776659 0.692444508808292 -100.162184776659 0.639931420711632 -9.0926529004395 
! Gamma         0                0                0                0                
! Port Impedance         50               0                50               0                
79.6                           0.637782791539959 -9.84703465483094 0.694045666881187 -101.004145202723 0.694045666881187 -101.004145202723 0.637770879562933 -9.83503988572423 
! Gamma         0                0                0                0                
! Port Impedance         50               0                50               0                
79.7                           0.635453528664212 -10.5920756620545 0.695758048805429 -101.850576944324 0.695758048805428 -101.850576944323 0.635442429504142 -10.5808818162657 
! Gamma         0                0                0                0                
! Port Impedance         50               0                50               0                
79.8                           0.632953620435144 -11.3407515550771 0.697581246677329 -102.701784022739 0.69758124667733 -102.701784022739 0.632943321853858 -11.3303691610174 
! Gamma         0                0                0                0                
! Port Impedance         50               0                50               0                
79.9                           0.630280145104813 -12.0932472558749 0.699514797282193 -103.558071768348 0.699514797282193 -103.558071768348 0.630270634768992 -12.0836879168175 
! Gamma         0                0                0                0                
! Port Impedance         50               0                50               0                
80                             0.627430008979048 -12.8497425573411 0.701558175161655 -104.419746814231 0.701558175161654 -104.419746814231 0.627421274380436 -12.8410190019194 
! Gamma         0                0                0                0                
! Port Impedance         50               0                50               0                
80.1                           0.624399947933333 -13.6104114351101 0.703710785152838 -105.287117066847 0.703710785152838 -105.287117066847 0.624391976302014 -13.6025375733437 
! Gamma         0                0                0                0                
! Port Impedance         50               0                50               0                
80.2                           0.621186529369268 -14.3754212739742 0.705971954383528 -106.160491651705 0.705971954383529 -106.160491651705 0.621179307579062 -14.368412259323 
! Gamma         0                0                0                0                
! Port Impedance         50               0                50               0                
80.3                           0.617786154684172 -15.1449319991002 0.708340923708415 -107.040180831788 0.708340923708414 -107.040180831788 0.617779669149084 -15.1388042971067 
! Gamma         0                0                0                0                
! Port Impedance         50               0                50               0                
80.4                           0.614195062332879 -15.9190951011182 0.710816838572852 -107.926495896371 0.710816838572851 -107.926495896371 0.614189298893458 -15.9138665652763 
! Gamma         0                0                0                0                
! Port Impedance         50               0                50               0                
80.5                           0.610409331567612 -16.6980525428477 0.713398739292379 -108.819749017703 0.713398739292379 -108.819749017703 0.610404275365868 -16.6937424984176 
! Gamma         0                0                0                0                
! Port Impedance         50               0                50               0                
80.6                           0.606424886948857 -17.4819355339308 0.71608555073872 -109.720253072918 0.71608555073872 -109.720253072917 0.606420522290279 -17.4785648705162 
! Gamma         0                0                0                0                
! Port Impedance         50               0                50               0                
80.7                           0.602237503727682 -18.2708631579211 0.718876071426041 -110.628321428361 0.718876071426041 -110.628321428361 0.602233813928726 -18.268454431732 
! Gamma         0                0                0                0                
! Port Impedance         50               0                50               0                
80.8                           0.597842814207471 -19.0649408343857 0.721768961995099 -111.544267683431 0.721768961995098 -111.544267683431 0.597839781426634 -19.063518381239 
! Gamma         0                0                0                0                
! Port Impedance         50               0                50               0                
80.9                           0.593236315200994 -19.8642585962822 0.724762733097541 -112.468405370841 0.72476273309754 -112.468405370841 0.593233920251398 -19.8638486565274 
! Gamma         0                0                0                0                
! Port Impedance         50               0                50               0                
81                             0.588413376706602 -20.6688891601807 0.727855732688194 -113.401047610175 0.727855732688192 -113.401047610175 0.58841159884774 -20.6695200169143 
! Gamma         0                0                0                0                
! Port Impedance         50               0                50               0                
81.1                           0.583369251935401 -21.4788857637893 0.731046132739735 -114.342506711433 0.731046132739734 -114.342506711433 0.583368068641379 -21.4805878959001 
! Gamma         0                0                0                0                
! Port Impedance         50               0                50               0                
81.2                           0.578099088829264 -22.2942797415544 0.734331915401799 -115.293093725233 0.734331915401798 -115.293093725233 0.578098475530547 -22.2970859933732 
! Gamma         0                0                0                0                
! Port Impedance         50               0                50               0                
81.3                           0.572597943217249 -23.1150778048075 0.73771085863544 -116.253117936254 0.737710858635439 -116.253117936254 0.572597873012489 -23.1190235743779 
! Gamma         0                0                0                0                
! Port Impedance         50               0                50               0                
81.4                           0.566860793765777 -23.9412589877925 0.741180521363979 -117.222886296507 0.741180521363977 -117.222886296507 0.566861237099853 -23.9463824360928 
! Gamma         0                0                0                0                
! Port Impedance         50               0                50               0                
81.5                           0.560882558884875 -24.7727712148536 0.744738228192773 -118.202702795001 0.744738228192772 -118.202702795001 0.560883483188771 -24.7791134986344 
! Gamma         0                0                0                0                
! Port Impedance         50               0                50               0                
81.6                           0.554658115759786 -25.6095274367834 0.748381053763372 -119.192867760461 0.74838105376337 -119.192867760461 0.554659485047185 -25.6171329681005 
! Gamma         0                0                0                0                
! Port Impedance         50               0                50               0                
81.7                           0.54818232168305 -26.4514012756271 0.752105806821926 -120.193677093865 0.752105806821924 -120.193677093865 0.548184096098016 -26.4603180116222 
! Gamma         0                0                0                0                
! Port Impedance         50               0                50               0                
81.8                           0.541450037867945 -27.2982221067199 0.755909014097676 -121.205421427725 0.755909014097673 -121.205421427725 0.541452173176958 -27.3085018737725 
! Gamma         0                0                0                0                
! Port Impedance         50               0                50               0                
81.9                           0.534456155928386 -28.149769493987 0.759786904104793 -122.228385209301 0.75978690410479 -122.228385209301 0.534458602949166 -28.1614683510237 
! Gamma         0                0                0                0                
! Port Impedance         50               0                50               0                
82                             0.527195627214731 -29.0057668790134 0.763735390999865 -123.262845705272 0.763735390999863 -123.262845705272 0.52719833117303 -29.0189455255411 
! Gamma         0                0                0                0                
! Port Impedance         50               0                50               0                
82.1                           0.519663495197758 -29.8658744053613 0.767750058647659 -124.309071925791 0.767750058647656 -124.309071925791 0.51966639500189 -29.8805986407515 
! Gamma         0                0                0                0                
! Port Impedance         50               0                50               0                
82.2                           0.511854931096093 -30.729680736203 0.771826145069571 -125.367323466393 0.771826145069568 -125.367323466393 0.511857958517262 -30.7460219778566 
! Gamma         0                0                0                0                
! Port Impedance         50               0                50               0                
82.3                           0.503765272944914 -31.596693694379 0.77595852747197 -126.437849266853 0.775958527471966 -126.437849266854 0.503768351689414 -31.6147295637454 
! Gamma         0                0                0                0                
! Port Impedance         50               0                50               0                
82.4                           0.495390068307077 -32.4663295179318 0.780141708075319 -127.520886286853 0.780141708075315 -127.520886286853 0.495393112963929 -32.4861445049861 
! Gamma         0                0                0                0                
! Port Impedance         50               0                50               0                
82.5                           0.486725120832738 -33.3379004791306 0.784369800989195 -128.616658099209 0.784369800989191 -128.61665809921 0.486728035677357 -33.3595866978289 
! Gamma         0                0                0                0                
! Port Impedance         50               0                50               0                
82.6                           0.477766540881479 -34.2106005583   0.78863652040259 -129.725373402454 0.788636520402586 -129.725373402454 0.477769218512317 -34.2342586079092 
! Gamma         0                0                0                0                
! Port Impedance         50               0                50               0                
82.7                           0.468510800434376 -35.083488792144 0.792935170382701 -130.847224455713 0.792935170382697 -130.847224455713 0.468513120214984 -35.1092287421845 
! Gamma         0                0                0                0                
! Port Impedance         50               0                50               0                
82.8                           0.458954792545192 -35.9554698251037 0.797258636598171 -131.982385440192 0.797258636598166 -131.982385440192 0.458956618818527 -35.9834123451152 
! Gamma         0                0                0                0                
! Port Impedance         50               0                50               0                
82.9                           0.449095895614409 -36.8252710757071 0.801599380303596 -133.131010753028 0.80159938030359 -133.131010753028 0.449097075649492 -36.8555487353087 
! Gamma         0                0                0                0                
! Port Impedance         50               0                50               0                
83                             0.438932042823245 -37.6914157797935 0.805949434940284 -134.293233240899 0.805949434940278 -134.2932332409  0.43893240444521 -37.7241745496925 
! Gamma         0                0                0                0                
! Port Impedance         50               0                50               0                
83.1                           0.428461797145597 -38.5521909780649 0.810300405722733 -135.469162382573 0.810300405722727 -135.469162382573 0.428461145989712 -38.5875919690774 
! Gamma         0                0                0                0                
! Port Impedance         50               0                50               0                
83.2                           0.417684432475657 -39.4056092618381 0.814643472589919 -136.658882431417 0.814643472589913 -136.658882431417 0.417682548791556 -39.4438307468477 
! Gamma         0                0                0                0                
! Port Impedance         50               0                50               0                
83.3                           0.406600021583977 -40.2493627578731 0.818969396904376 -137.862450530958 0.81896939690437 -137.862450530958 0.406596656499112 -40.2906025313678 
! Gamma         0                0                0                0                
! Port Impedance         50               0                50               0                
83.4                           0.395209531868353 -41.0807673925665 0.823268532278546 -139.079894818599 0.823268532278539 -139.079894818599 0.395204402996317 -41.1252455343701 
! Gamma         0                0                0                0                
! Port Impedance         50               0                50               0                
83.5                           0.383514930229124 -41.8966948885402 0.82753083989628 -140.311212534772 0.827530839896273 -140.311212534772 0.383507716479661 -41.9446570131606 
! Gamma         0                0                0                0                
! Port Impedance         50               0                50               0                
83.6                           0.371519298917867 -42.6934891574617 0.831745908675972 -141.556368156916 0.831745908675964 -141.556368156917 0.371509634326683 -42.7452102486545 
! Gamma         0                0                0                0                
! Port Impedance         50               0                50               0                
83.7                           0.359226964948584 -43.4668626836459 0.835902980589854 -142.815291579763 0.835902980589846 -142.815291579763 0.359214431294575 -43.52265163604  
! Gamma         0                0                0                0                
! Port Impedance         50               0                50               0                
83.8                           0.346643646714514 -44.2117670313812 0.839990981410246 -144.087876365409 0.839990981410239 -144.08787636541 0.346627764626221 -44.2719720479705 
! Gamma         0                0                0                0                
! Port Impedance         50               0                50               0                
83.9                           0.333776622962884 -44.9222295933102 0.84399855709734 -145.373978088463 0.843998557097332 -145.373978088464 0.333756841126855 -44.9872446195753 
! Gamma         0                0                0                0                
! Port Impedance         50               0                50               0                
84                             0.320634931443387 -45.5911458914388 0.847914115973915 -146.673412803138 0.847914115973906 -146.673412803138 0.320610613409659 -45.6614183036331 
! Gamma         0                0                0                0                
! Port Impedance         50               0                50               0                
84.1                           0.307229607679019 -46.210012800356 0.85172587675006 -147.985955660434 0.851725876750051 -147.985955660434 0.30720001559902 -46.2860526050827 
! Gamma         0                0                0                0                
! Port Impedance         50               0                50               0                
84.2                           0.293573978872805 -46.7685824716377 0.855421922365815 -149.311339704423 0.855421922365806 -149.311339704423 0.293538253289861 -46.8509733111318 
! Gamma         0                0                0                0                
! Port Impedance         50               0                50               0                
84.3                           0.279684034691929 -47.2544087382478 0.858990259512564 -150.649254877037 0.858990259512555 -150.649254877037 0.279641169211176 -47.3438210184043 
! Gamma         0                0                0                0                
! Port Impedance         50               0                50               0                
84.4                           0.265578906698226 -47.6522462349674 0.862418883576281 -151.99934726063 0.862418883576272 -151.99934726063 0.265527715963009 -47.7494526745261 
! Gamma         0                0                0                0                
! Port Impedance         50               0                50               0                
84.5                           0.251281503328282 -47.9432457046771 0.865695848619476 -153.361218586783 0.865695848619467 -153.361218586783 0.251220582188043 -48.049139488913 
! Gamma         0                0                0                0                
! Port Impedance         50               0                50               0                
84.6                           0.236819370474903 -48.1038645129717 0.868809341886561 -154.734426038392 0.868809341886552 -154.734426038392 0.236747041498652 -48.2194799093739 
! Gamma         0                0                0                0                
! Port Impedance         50               0                50               0                
84.7                           0.222225883597073 -48.1043757887182 0.871747762182593 -156.118482369882 0.871747762182583 -156.118482369883 0.222140129126706 -48.2309103131468 
! Gamma         0                0                0                0                
! Port Impedance         50               0                50               0                
84.8                           0.207541933569355 -47.9068083023224 0.874499801341817 -157.512856367468 0.874499801341807 -157.512856367468 0.20744030730745 -48.0456438354925 
! Gamma         0                0                0                0                
! Port Impedance         50               0                50               0                
84.9                           0.192818357640788 -47.4620773897702 0.877054527874527 -158.916973667683 0.877054527874518 -158.916973667683 0.192697869441607 -47.6147940618941 
! Gamma         0                0                0                0                
! Port Impedance         50               0                50               0                
85                             0.178119508706264 -46.7059736056157 0.879401471763014 -160.330217947993 0.879401471763005 -160.330217947993 0.177976475254635 -46.8743427976141 
! Gamma         0                0                0                0                
! Port Impedance         50               0                50               0                
85.1                           0.163528580205501 -45.5535750023506 0.881530709274769 -161.75193249819 0.881530709274759 -161.75193249819 0.163358435049141 -45.7395024141423 
! Gamma         0                0                0                0                
! Port Impedance         50               0                50               0                
85.2                           0.149155647757778 -43.8916091500513 0.883432946578317 -163.181422175552 0.883432946578308 -163.181422175552 0.148952710556144 -44.0969676148103 
! Gamma         0                0                0                0                
! Port Impedance         50               0                50               0                
85.3                           0.135149873683619 -41.5685386313639 0.885099600888726 -164.617955740568 0.885099600888717 -164.617955740568 0.134907100294132 -41.7947688381784 
! Gamma         0                0                0                0                
! Port Impedance         50               0                50               0                
85.4                           0.121717849995526 -38.383332452984 0.88652287783974 -166.060768563448 0.886522877839732 -166.060768563448 0.121426645026781 -38.6305777045739 
! Gamma         0                0                0                0                
! Port Impedance         50               0                50               0                
85.5                           0.109150065027849 -34.0776820106837 0.887695843781175 -167.509065684905 0.887695843781167 -167.509065684905 0.108800383782978 -34.3430577292935 
! Gamma         0                0                0                0                
! Port Impedance         50               0                50               0                
85.6                           0.0978549691283473 -28.3462412084126 0.888612491735461 -168.962025207908 0.888612491735452 -168.962025207908 0.097436233082237 -28.6207532956804 
! Gamma         0                0                0                0                
! Port Impedance         50               0                50               0                
85.7                           0.0883898564863044 -20.8986679881779 0.889267799817454 -170.418801990559 0.889267799817446 -170.418801990559 0.0878936190247787 -21.1629082718533 
! Gamma         0                0                0                0                
! Port Impedance         50               0                50               0                
85.8                           0.0814520472227213 -11.6233722308235 0.889657781026179 -171.878531604024 0.889657781026171 -171.878531604024 0.0808772413162582 -11.8448627327163 
! Gamma         0                0                0                0                
! Port Impedance         50               0                50               0                
85.9                           0.0777619270338259 -0.847841039310995 0.889779523454407 -173.340334513862 0.889779523454399 -173.340334513862 0.0771211321427899 -0.987470401321626 
! Gamma         0                0                0                0                
! Port Impedance         50               0                50               0                
86                             0.0778048339418097 10.5174645803473 0.889631220128762 -174.803320438248 0.889631220128755 -174.803320438248 0.0771252780646888 10.4859495557787 
! Gamma         0                0                0                0                
! Port Impedance         50               0                50               0                
86.1                           0.0815774508701919 21.2743182815728 0.889212187884708 -176.2665928327  0.889212187884701 -176.266592832699 0.0808917995891032 21.3476810467888 
! Gamma         0                0                0                0                
! Port Impedance         50               0                50               0                
86.2                           0.0885903306280028 30.521419629885  0.888522874891789 -177.729253448073 0.888522874891783 -177.729253448073 0.0879242567214928 30.6729932178684 
! Gamma         0                0                0                0                
! Port Impedance         50               0                50               0                
86.3                           0.0981236011994975 37.9410534711464 0.887564856668181 -179.190406906971 0.887564856668176 -179.190406906971 0.0974907763802637 38.1395326472284 
! Gamma         0                0                0                0                
! Port Impedance         50               0                50               0                
86.4                           0.109483218468381 43.6500131089983 0.886340820652731 179.350834756735 0.886340820652726 179.350834756735 0.108887749347688 43.8711581821566 
! Gamma         0                0                0                0                
! Port Impedance         50               0                50               0                
86.5                           0.12211563464037 47.9399204142975 0.884854539629818 177.895347649727 0.884854539629813 177.895347649727 0.121556338812781 48.1684120475393 
! Gamma         0                0                0                0                
! Port Impedance         50               0                50               0                
86.6                           0.135615577619825 51.1155775422075 0.883110834520072 176.443991714795 0.883110834520067 176.443991714795 0.135089074425501 51.3427995084902 
! Gamma         0                0                0                0                
! Port Impedance         50               0                50               0                
86.7                           0.149695016875634 53.4342526015364 0.881115527251311 174.997606619348 0.881115527251307 174.997606619348 0.149197370918127 53.6557705980411 
! Gamma         0                0                0                0                
! Port Impedance         50               0                50               0                
86.8                           0.164149248526214 55.0959763788249 0.878875384602866 173.557007881853 0.878875384602863 173.557007881853 0.163676694597772 55.3097524894478 
! Gamma         0                0                0                0                
! Port Impedance         50               0                50               0                
86.9                           0.178830609921559 56.2514710161953 0.876398054067606 172.122983276058 0.876398054067603 172.122983276058 0.178379812130983 56.4567788699684 
! Gamma         0                0                0                0                
! Port Impedance         50               0                50               0                
87                             0.193630273901765 57.0133798306871 0.873691992895614 170.696289547058 0.873691992895611 170.696289547058 0.193198376238414 57.2101856117406 
! Gamma         0                0                0                0                
! Port Impedance         50               0                50               0                
87.1                           0.208466133863443 57.4661450175529 0.870766391569092 169.277649466876 0.87076639156909 169.277649466876 0.208050727698348 57.6547638592023 
! Gamma         0                0                0                0                
! Port Impedance         50               0                50               0                
87.2                           0.223274816390501 57.6736069160573 0.867631093008768 167.867749250619 0.867631093008767 167.867749250619 0.222873881338272 57.8545148708921 
! Gamma         0                0                0                0                
! Port Impedance         50               0                50               0                
87.3                           0.238006387359282 57.6845605936055 0.864296508828058 166.467236347441 0.864296508828057 166.467236347441 0.237618229130341 57.858293064493  
! Gamma         0                0                0                0                
! Port Impedance         50               0                50               0                
87.4                           0.252620799097805 57.536744349602  0.860773533934317 165.076717613868 0.860773533934317 165.076717613868 0.252243993202335 57.7038423561145 
! Gamma         0                0                0                0                
! Port Impedance         50               0                50               0                
87.5                           0.267085466983919 57.2596926595492 0.857073460729389 163.696757870576 0.857073460729389 163.696757870576 0.266718810784842 57.4206755448215 
! Gamma         0                0                0                0                
! Port Impedance         50               0                50               0                
87.6                           0.281373585902727 56.8767850839391 0.853207894088016 162.327878837653 0.853207894088017 162.327878837653 0.281016058940992 57.0321377987534 
! Gamma         0                0                0                0                
! Port Impedance         50               0                50               0                
87.7                           0.295462937481968 56.4067293763148 0.84918866819689 160.970558437868 0.84918866819689 160.970558437868 0.295113669087647 56.5568977312398 
! Gamma         0                0                0                0                
! Port Impedance         50               0                50               0                
87.8                           0.309335027341856 55.8646456125709 0.845027766223897 159.625230452578 0.845027766223898 159.625230452578 0.30899327033836 56.0100357983046 
! Gamma         0                0                0                0                
! Port Impedance         50               0                50               0                
87.9                           0.322974447352243 55.2628671762125 0.840737243661407 158.292284510734 0.840737243661408 158.292284510734 0.322639556730307 55.4038474757643 
! Gamma         0                0                0                0                
! Port Impedance         50               0                50               0                
88                             0.336368393427435 54.6115390618874 0.836329156053947 156.972066387983 0.836329156053949 156.972066387983 0.336039809024455 54.7484425920474 
! Gamma         0                0                0                0                
! Port Impedance         50               0                50               0                
88.1                           0.34950629231659 53.9190696741905 0.831815491684137 155.664878590231 0.831815491684139 155.664878590231 0.349183524708911 54.0521975116787 
! Gamma         0                0                0                0                
! Port Impedance         50               0                50               0                
88.2                           0.362379505836648 53.1924756432879 0.827208109655091 154.370981194047 0.827208109655093 154.370981194047 0.362062124807284 53.3220999861845 
! Gamma         0                0                0                0                
! Port Impedance         50               0                50               0                
88.3                           0.374981090921279 52.437647711614  0.822518683676626 153.090592915101 0.822518683676629 153.090592915101 0.37466871599539 52.5640148950417 
! Gamma         0                0                0                0                
! Port Impedance         50               0                50               0                
88.4                           0.387305600518329 51.6595577970753 0.817758651739207 151.823892375261 0.81775865173921 151.823892375261 0.386997893163875 51.7828910778019 
! Gamma         0                0                0                0                
! Port Impedance         50               0                50               0                
88.5                           0.399348914885801 50.8624217828885 0.812939171746168 150.571019539006 0.812939171746171 150.571019539006 0.399045572060969 50.9829238611579 
! Gamma         0                0                0                0                
! Port Impedance         50               0                50               0                
88.6                           0.411108095934755 50.0498286665003 0.808071083073031 149.332077290388 0.808071083073034 149.332077290387 0.410808844728517 50.1676839428735 
! Gamma         0                0                0                0                
! Port Impedance         50               0                50               0                
88.7                           0.422581259409926 49.2248439111799 0.803164873933719 148.107133122778 0.803164873933723 148.107133122777 0.422285852574544 49.3402204913621 
! Gamma         0                0                0                0                
! Port Impedance         50               0                50               0                
88.8                           0.433767461192396 48.3900928401707 0.798230654357821 146.896220915027 0.798230654357824 146.896220915027 0.43347567340637 48.5031443081653 
! Gamma         0                0                0                0                
! Port Impedance         50               0                50               0                
88.9                           0.444666595055211 47.5478284599832 0.793278134520692 145.699342769315 0.793278134520695 145.699342769315 0.444378219787357 47.6586954424656 
! Gamma         0                0                0                0                
! Port Impedance         50               0                50               0                
89                             0.455279299939135 46.699987036221  0.788316608118899 144.516470887874 0.788316608118902 144.516470887874 0.454994146809327 46.8087985811318 
! Gamma         0                0                0                0                
! Port Impedance         50               0                50               0                
89.1                           0.46560687533542 45.8482339601406 0.783354940446435 143.347549467774 0.783354940446438 143.347549467773 0.465324767886995 45.9551087514013 
! Gamma         0                0                0                0                
! Port Impedance         50               0                50               0                
89.2                           0.475651203727985 44.9940018601828 0.778401560801553 142.192496595089 0.778401560801556 142.192496595089 0.475371977542964 45.0990492884755 
! Gamma         0                0                0                0                
! Port Impedance         50               0                50               0                
89.3                           0.485414679306526 44.138522474029  0.773464458838627 141.051206121889 0.773464458838631 141.051206121888 0.485138180406947 44.2418435816046 
! Gamma         0                0                0                0                
! Port Impedance         50               0                50               0                
89.4                           0.494900142342602 43.2828534653989 0.768551184473197 139.923549511597 0.7685511844732  139.923549511596 0.494626225831517 43.3845417808168 
! Gamma         0                0                0                0                
! Port Impedance         50               0                50               0                
89.5                           0.504110818748062 42.4279011172353 0.763668850949773 138.809377640361 0.763668850949776 138.80937764036  0.503839347651791 42.5280433939825 
! Gamma         0                0                0                0                
! Port Impedance         50               0                50               0                
89.6                           0.513050264423397 41.5744396392023 0.758824140690041 137.708522543991 0.758824140690044 137.70852254399  0.512781108703139 41.6731165103934 
! Gamma         0                0                0                0                
! Port Impedance         50               0                50               0                
89.7                           0.521722314064718 40.7231276778763 0.75402331355245 136.620799101909 0.754023313552454 136.620799101908 0.521455349771066 40.8204142375948 
! Gamma         0                0                0                0                
! Port Impedance         50               0                50               0                
89.8                           0.530131034140255 39.8745225016165 0.749272217151719 135.546006651261 0.749272217151722 135.54600665126  0.529866142688595 39.97048882216   
! Gamma         0                0                0                0                
! Port Impedance         50               0                50               0                
89.9                           0.538280679776509 39.0290922413011 0.744576298907489 134.483930525913 0.744576298907492 134.483930525912 0.538017747324645 39.1238038342567 
! Gamma         0                0                0                0                
! Port Impedance         50               0                50               0                
90                             0.546175655314246 38.1872264963441 0.739940619514304 133.434343516486 0.739940619514307 133.434343516486 0.545914572226838 38.280744724471  
! Gamma         0                0                0                0                
! Port Impedance         50               0                50               0                
90.1                           0.553820478309041 37.3492455589404 0.735369867549377 132.397007248873 0.735369867549381 132.397007248872 0.553561138695759 37.4416280048224 
! Gamma         0                0                0                0                
! Port Impedance         50               0                50               0                
90.2                           0.561219746761583 36.5154084642472 0.730868374959625 131.371673479764 0.730868374959629 131.371673479763 0.560962048078008 36.6067092609711 
! Gamma         0                0                0                0                
! Port Impedance         50               0                50               0                
90.3                           0.568378109371586 35.6859200382126 0.726440133194562 130.358085308759 0.726440133194565 130.358085308758 0.568121952073535 35.7761901665554 
! Gamma         0                0                0                0                
! Port Impedance         50               0                50               0                
90.4                           0.575300238616061 34.8609370856185 0.72208880977632 129.355978307415 0.722088809776323 129.355978307414 0.575045525859487 34.9502246417439 
! Gamma         0                0                0                0                
! Port Impedance         50               0                50               0                
90.5                           0.581990806459354 34.0405738375343 0.717817765122056 128.365081566355 0.717817765122059 128.365081566354 0.581737443839254 34.1289242745858 
! Gamma         0                0                0                0                
! Port Impedance         50               0                50               0                
90.6                           0.588454462509059 33.2249067581338 0.713630069456781 127.385118662112 0.713630069456783 127.385118662111 0.588202357831681 33.312363104736  
! Gamma         0                0                0                0                
! Port Impedance         50               0                50               0                
90.7                           0.594695814438096 32.4139787952893 0.709528519676298 126.415808545908 0.709528519676301 126.415808545907 0.594444877521775 32.500581853606  
! Gamma         0                0                0                0                
! Port Impedance         50               0                50               0                
90.8                           0.600719410500451 31.6078031465473 0.705515656040018 125.456866356923 0.70551565604002 125.456866356923 0.600469553000967 31.6935916721457 
! Gamma         0                0                0                0                
! Port Impedance         50               0                50               0                
90.9                           0.606529723974971 30.8063666014002 0.701593778591972 124.508004162926 0.701593778591974 124.508004162925 0.60628085923209 30.8913774669777 
! Gamma         0                0                0                0                
! Port Impedance         50               0                50               0                
91                             0.612131139379129 30.0096325121101 0.697764963225435 123.568931631349 0.697764963225437 123.568931631348 0.611883182281383 30.0939008568181 
! Gamma         0                0                0                0                
! Port Impedance         50               0                50               0                
91.1                           0.617527940302398 29.2175434379182 0.69403107732191 122.639356634048 0.694031077321911 122.639356634048 0.617280807167753 29.301102803872  
! Gamma         0                0                0                0                
! Port Impedance         50               0                50               0                
91.2                           0.622724298716622 28.4300235014024 0.690393794909141 121.718985789072 0.690393794909143 121.718985789071 0.622477907186858 28.5129059587262 
! Gamma         0                0                0                0                
! Port Impedance         50               0                50               0                
91.3                           0.627724265628837 27.6469804905681 0.686854611295203 120.807524942797 0.686854611295204 120.807524942796 0.627478534576061 27.7292167522154 
! Gamma         0                0                0                0                
! Port Impedance         50               0                50               0                
91.4                           0.632531762950009 26.8683077359101 0.683414857146573 119.90467959581  0.683414857146575 119.90467959581  0.632286612393725 26.9499272633074 
! Gamma         0                0                0                0                
! Port Impedance         50               0                50               0                
91.5                           0.637150576461144 26.0938857879718 0.680075711987805 119.010155275843 0.680075711987806 119.010155275842 0.636905927494746 26.1749168884716 
! Gamma         0                0                0                0                
! Port Impedance         50               0                50               0                
91.6                           0.641584349766091 25.3235839178131 0.676838217108609 118.123657861013 0.67683821710861 118.123657861013 0.641340124491748 25.4040538347814 
! Gamma         0                0                0                0                
! Port Impedance         50               0                50               0                
91.7                           0.645836579128151 24.5572614600638 0.673703287871456 117.244893856538 0.673703287871458 117.244893856538 0.64559270059931 24.6371964563762 
! Gamma         0                0                0                0                
! Port Impedance         50               0                50               0                
91.8                           0.649910609095194 23.7947690159712 0.670671725418816 116.373570627955 0.670671725418816 116.373570627954 0.64966700126594 23.8741944515812 
! Gamma         0                0                0                0                
! Port Impedance         50               0                50               0                
91.9                           0.653809628825184 23.0359495318255 0.667744227784347 115.509396593771 0.667744227784347 115.50939659377  0.653566216506001 23.1148899360196 
! Gamma         0                0                0                0                
! Port Impedance         50               0                50               0                
92                             0.657536669031184 22.2806392664481 0.664921400416631 114.652081380316 0.664921400416631 114.652081380315 0.657293377850696 22.3591184053306 
! Gamma         0                0                0                0                
! Port Impedance         50               0                50               0                
92.1                           0.661094599471641 21.5286686599325 0.662203766127489 113.801335941434 0.66220376612749 113.801335941434 0.660851355843947 21.6067095996199 
! Gamma         0                0                0                0                
! Port Impedance         50               0                50               0                
92.2                           0.664486126918179 20.7798631145228 0.659591774479787 112.956872645495 0.659591774479787 112.956872645495 0.664242858015614 20.8574882805021 
! Gamma         0                0                0                0                
! Port Impedance         50               0                50               0                
92.3                           0.667713793539272 20.0340436974021 0.657085810631734 112.118405332045 0.657085810631734 112.118405332045 0.66747042727044 20.1112749304379 
! Gamma         0                0                0                0                
! Port Impedance         50               0                50               0                
92.4                           0.670779975644173 19.2910277741692 0.65468620365643 111.285649340289 0.65468620365643 111.285649340288 0.670536440637129 19.3678863831293 
! Gamma         0                0                0                0                
! Port Impedance         50               0                50               0                
92.5                           0.673686882736702 18.5506295809178 0.652393234356482 110.458321511406 0.652393234356482 110.458321511406 0.673443108327324 18.6271363928403 
! Gamma         0                0                0                0                
! Port Impedance         50               0                50               0                
92.6                           0.676436556834116 17.8126607420935 0.650207142594353 109.636140166597 0.650207142594354 109.636140166597 0.676192473059648 17.8888361497997 
! Gamma         0                0                0                0                
! Port Impedance         50               0                50               0                
92.7                           0.679030872010849 17.0769307406236 0.648128134159457 108.818825062566 0.648128134159457 108.818825062566 0.678786409608765 17.1527947481462 
! Gamma         0                0                0                0                
! Port Impedance         50               0                50               0                
92.8                           0.681471534131941 16.3432473462638 0.646156387193128 108.006097326045 0.646156387193128 108.006097326044 0.68122662454423 16.4188196123405 
! Gamma         0                0                0                0                
! Port Impedance         50               0                50               0                
92.9                           0.68376008074516 15.6114170075727 0.644292058192459 107.197679368796 0.644292058192459 107.197679368796 0.683514656128234 15.6867168874411 
! Gamma         0                0                0                0                
! Port Impedance         50               0                50               0                
93                             0.685897881105085 14.8812452125009 0.642535287613539 106.39329478443  0.642535287613539 106.39329478443  0.685651874345529 14.9562917982043 
! Gamma         0                0                0                0                
! Port Impedance         50               0                50               0                
93.1                           0.687886136306426 14.1525368221878 0.640886205094114 105.592668228215 0.640886205094115 105.592668228215 0.687639481042885 14.2273489815923 
! Gamma         0                0                0                0                
! Port Impedance         50               0                50               0                
93.2                           0.689725879507605 13.4250963822274 0.639344934314904 104.795525280972 0.639344934314904 104.795525280972 0.689478510159078 13.4996927969346 
! Gamma         0                0                0                0                
! Port Impedance         50               0                50               0                
93.3                           0.691417976229184 12.6987284153671 0.637911597517934 104.001592298015 0.637911597517935 104.001592298015 0.691169828030101 12.7731276176955 
! Gamma         0                0                0                0                
! Port Impedance         50               0                50               0                
93.4                           0.692963124715256 11.9732376993591 0.63658631969927 103.210596243996 0.63658631969927 103.210596243995 0.692714133757703 12.047458108556  
! Gamma         0                0                0                0                
! Port Impedance         50               0                50               0                
93.5                           0.69436185634915 11.2484295334595 0.635369232492374 102.422264514406 0.635369232492372 102.422264514406 0.694111959632664 11.3224894912993 
! Gamma         0                0                0                0                
! Port Impedance         50               0                50               0                
93.6                           0.695614536118069 10.5241099969009 0.634260477757194 101.636324744421 0.634260477757194 101.636324744421 0.695363671607454 10.5980278028125 
! Gamma         0                0                0                0                
! Port Impedance         50               0                50               0                
93.7                           0.696721363124354 9.80008620249681 0.633260210888779 100.852504605638 0.633260210888778 100.852504605638 0.696469469816018 9.87388014836425 
! Gamma         0                0                0                0                
! Port Impedance         50               0                50               0                
93.8                           0.697682371144153 9.07616654842281 0.632368603857876 100.070531591229 0.632368603857877 100.070531591228 0.697429389141463 9.14985495318704 
! Gamma         0                0                0                0                
! Port Impedance         50               0                50               0                
93.9                           0.698497429237219 8.35216097111115 0.631585847994605 99.2901327899084 0.631585847994606 99.2901327899086 0.698243299835454 8.42576221530652 
! Gamma         0                0                0                0                
! Port Impedance         50               0                50               0                
94                             0.699166242414595 7.62788120212176 0.630912156524805 98.5110346490876 0.630912156524807 98.5110346490878 0.698910908196065 7.70141376246974 
! Gamma         0                0                0                0                
! Port Impedance         50               0                50               0                
94.1                           0.699688352373806 6.90314103179475 0.630347766867149 97.7329627274773 0.63034776686715 97.7329627274775 0.699431757313783 6.97662351597775 
! Gamma         0                0                0                0                
! Port Impedance         50               0                50               0                
94.2                           0.700063138314232 6.17775658245427 0.629892942697522 96.9556414373883 0.629892942697523 96.9556414373887 0.699805227898315 6.25120776418898 
! Gamma         0                0                0                0                
! Port Impedance         50               0                50               0                
94.3                           0.700289817848187 5.45154659391299 0.629547975785536 96.1787937768918 0.629547975785537 96.1787937768921 0.700030539201807 5.52498544844002 
! Gamma         0                0                0                0                
! Port Impedance         50               0                50               0                
94.4                           0.70036744802632 4.72433272402969 0.629313187606294 95.4021410519706 0.629313187606295 95.402141051971  0.700106750057094 4.79777846413789 
! Gamma         0                0                0                0                
! Port Impedance         50               0                50               0                
94.5                           0.700294926498909 3.99593986708343 0.629188930728744 94.6254025887468 0.629188930728746 94.625402588747  0.700032760052578 4.06941197978372 
! Gamma         0                0                0                0                
! Port Impedance         50               0                50               0                
94.6                           0.700070992837741 3.26619649276534 0.629175589980086 93.8482954358354 0.629175589980087 93.8482954358357 0.699807310868442 3.33971477672955 
! Gamma         0                0                0                0                
! Port Impedance         50               0                50               0                
94.7                           0.699694230046324 2.53493500862354 0.629273583383664 93.0705340568449 0.629273583383666 93.0705340568453 0.699428987802022 2.60851961250852 
! Gamma         0                0                0                0                
! Port Impedance         50               0                50               0                
94.8                           0.699163066289449 1.80199214887431 0.629483362865756 92.291830013022  0.629483362865759 92.2918300130226 0.698896221513273 1.87566361064245 
! Gamma         0                0                0                0                
! Port Impedance         50               0                50               0                
94.9                           0.698475776876208 1.06720939254199 0.629805414724395 91.5118916360204 0.629805414724399 91.5118916360211 0.698207290024571 1.14098867990801 
! Gamma         0                0                0                0                
! Port Impedance         50               0                50               0                
95                             0.697630486533967 0.33043341400281 0.63024025985103 90.730423690766  0.630240259851035 90.7304236907669 0.697360321012263 0.404341966119794 
! Gamma         0                0                0                0                
! Port Impedance         50               0                50               0                
95.1                           0.696625172013985 -0.408483430915556 0.630788453693363 89.9471270283906 0.630788453693368 89.9471270283915 0.696353294430678 -0.334423660402665 
! Gamma         0                0                0                0                
! Port Impedance         50               0                50               0                
95.2                           0.695457665072726 -1.14968258000539 0.631450585944946 89.1616982292056 0.631450585944953 89.1616982292064 0.695184045512683 -1.07544907840832 
! Gamma         0                0                0                0                
! Port Impedance         50               0                50               0                
95.3                           0.694125655876231 -1.89329869752082 0.632227279944359 88.3738292357188 0.632227279944365 88.3738292357196 0.693850268194141 -1.8188683469258 
! Gamma         0                0                0                0                
! Port Impedance         50               0                50               0                
95.4                           0.69262669687819 -2.63945906126477 0.633119191763592 87.5832069757032 0.633119191763597 87.5832069757039 0.692349519012774 -2.5648080905879 
! Gamma         0                0                0                0                
! Port Impedance         50               0                50               0                
95.5                           0.690958207225525 -3.3882829002352 0.634127008962087 86.7895129753859 0.634127008962093 86.7895129753865 0.690679221535392 -3.31338683536516 
! Gamma         0                0                0                0                
! Port Impedance         50               0                50               0                
95.6                           0.689117477748532 -4.13988067899606 0.635251448979188 85.9924229628602 0.635251448979195 85.9924229628611 0.688836671370362 -4.0647142908766 
! Gamma         0                0                0                0                
! Port Impedance         50               0                50               0                
95.7                           0.687101676595459 -4.89435332474718 0.636493257134001 85.1916064618992 0.636493257134009 85.1916064619001 0.686819041825188 -4.81889057524424 
! Gamma         0                0                0                0                
! Port Impedance         50               0                50               0                
95.8                           0.684907855574259 -5.65179139289614 0.63785320419747 84.3867263764216 0.63785320419748 84.3867263764226 0.684623390271857 -5.57600537828218 
! Gamma         0                0                0                0                
! Port Impedance         50               0                50               0                
95.9                           0.682532957266751 -6.41227416670954 0.639332083496989 83.5774385659697 0.639332083496997 83.5774385659706 0.682246665285135 -6.33613705859139 
! Gamma         0                0                0                0                
! Port Impedance         50               0                50               0                
96                             0.67997382298256 -7.17586868641242 0.640930707509033 82.7633914126688 0.640930707509042 82.7633914126698 0.679685714621031 -7.0993516699159 
! Gamma         0                0                0                0                
! Port Impedance         50               0                50               0                
96.1                           0.677227201621806 -7.94262870285534 0.642649903890097 81.94422538029   0.642649903890106 81.944225380291  0.676937294104395 -7.86570191186824 
! Gamma         0                0                0                0                
! Port Impedance         50               0                50               0                
96.2                           0.674289759517143 -8.71259355058891 0.644490510890507 81.1195725661976 0.644490510890515 81.1195725661988 0.673998077495932 -8.63522599984917 
! Gamma         0                0                0                0                
! Port Impedance         50               0                50               0                
96.3                           0.671158091325759 -9.48578693490622 0.646453372089705 80.2890562471653 0.646453372089716 80.2890562471666 0.670864667409307 -9.40794644871133 
! Gamma         0                0                0                0                
! Port Impedance         50               0                50               0                
96.4                           0.66782873204238 -10.2622156270698 0.648539330385032 79.4522904202769 0.648539330385043 79.4522904202782 0.66753360734905 -10.1838687643535 
! Gamma         0                0                0                0                
! Port Impedance         50               0                50               0                
96.5                           0.664298170203113 -11.0418680615695 0.650749221159041 78.6088793403892 0.650749221159053 78.6088793403905 0.664001394939063 -10.9629800370839 
! Gamma         0                0                0                0                
! Port Impedance         50               0                50               0                
96.6                           0.660562862348023 -11.8247128288402 0.653083864542961 77.758417055952  0.653083864542973 77.7584170559533 0.660264496409188 -11.745247430151 
! Gamma         0                0                0                0                
! Port Impedance         50               0                50               0                
96.7                           0.656619248807576 -12.6106970563898 0.655544056685961 76.9004869453298 0.655544056685973 76.9004869453311 0.656319362405133 -12.5306165563632 
! Gamma         0                0                0                0                
! Port Impedance         50               0                50               0                
96.8                           0.652463770873729 -13.3997446707351 0.658130559931433 76.034661256179  0.658130559931448 76.0346612561805 0.652162445181802 -13.3190097351714 
! Gamma         0                0                0                0                
! Port Impedance         50               0                50               0                
96.9                           0.648092889411103 -14.1917545318897 0.660844091792772 75.1605006509058 0.660844091792787 75.1605006509073 0.647790217235806 -14.1103241219124 
! Gamma         0                0                0                0                
! Port Impedance         50               0                50               0                
97                             0.643503104956822 -14.9865984314247 0.663685312611737 74.2775537617553 0.663685312611753 74.2775537617568 0.643199191424882 -14.9044297002098 
! Gamma         0                0                0                0                
! Port Impedance         50               0                50               0                
97.1                           0.638690979348847 -15.7841189442325 0.666654811773038 73.3853567596917 0.666654811773054 73.3853567596933 0.638385942614337 -15.701167127597 
! Gamma         0                0                0                0                
! Port Impedance         50               0                50               0                
97.2                           0.633653158913251 -16.584127123078 0.6697530923389  72.483432941907  0.669753092338917 72.4834329419086 0.633347130880517 -16.500345423406 
! Gamma         0                0                0                0                
! Port Impedance         50               0                50               0                
97.3                           0.628386399228749 -17.3864000238168 0.672980553957423 71.5712923435758 0.67298055395744 71.5712923435771 0.628079526288985 -17.3017394867532 
! Gamma         0                0                0                0                
! Port Impedance         50               0                50               0                
97.4                           0.622887591473314 -18.1906780476844 0.676337473888748 70.6484313803283 0.676337473888767 70.6484313803297 0.622580035252991 -18.1050874309296 
! Gamma         0                0                0                0                
! Port Impedance         50               0                50               0                
97.5                           0.617153790343603 -18.9966620853263 0.679823985983403 69.7143325289018 0.679823985983421 69.714332528903  0.616845728461771 -18.9100877188117 
! Gamma         0                0                0                0                
! Port Impedance         50               0                50               0                
97.6                           0.611182243520341 -19.8040104451589 0.683440057438229 68.7684640544972 0.683440057438249 68.7684640544986 0.610873870352223 -19.7163960817991 
! Gamma         0                0                0                0                
! Port Impedance         50               0                50               0                
97.7                           0.604970422635504 -20.6123355461669 0.687185463147247 67.810279794593  0.687185463147268 67.8102797945946 0.604661950079849 -20.523622202274 
! Gamma         0                0                0                0                
! Port Impedance         50               0                50               0                
97.8                           0.598516055677913 -21.421200352291 0.691059757458119 66.8392190102856 0.69105975745814 66.839219010287  0.598207713925111 -21.331326136633 
! Gamma         0                0                0                0                
! Port Impedance         50               0                50               0                
97.9                           0.591817160753289 -22.2301145219736 0.695062243140194 65.8547063177096 0.695062243140217 65.8547063177111 0.591509199051917 -22.1390144523504 
! Gamma         0                0                0                0                
! Port Impedance         50               0                50               0                
98                             0.584872081094998 -23.0385302422256 0.699191937368061 64.8561517136982 0.699191937368083 64.8561517136996 0.58456476851418 -22.9461360482801 
! Gamma         0                0                0                0                
! Port Impedance         50               0                50               0                
98.1                           0.577679521200035 -23.8458377114631 0.703447534525853 63.8429507115884 0.703447534525874 63.8429507115898 0.577373147385885 -23.7520776223256 
! Gamma         0                0                0                0                
! Port Impedance         50               0                50               0                
98.2                           0.570238583945858 -24.6513602293326 0.707827365643488 62.8144846049864 0.707827365643508 62.8144846049875 0.569933459870315 -24.5561587445105 
! Gamma         0                0                0                0                
! Port Impedance         50               0                50               0                
98.3                           0.562548808523896 -25.4543488444781 0.712329354287345 61.7701208793218 0.712329354287368 61.770120879323  0.562245267225414 -25.3576264862477 
! Gamma         0                0                0                0                
! Port Impedance         50               0                50               0                
98.4                           0.55461020900983 -26.2539765026085 0.716950968746314 60.7092137931889 0.716950968746337 60.7092137931902 0.554308606326144 -26.1556495479733 
! Gamma         0                0                0                0                
! Port Impedance         50               0                50               0                
98.5                           0.546423313377213 -27.049331626907 0.721689170381029 59.6311051537217 0.72168917038105 59.6311051537227 0.546124028671543 -26.949311816995 
! Gamma         0                0                0                0                
! Port Impedance         50               0                50               0                
98.6                           0.537989202752067 -27.8394110506082 0.726540358041264 58.5351253125936 0.726540358041286 58.5351253125946 0.537692639635682 -27.737605275182 
! Gamma         0                0                0                0                
! Port Impedance         50               0                50               0                
98.7                           0.529309550703224 -28.6231122070051 0.731500308506028 57.4205944116047 0.731500308506051 57.4205944116058 0.529016137759301 -28.5194221615599 
! Gamma         0                0                0                0                
! Port Impedance         50               0                50               0                
98.8                           0.52038666236781 -29.399224464833 0.73656411296486 56.2868239091785 0.736564112964881 56.2868239091794 0.520096853883235 -29.2935462775804 
! Gamma         0                0                0                0                
! Port Impedance         50               0                50               0                
98.9                           0.511223513223769 -30.1664194764371 0.741726109639871 55.1331184213516 0.741726109639892 55.1331184213524 0.510937789938448 -30.0586433022964 
! Gamma         0                0                0                0                
! Port Impedance         50               0                50               0                
99                             0.501823787346652 -30.9232403817133 0.746979812748608 53.9587779129382 0.746979812748628 53.958777912939  0.501542657232437 -30.8132499603478 
! Gamma         0                0                0                0                
! Port Impedance         50               0                50               0                
99.1                           0.492191915024018 -31.6680896819155 0.752317838130416 52.7631002763396 0.752317838130437 52.7631002763405 0.491915914109252 -31.5557618567843 
! Gamma         0                0                0                0                
! Port Impedance         50               0                50               0                
99.2                           0.482333109654351 -32.3992155631079 0.757731826006538 51.5453843368273 0.757731826006557 51.5453843368279 0.482062802912981 -32.2844197586088 
! Gamma         0                0                0                0                
! Port Impedance         50               0                50               0                
99.3                           0.472253403926991 -33.114696408486 0.763212361518646 50.3049333238862 0.763212361518663 50.3049333238866 0.47198938625674 -32.9972940625189 
! Gamma         0                0                0                0                
! Port Impedance         50               0                50               0                
99.4                           0.461959685371913 -33.8124231908146 0.768748893894504 49.0410588481542 0.768748893894522 49.0410588481546 0.461702582689551 -33.6922671406054 
! Gamma         0                0                0                0                
! Port Impedance         50               0                50               0                
99.5                           0.451459731482781 -34.4900793796431 0.774329655323672 47.7530854224023 0.774329655323683 47.7530854224025 0.451210201970526 -34.367013199558 
! Gamma         0                0                0                0                
! Port Impedance         50               0                50               0                
99.6                           0.440762244760769 -35.145117931298 0.779941580891554 46.4403555626018 0.779941580891563 46.4403555626021 0.440520980304119 -35.0189752228135 
! Gamma         0                0                0                0                
! Port Impedance         50               0                50               0                
99.7                           0.429876888203136 -35.7747348515611 0.785570231215327 45.102235501141  0.785570231215337 45.1022355011412 0.429644616065362 -35.6453384877137 
! Gamma         0                0                0                0                
! Port Impedance         50               0                50               0                
99.8                           0.418814321973122 -36.375838729652 0.791199719747325 43.7381215383183 0.791199719747333 43.7381215383185 0.418591806760231 -36.2430000595233 
! Gamma         0                0                0                0                
! Port Impedance         50               0                50               0                
99.9                           0.407586242246981 -36.9450155364503 0.796812647055406 42.3474470500871 0.796812647055412 42.3474470500871 0.407374288222586 -36.8085335599778 
! Gamma         0                0                0                0                
! Port Impedance         50               0                50               0                
100                            0.396205423542462 -37.4784878585029 0.802390044746858 40.9296901592464 0.802390044746858 40.9296901592464 0.396004877360069 -37.3381483887086 
! Gamma         0                0                -0               -0               
! Port Impedance         50               0                50               0                
