! Touchstone file exported from HFSS 2026.1.0
!        File:           C:/ffzhzh/LocalFiles/Ansys_Project_Files/temp_train_TSV_130_1783506253_44152.aedt
!        Generated:      06:25:35 PM Jul  8, 2026
!        Design:         TSV
!        Project:        temp_train_TSV_130_1783506253_44152
!
! Variables:
!        h_bsmrdl = 2um
!        h_ox = 20um
!        h_rdl = 5um
!        h_sub = 81.49um
!        h_tmrdl = 5um
!        h_tsv = 81.49um
!        h_via = 3um
!        l_bsmrdl = 300um
!        l_sub = 417.78um
!        l_tmrdl = 200um
!        m_sub = 200um
!        pitch = 46.08um
!        r_tsv = 8.89um
!        s_tmrdl = 10um
!        w_bsmrdl = 18um
!        w_sub = 500um
!        w_tmrdl = 12um
!        x_tsv_center1 = 206um
!        x_tsv_center2 = 524um
!        x_tsv_center3 = 736um
!        x_tsv_center4 = 1054um
!        x_tsv_center5 = 1266um
!        x_tsv_center6 = 1584um
!
# GHz S MA R 50.000000
! Terminal data exported
! Port[1] = TSV1_1_T1
! Port[2] = TSV1_1_T2
0.1                            0.000245176154501819 51.2990313597245 0.999846833522832 -0.0445539914321601 0.999846833522834 -0.0445539914321791 0.00024517625910425 51.2989966800231 
! Gamma         0                0                0                0                
! Port Impedance         50               0                50               0                
0.2                            0.000413938448886567 66.3541940808629 0.999834620885027 -0.0889152312495595 0.999834620885029 -0.0889152312496029 0.000413938628121305 66.3540641164807 
! Gamma         0                0                0                0                
! Port Impedance         50               0                50               0                
0.3                            0.000590869323132673 71.8237131726459 0.999817026325895 -0.132962095723399 0.999817026325896 -0.132962095723473 0.000590869334300334 71.8235146299701 
! Gamma         0                0                0                0                
! Port Impedance         50               0                50               0                
0.4                            0.000765573916644142 74.4381488931536 0.999796750660938 -0.176665594840881 0.99979675066094 -0.176665594840985 0.000765573658795478 74.4379023133987 
! Gamma         0                0                0                0                
! Port Impedance         50               0                50               0                
0.5                            0.000936271889079588 75.9609733827966 0.999775895543644 -0.220063298824779 0.999775895543646 -0.220063298824908 0.000936271429919483 75.960688517341  
! Gamma         0                0                0                0                
! Port Impedance         50               0                50               0                
0.6                            0.00110327991684374 76.9926158137422 0.999755709591641 -0.26322015191134 0.999755709591642 -0.263220151911484 0.00110327943348742 76.9922938337781 
! Gamma         0                0                0                0                
! Port Impedance         50               0                50               0                
0.7                            0.00126741286834635 77.7696379540939 0.999736741666545 -0.306200758137343 0.999736741666545 -0.306200758137495 0.00126741257192577 77.7692750350279 
! Gamma         0                0                0                0                
! Port Impedance         50               0                50               0                
0.8                            0.00142945525663448 78.394586779803  0.999719104254274 -0.349057230653308 0.999719104254274 -0.349057230653459 0.00142945534027885 78.3941771260369 
! Gamma         0                0                0                0                
! Port Impedance         50               0                50               0                
0.9                            0.00159001218556068 78.9161971270408 0.999702690496277 -0.391827112322838 0.999702690496276 -0.391827112322981 0.00159001280077043 78.9157348474971 
! Gamma         0                0                0                0                
! Port Impedance         50               0                50               0                
1                              0.00174950369037426 79.3603635690868 0.999687310621047 -0.434535616844331 0.999687310621045 -0.434535616844464 0.00174950494273381 79.3598435783332 
! Gamma         0                0                0                0                
! Port Impedance         50               0                50               0                
1.1                            0.0019082029690507 79.7427467191848 0.999672764096735 -0.477198871628316 0.999672764096734 -0.477198871628434 0.00190820492360028 79.7421650272018 
! Gamma         0                0                0                0                
! Port Impedance         50               0                50               0                
1.2                            0.00206627928606092 80.0740712237579 0.999658871874844 -0.519826801034316 0.999658871874843 -0.519826801034419 0.00206628197600691 80.0734249112446 
! Gamma         0                0                0                0                
! Port Impedance         50               0                50               0                
1.3                            0.00222383310135584 80.3624178560516 0.999645487140614 -0.562425301211473 0.999645487140612 -0.56242530121156 0.0022238365368865 80.3617049194501 
! Gamma         0                0                0                0                
! Port Impedance         50               0                50               0                
1.4                            0.00238092154232737 80.6142559161111 0.999632495753457 -0.604997754343006 0.999632495753455 -0.604997754343077 0.00238092571821544 80.6134750794566 
! Gamma         0                0                0                0                
! Port Impedance         50               0                50               0                
1.5                            0.00253757573868256 80.8349401903943 0.9996198124167  -0.647546035767839 0.999619812416699 -0.647546035767895 0.00253758064033376 80.8340907282181 
! Gamma         0                0                0                0                
! Port Impedance         50               0                50               0                
1.6                            0.00269381215420809 81.0289763188312 0.999607375570361 -0.690071163742425 0.999607375570359 -0.690071163742467 0.00269381776223864 81.0280579062983 
! Gamma         0                0                0                0                
! Port Impedance         50               0                50               0                
1.7                            0.00284963976132306 81.2001828382789 0.999595142363594 -0.732573708276472 0.999595142363592 -0.732573708276502 0.00284964605489489 81.1991954313945 
! Gamma         0                0                0                0                
! Port Impedance         50               0                50               0                
1.8                            0.00300506443576778 81.3518042840418 0.999583084239545 -0.77505404155012 0.999583084239543 -0.775054041550139 0.00300507139493109 81.3507480272092 
! Gamma         0                0                0                0                
! Port Impedance         50               0                50               0                
1.9                            0.003160091533422 81.4865985664139 0.999571183275328 -0.817512485802597 0.999571183275327 -0.817512485802605 0.00316009914068887 81.4854737228507 
! Gamma         0                0                0                0                
! Port Impedance         50               0                50               0                
2                              0.00331472729899043 81.6069087241781 0.999559429249455 -0.859949395691622 0.999559429249453 -0.859949395691622 0.00331473554032412 81.605715624606  
! Gamma         0                0                0                0                
! Port Impedance         50               0                50               0                
2.1                            0.00346897953756729 81.7147236720039 0.999547817345153 -0.902365199334477 0.999547817345151 -0.90236519933447 0.00346898840293425 81.713462677569  
! Gamma         0                0                0                0                
! Port Impedance         50               0                50               0                
2.2                            0.00362285783205143 81.8117302826489 0.999536346383009 -0.944760413781525 0.999536346383007 -0.944760413781511 0.00362286731565112 81.810401758743  
! Gamma         0                0                0                0                
! Port Impedance         50               0                50               0                
2.3                            0.0037763734908471 81.8993582020676 0.999525017482147 -0.987135645133151 0.999525017482146 -0.987135645133132 0.00377638359110884 81.8979625004031 
! Gamma         0                0                0                0                
! Port Impedance         50               0                50               0                
2.4                            0.00392953934517791 81.978818394876  0.999513833062368 -1.02949157989428 0.999513833062367 -1.02949157989426 0.00392955006459364 81.9773558417442 
! Gamma         0                0                0                0                
! Port Impedance         50               0                50               0                
2.5                            0.0040823694724228 82.0511362302127 0.999502796114277 -1.07182897179715 0.999502796114276 -1.07182897179712 0.00408238081726886 82.0496071193317 
! Gamma         0                0                0                0                
! Port Impedance         50               0                50               0                
2.6                            0.0042348788935943 82.1171798107462 0.999491909678029 -1.11414862677411 0.999491909678029 -1.11414862677409 0.00423489087358286 82.1155843994725 
! Gamma         0                0                0                0                
! Port Impedance         50               0                50               0                
2.7                            0.00438708327443388 82.1776841689934 0.99948117648299 -1.15645138774458 0.999481176482989 -1.15645138774455 0.004387095902325 82.1760226769626 
! Gamma         0                0                0                0                
! Port Impedance         50               0                50               0                
2.8                            0.00453899864732846 82.2332718870155 0.999470598710372 -1.19873812021012 0.999470598710371 -1.19873812021009 0.00453901193852586 82.2315444965013 
! Gamma         0                0                0                0                
! Port Impedance         50               0                50               0                
2.9                            0.00469064116321801 82.2844706325487 0.999460177848814 -1.24100969921207 0.999460177848814 -1.24100969921205 0.00469065513536573 82.2826774899997 
! Gamma         0                0                0                0                
! Port Impedance         50               0                50               0                
3                              0.00484202687745842 82.3317280457646 0.999449914619262 -1.28326699791829 0.999449914619261 -1.28326699791827 0.00484204155005073 82.3298692641153 
! Gamma         0                0                0                0                
! Port Impedance         50               0                50               0                
3.1                            0.00499317157029616 82.3754243564759 0.999439808950644 -1.32551087792102 0.999439808950644 -1.325510877921  0.00499318696430909 82.3735000179257 
! Gamma         0                0                0                0                
! Port Impedance         50               0                50               0                
3.2                            0.00514409060057821 82.4158830620856 0.99942985999193 -1.36774218121152 0.99942985999193 -1.3677421812115 0.00514410673812843 82.4138932211235 
! Gamma         0                0                0                0                
! Port Impedance         50               0                50               0                
3.3                            0.0052947987901446 82.4533799521345 0.999420066149416 -1.40996172372736 0.999420066149416 -1.40996172372734 0.00529481569417864 82.4513246386451 
! Gamma         0                0                0                0                
! Port Impedance         50               0                50               0                
3.4                            0.00544531033574475 82.4881507258459 0.999410425140678 -1.45217029032977 0.999410425140678 -1.45217029032975 0.00544532802976033 82.4860299481802 
! Gamma         0                0                0                0                
! Port Impedance         50               0                50               0                
3.5                            0.00559563874509017 82.5203974143664 0.999400934058704 -1.49436863105064 0.999400934058704 -1.49436863105062 0.0055956572528896 82.5182111622959 
! Gamma         0                0                0                0                
! Port Impedance         50               0                50               0                
3.6                            0.00574579679366849 82.5502937890895 0.999391589441328 -1.53655745844476 0.999391589441328 -1.53655745844474 0.00574581613914341 82.5480420365915 
! Gamma         0                0                0                0                
! Port Impedance         50               0                50               0                
3.7                            0.00589579649910707 82.5779899111237 0.999382387342365 -1.57873744588754 0.999382387342366 -1.57873744588752 0.00589581670605308 82.5756726189628 
! Gamma         0                0                0                0                
! Port Impedance         50               0                50               0                
3.8                            0.00604564911012431 82.6036159541933 0.999373323401872 -1.62090922666841 0.999373323401873 -1.6209092266684 0.00604567020208359 82.6012330722834 
! Gamma         0                0                0                0                
! Port Impedance         50               0                50               0                
3.9                            0.0061953651074006 82.6272854136391 0.999364392913704 -1.66307339374319 0.999364392913705 -1.66307339374319 0.00619538710753032 82.6248368831781 
! Gamma         0                0                0                0                
! Port Impedance         50               0                50               0                
4                              0.00634495421400998 82.6490977973178 0.999355590889165 -1.70523050002287 0.999355590889166 -1.70523050002286 0.00634497714497412 82.646583552698  
! Gamma         0                0                0                0                
! Port Impedance         50               0                50               0                
4.1                            0.00649442541335874 82.6691408797465 0.999346912115985 -1.74738105909088 0.999346912115986 -1.74738105909088 0.00649444929724105 82.6665608502471 
! Gamma         0                0                0                0                
! Port Impedance         50               0                50               0                
4.2                            0.00664378697286735 82.6874925884657 0.99933835121223 -1.78952554625529 0.99933835121223 -1.78952554625529 0.0066438118311031 82.6848466997398 
! Gamma         0                0                0                0                
! Port Impedance         50               0                50               0                
4.3                            0.00679304647189975 82.7042225810375 0.999329902674968 -1.83166439985542 0.999329902674969 -1.83166439985542 0.00679307232522401 82.7015107564068 
! Gamma         0                0                0                0                
! Port Impedance         50               0                50               0                
4.4                            0.00694221083268604 82.7193935620917 0.999321560923746 -1.87379802275478 0.999321560923747 -1.87379802275479 0.00694223770109644 82.716615723664  
! Gamma         0                0                0                0                
! Port Impedance         50               0                50               0                
4.5                            0.00709128635319972 82.7330623821709 0.999313320339014 -1.91592678396328 0.999313320339015 -1.91592678396329 0.00709131425593173 82.7302184517963 
! Gamma         0                0                0                0                
! Port Impedance         50               0                50               0                
4.6                            0.00724027874113936 82.7452809536123 0.999305175295775 -1.95805102034123 0.999305175295775 -1.95805102034125 0.00724030769665226 82.7423708536932 
! Gamma         0                0                0                0                
! Port Impedance         50               0                50               0                
4.7                            0.00738919314832776 82.7560970131772 0.999297120192745 -2.00017103834663 0.999297120192746 -2.00017103834665 0.00738922317429975 82.7531206673479 
! Gamma         0                0                0                0                
! Port Impedance         50               0                50               0                
4.8                            0.00753803420498207 82.7655547564544 0.999289149477385 -2.04228711579415 0.999289149477386 -2.04228711579418 0.00753806531831306 82.7625120901439 
! Gamma         0                0                0                0                
! Port Impedance         50               0                50               0                
4.9                            0.00768680605342709 82.7736953650911 0.999281257667141 -2.08439950360106 0.999281257667142 -2.08439950360109 0.00768683827024779 82.7705863059837 
! Gamma         0                0                0                0                
! Port Impedance         50               0                50               0                
5                              0.0078355123809241 82.7805574445546 0.999273439367259 -2.12650842750048 0.99927343936726 -2.12650842750051 0.00783554571661035 82.7773819229594 
! Gamma         0                0                0                0                
! Port Impedance         50               0                50               0                
5.1                            0.00798415645137123 82.7861773872873 0.999265689285521 -2.1686140897071 0.999265689285522 -2.16861408970713 0.00798419092056257 82.7829353364296 
! Gamma         0                0                0                0                
! Port Impedance         50               0                50               0                
5.2                            0.00813274113570018 82.790589673728  0.999258002244231 -2.21071667052417 0.999258002244232 -2.21071667052421 0.00813277675232172 82.7872810299716 
! Gamma         0                0                0                0                
! Port Impedance         50               0                50               0                
5.3                            0.00828126894085073 82.7938271216505 0.999250373189765 -2.25281632988384 0.999250373189766 -2.25281632988388 0.00828130571813761 82.7904518246613 
! Gamma         0                0                0                0                
! Port Impedance         50               0                50               0                
5.4                            0.00842974203725038 82.7959210925724 0.999242797199976 -2.2949132088155 0.999242797199976 -2.29491320881554 0.00842977998777418 82.7924790854317 
! Gamma         0                0                0                0                
! Port Impedance         50               0                50               0                
5.5                            0.00857816228476308 82.7969016625564 0.999235269489721 -2.3370074308389 0.999235269489722 -2.33700743083895 0.00857820142045957 82.7933928918303 
! Gamma         0                0                0                0                
! Port Impedance         50               0                50               0                
5.6                            0.00872653125710019 82.7967977635191 0.999227785414758 -2.37909910328053 0.999227785414759 -2.37909910328058 0.00872657158929797 82.7932221792923 
! Gamma         0                0                0                0                
! Port Impedance         50               0                50               0                
5.7                            0.00887485026470952 82.7956373001564 0.999220340474226 -2.42118831851297 0.999220340474226 -2.42118831851302 0.00887489180415924 82.7919948560346 
! Gamma         0                0                0                0                
! Port Impedance         50               0                50               0                
5.8                            0.00902312037617577 82.7934472467398 0.999212930311914 -2.46327515511827 0.999212930311915 -2.46327515511832 0.00902316313307943 82.7897378998274 
! Gamma         0                0                0                0                
! Port Impedance         50               0                50               0                
5.9                            0.00917134243817839 82.7902537273307 0.999205550716502 -2.50535967897687 0.999205550716503 -2.50535967897692 0.00917138642221861 82.786477438187  
! Gamma         0                0                0                0                
! Port Impedance         50               0                50               0                
6                              0.00931951709406274 82.7860820823601 0.999198197620915 -2.54744194428453 0.999198197620917 -2.54744194428458 0.0093195623144317 82.7822388149386 
! Gamma         0                0                0                0                
! Port Impedance         50               0                50               0                
6.1                            0.00946764480108651 82.7809569240219 0.999190867100953 -2.58952199449986 0.999190867100954 -2.58952199449991 0.00946769126651432 82.7770466455962 
! Gamma         0                0                0                0                
! Port Impedance         50               0                50               0                
6.2                            0.00961572584640768 82.7749021825105 0.999183555373299 -2.6315998632256 0.9991835553733  -2.63159986322565 0.00961577356519021 82.7709248635889 
! Gamma         0                0                0                0                
! Port Impedance         50               0                50               0                
6.3                            0.00976376036188246 82.7679411447837 0.999176258793038 -2.67367557502686 0.999176258793039 -2.67367557502691 0.00976380934190831 82.7638967590159 
! Gamma         0                0                0                0                
! Port Impedance         50               0                50               0                
6.4                            0.00991174833774255 82.760096487239  0.999168973850758 -2.71574914618971 0.999168973850759 -2.71574914618976 0.00991179858651928 82.7559850113169 
! Gamma         0                0                0                0                
! Port Impedance         50               0                50               0                
6.5                            0.0100596896352205 82.7513903034511 0.999161697169331 -2.75782058542346 0.999161697169332 -2.75782058542352 0.0100597411598998 82.7472117170046 
! Gamma         0                0                0                0                
! Port Impedance         50               0                50               0                
6.6                            0.0102075839981907 82.7418441279112 0.999154425500442 -2.79988989451009 0.999154425500443 -2.79988989451015 0.010207636805593 82.7375984134021 
! Gamma         0                0                0                0                
! Port Impedance         50               0                50               0                
6.7                            0.0103554310638918 82.7314789565438 0.999147155720929 -2.84195706890403 0.999147155720929 -2.84195706890409 0.0103554851605292 82.7271660991577 
! Gamma         0                0                0                0                
! Port Impedance         50               0                50               0                
6.8                            0.0105032303727936 82.720315264635  0.999139884828982 -2.88402209828565 0.999139884828983 -2.88402209828571 0.0105032857648926 82.7159352521726 
! Gamma         0                0                0                0                
! Port Impedance         50               0                50               0                
6.9                            0.0106509813776692 82.7083730226883 0.999132609940259 -2.92608496707152 0.99913260994026 -2.92608496707158 0.010651038071192 82.7039258454579 
! Gamma         0                0                0                0                
! Port Impedance         50               0                50               0                
7                              0.0107986834519295 82.6956717106314 0.99912532828394 -2.9681456548844 0.999125328283941 -2.96814565488446 0.0107987414525942 82.6911573613421 
! Gamma         0                0                0                0                
! Port Impedance         50               0                50               0                
7.1                            0.0109463358972745 82.6822303307122 0.999118037198768 -3.01020413698584 0.999118037198769 -3.0102041369859 0.0109463952105751 82.6776488043691 
! Gamma         0                0                0                0                
! Port Impedance         50               0                50               0                
7.2                            0.0110939379507138 82.6680674193625 0.999110734129096 -3.05226038467406 0.999110734129097 -3.05226038467412 0.011093998581938 82.6634187131643 
! Gamma         0                0                0                0                
! Port Impedance         50               0                50               0                
7.3                            0.0112414887910025 82.6532010582479 0.999103416620967 -3.09431436564971 0.999103416620968 -3.09431436564977 0.0112415507452497 82.648485171487  
! Gamma         0                0                0                0                
! Port Impedance         50               0                50               0                
7.4                            0.0113889875445391 82.6376488846816 0.999096082318241 -3.13636604435184 0.999096082318242 -3.1363660443519 0.0113890508267372 82.6328658186469 
! Gamma         0                0                0                0                
! Port Impedance         50               0                50               0                
7.5                            0.0115364332907675 82.6214281015409 0.999088728958791 -3.17841538226637 0.999088728958792 -3.17841538226642 0.0115364979056886 82.6165778594248 
! Gamma         0                0                0                0                
! Port Impedance         50               0                50               0                
7.6                            0.0116838250671212 82.6045554867978 0.999081354370776 -3.22046233820912 0.999081354370777 -3.22046233820918 0.0116838910193964 82.599638073605  
! Gamma         0                0                0                0                
! Port Impedance         50               0                50               0                
7.7                            0.0118311618735469 82.5870474027466 0.999073956469001 -3.26250686858548 0.999073956469001 -3.26250686858553 0.0118312291676808 82.5820628252079 
! Gamma         0                0                0                0                
! Port Impedance         50               0                50               0                
7.8                            0.0119784426766417 82.5689198049971 0.999066533251375 -3.30454892762829 0.999066533251376 -3.30454892762834 0.0119785113170259 82.5638680714855 
! Gamma         0                0                0                0                
! Port Impedance         50               0                50               0                
7.9                            0.0121256664134342 82.5501882512804 0.999059082795473 -3.34658846761601 0.999059082795473 -3.34658846761606 0.0121257364043599 82.5450693717311 
! Gamma         0                0                0                0                
! Port Impedance         50               0                50               0                
8                              0.0122728319948391 82.530867910106  0.999051603255196 -3.38862543907234 0.999051603255196 -3.38862543907239 0.0122729033405092 82.5256818959402 
! Gamma         0                0                0                0                
! Port Impedance         50               0                50               0                
8.1                            0.0124199383088123 82.5109735692957 0.99904409285755 -3.43065979094911 0.99904409285755 -3.43065979094915 0.0124200110133526 82.505720433347  
! Gamma         0                0                0                0                
! Port Impedance         50               0                50               0                
8.2                            0.0125669842232301 82.4905196444128 0.99903654989953 -3.47269147079352 0.99903654989953 -3.47269147079356 0.0125670582907005 82.4851994008582 
! Gamma         0                0                0                0                
! Port Impedance         50               0                50               0                
8.3                            0.0127139685885167 82.4695201870998 0.999028972745113 -3.51472042490121 0.999028972745113 -3.51472042490125 0.0127140440229211 82.4641328513927 
! Gamma         0                0                0                0                
! Port Impedance         50               0                50               0                
8.4                            0.0128608902400401 82.4479888933299 0.999021359822369 -3.55674659845607 0.999021359822369 -3.55674659845611 0.0128609670453359 82.4425344821373 
! Gamma         0                0                0                0                
! Port Impedance         50               0                50               0                
8.5                            0.0130077480002954 82.4259391115764 0.999013709620677 -3.59876993565813 0.999013709620677 -3.59876993565817 0.0130078261804031 82.4204176427189 
! Gamma         0                0                0                0                
! Port Impedance         50               0                50               0                
8.6                            0.0131545406808946 82.4033838509017 0.999006020688049 -3.64079037984026 0.99900602068805 -3.64079037984029 0.0131546202397057 82.3977953432964 
! Gamma         0                0                0                0                
! Port Impedance         50               0                50               0                
8.7                            0.0133012670843773 82.3803357889619 0.998998291628568 -3.68280787357476 0.998998291628568 -3.68280787357478 0.013301348025763 82.3746802625683 
! Gamma         0                0                0                0                
! Port Impedance         50               0                50               0                
8.8                            0.0134479260058594 82.3568072799252 0.998990521099918 -3.72482235877059 0.998990521099918 -3.72482235877061 0.013448008333678 82.3510847556941 
! Gamma         0                0                0                0                
! Port Impedance         50               0                50               0                
8.9                            0.0135945162345314 82.3328103623005 0.99898270781103 -3.76683377676207 0.99898270781103 -3.76683377676208 0.0135945999526358 82.3270208621253 
! Gamma         0                0                0                0                
! Port Impedance         50               0                50               0                
9                              0.0137410365550212 82.3083567666699 0.998974850519821 -3.80884206838965 0.998974850519821 -3.80884206838966 0.0137411216672656 82.3025003133406 
! Gamma         0                0                0                0                
! Port Impedance         50               0                50               0                
9.1                            0.0138874857486313 82.2834579233215 0.998966948031024 -3.85084717407356 0.998966948031024 -3.85084717407357 0.0138875722588775 82.2775345404813 
! Gamma         0                0                0                0                
! Port Impedance         50               0                50               0                
9.2                            0.0140338625944609 82.2581249697766 0.998958999194121 -3.89284903388078 0.998958999194121 -3.89284903388079 0.014033950506585 82.2521346818808 
! Gamma         0                0                0                0                
! Port Impedance         50               0                50               0                
9.3                            0.014180165870425 82.2323687582062 0.998951002901363 -3.93484758758599 0.998951002901362 -3.93484758758599 0.0141802551883227 82.2263115904832 
! Gamma         0                0                0                0                
! Port Impedance         50               0                50               0                
9.4                            0.0143263943541762 82.2061998627328 0.99894295808587 -3.97684277472692 0.99894295808587 -3.97684277472691 0.0143264850817685 82.2000758411472 
! Gamma         0                0                0                0                
! Port Impedance         50               0                50               0                
9.5                            0.0144725468239399 82.1796285866119 0.998934863719829 -4.01883453465469 0.998934863719829 -4.01883453465468 0.0144726389651784 82.1734377378301 
! Gamma         0                0                0                0                
! Port Impedance         50               0                50               0                
9.6                            0.0146186220592693 82.1526649692901 0.998926718812758 -4.0608228065794 0.998926718812757 -4.06082280657938 0.0146187156181414 82.1464073206472 
! Gamma         0                0                0                0                
! Port Impedance         50               0                50               0                
9.7                            0.0147646188417276 82.1253187933354 0.998918522409854 -4.10280752961151 0.998918522409853 -4.10280752961148 0.0147647138222605 82.1189943728046 
! Gamma         0                0                0                0                
! Port Impedance         50               0                50               0                
9.8                            0.0149105359555026 82.0975995912378 0.998910273590422 -4.14478864279925 0.998910273590421 -4.14478864279922 0.0149106323617684 82.0912084274009 
! Gamma         0                0                0                0                
! Port Impedance         50               0                50               0                
9.9                            0.0150563721879612 82.0695166520753 0.99890197146636 -4.18676608516253 0.998901971466359 -4.18676608516249 0.015056470024081 82.0630587740953 
! Gamma         0                0                0                0                
! Port Impedance         50               0                50               0                
10                             0.0152021263301481 82.0410790280455 0.998893615180726 -4.22873979572348 0.998893615180725 -4.22873979572343 0.0152022256002958 82.0345544656406 
! Gamma         0                0                0                0                
! Port Impedance         50               0                50               0                
10.1                           0.0153485085763778 82.0139490176543 0.998886012939477 -4.27072656214088 0.998886012939476 -4.27072656214083 0.0153486099716478 82.007356644354  
! Gamma         0                0                0                0                
! Port Impedance         50               0                50               0                
10.2                           0.0154948254338032 81.9866605975556 0.99887842904975 -4.31271116965285 0.998878429049749 -4.3127111696528 0.0154949289496174 81.980000359184  
! Gamma         0                0                0                0                
! Port Impedance         50               0                50               0                
10.3                           0.0156410780400452 81.9592184548476 0.998870862955345 -4.35469367832639 0.998870862955344 -4.35469367832634 0.0156411836716668 81.9524903006873 
! Gamma         0                0                0                0                
! Port Impedance         50               0                50               0                
10.4                           0.0157872675056753 81.9316270037134 0.998863314096894 -4.39667414595892 0.998863314096893 -4.39667414595887 0.0157873752482315 81.9248308863382 
! Gamma         0                0                0                0                
! Port Impedance         50               0                50               0                
10.5                           0.0159333949142732 81.9038904030509 0.998855781912889 -4.43865262814682 0.998855781912888 -4.43865262814677 0.0159335047627767 81.8970262781654 
! Gamma         0                0                0                0                
! Port Impedance         50               0                50               0                
10.6                           0.0160794613225198 81.8760125729636 0.998848265840629 -4.48062917835307 0.998848265840628 -4.48062917835302 0.0160795732718901 81.8690803992478 
! Gamma         0                0                0                0                
! Port Impedance         50               0                50               0                
10.7                           0.0162254677603273 81.847997210185  0.998840765317104 -4.52260384797388 0.998840765317103 -4.52260384797383 0.0162255818054101 81.8409969491461 
! Gamma         0                0                0                0                
! Port Impedance         50               0                50               0                
10.8                           0.0163714152309994 81.8198478025098 0.998833279779816 -4.56457668640406 0.998833279779815 -4.56457668640401 0.016371531366586 81.812779418339  
! Gamma         0                0                0                0                
! Port Impedance         50               0                50               0                
10.9                           0.0165173047114225 81.7915676422945 0.998825808667537 -4.60654774110138 0.998825808667536 -4.60654774110132 0.0165174229322672 81.784431101729  
! Gamma         0                0                0                0                
! Port Impedance         50               0                50               0                
11                             0.0166631371522822 81.7631598390896 0.99881835142101 -4.64851705764954 0.998818351421009 -4.64851705764949 0.0166632574531201 81.7559551112809 
! Gamma         0                0                0                0                
! Port Impedance         50               0                50               0                
11.1                           0.0168089134783062 81.7346273314597 0.998810907483601 -4.69048467981999 0.9988109074836  -4.69048467981994 0.0168090358538688 81.7273543878464 
! Gamma         0                0                0                0                
! Port Impedance         50               0                50               0                
11.2                           0.0169546345885282 81.7059728980438 0.998803476301888 -4.73245064963231 0.998803476301887 -4.73245064963225 0.0169547590335591 81.69863171223   
! Gamma         0                0                0                0                
! Port Impedance         50               0                50               0                
11.3                           0.0171003013565729 81.677199167906  0.998796057326218 -4.7744150074133 0.998796057326217 -4.77441500741325 0.0171004278658423 81.669789715544  
! Gamma         0                0                0                0                
! Port Impedance         50               0                50               0                
11.4                           0.0172459146309591 81.6483086302204 0.998788650011201 -4.81637779185475 0.9987886500112  -4.81637779185469 0.0172460431992774 81.6408308888987 
! Gamma         0                0                0                0                
! Port Impedance         50               0                50               0                
11.5                           0.0173914752354195 81.6193036433359 0.998781253816176 -4.85833904006969 0.998781253816175 -4.85833904006963 0.0173916058576504 81.6117575924714 
! Gamma         0                0                0                0                
! Port Impedance         50               0                50               0                
11.6                           0.0175369839692352 81.5901864432575 0.998773868205625 -4.90029878764737 0.998773868205624 -4.90029878764732 0.0175371166403079 81.5825720639925 
! Gamma         0                0                0                0                
! Port Impedance         50               0                50               0                
11.7                           0.0176824416075831 81.5609591515846 0.998766492649556 -4.94225706870677 0.998766492649555 -4.94225706870672 0.0176825763225037 81.5532764266877 
! Gamma         0                0                0                0                
! Port Impedance         50               0                50               0                
11.8                           0.017827848901895 81.5316237829383 0.998759126623847 -4.9842139159487 0.998759126623846 -4.98421391594865 0.0178279856557575 81.52387269671   
! Gamma         0                0                0                0                
! Port Impedance         50               0                50               0                
11.9                           0.0179732065802274 81.5021822519126 0.998751769610557 -5.02616936070652 0.998751769610556 -5.02616936070646 0.0179733453682234 81.494362790094  
! Gamma         0                0                0                0                
! Port Impedance         50               0                50               0                
12                             0.0181185153476388 81.4726363795777 0.998744421098203 -5.06812343299545 0.998744421098202 -5.06812343299539 0.0181186561650674 81.4647485292642 
! Gamma         0                0                0                0                
! Port Impedance         50               0                50               0                
12.1                           0.0182637758865759 81.4429878995659 0.998737080582012 -5.11007616156049 0.998737080582011 -5.11007616156043 0.0182639187288523 81.4350316491239 
! Gamma         0                0                0                0                
! Port Impedance         50               0                50               0                
12.2                           0.0184089888572649 81.4132384637651 0.998729747564141 -5.15202757392298 0.998729747564141 -5.15202757392292 0.0184091337199287 81.4052138027524 
! Gamma         0                0                0                0                
! Port Impedance         50               0                50               0                
12.3                           0.0185541548981089 81.3833896476456 0.998722421553872 -5.19397769642577 0.998722421553871 -5.19397769642571 0.0185543017768317 81.3752965667356 
! Gamma         0                0                0                0                
! Port Impedance         50               0                50               0                
12.4                           0.0186992746260888 81.3534429552436 0.998715102067782 -5.23592655427705 0.998715102067781 -5.23592655427699 0.0186994235166813 81.3452814461523 
! Gamma         0                0                0                0                
! Port Impedance         50               0                50               0                
12.5                           0.0188443486371677 81.3233998238216 0.998707788629891 -5.27787417159291 0.99870778862989 -5.27787417159285 0.0188444995355863 81.3151698792387 
! Gamma         0                0                0                0                
! Port Impedance         50               0                50               0                
12.6                           0.0189893775066976 81.2932616282289 0.99870048077179 -5.31982057143848 0.998700480771789 -5.31982057143842 0.0189895304090504 81.2849632417512 
! Gamma         0                0                0                0                
! Port Impedance         50               0                50               0                
12.7                           0.0191343617898273 81.2630296849788 0.998693178032746 -5.36176577586791 0.998693178032745 -5.36176577586785 0.0191345166923796 81.2546628510466 
! Gamma         0                0                0                0                
! Port Impedance         50               0                50               0                
12.8                           0.0192793020219113 81.2327052560607 0.998685879959787 -5.40370980596303 0.998685879959786 -5.40370980596296 0.0192794589210908 81.2242699698979 
! Gamma         0                0                0                0                
! Port Impedance         50               0                50               0                
12.9                           0.0194241987189182 81.2022895525055 0.998678586107777 -5.44565268187074 0.998678586107776 -5.44565268187068 0.0194243576113195 81.1937858100618 
! Gamma         0                0                0                0                
! Port Impedance         50               0                50               0                
13                             0.0195690523778392 81.1717837377184 0.998671296039469 -5.48759442283931 0.998671296039468 -5.48759442283924 0.0195692132602281 81.1632115356142 
! Gamma         0                0                0                0                
! Port Impedance         50               0                50               0                
13.1                           0.0197138634770943 81.1411889305934 0.99866400932554 -5.52953504725333 0.998664009325539 -5.52953504725326 0.0197140263464116 81.1325482660678 
! Gamma         0                0                0                0                
! Port Impedance         50               0                50               0                
13.2                           0.0198586324769373 81.1105062084258 0.998656725544621 -5.57147457266765 0.998656725544621 -5.57147457266759 0.0198587973303023 81.1017970792861 
! Gamma         0                0                0                0                
! Port Impedance         50               0                50               0                
13.3                           0.0200033598198588 81.0797366096316 0.99864944428331 -5.61341301584014 0.998649444283309 -5.61341301584008 0.0200035266545718 81.0709590142064 
! Gamma         0                0                0                0                
! Port Impedance         50               0                50               0                
13.4                           0.0201480459309847 81.0488811362902 0.998642165136167 -5.65535039276329 0.998642165136166 -5.65535039276322 0.0201482147445305 81.0400350733837 
! Gamma         0                0                0                0                
! Port Impedance         50               0                50               0                
13.5                           0.0202926912184739 81.0179407565185 0.998634887705707 -5.69728671869481 0.998634887705706 -5.69728671869474 0.0202928620085234 81.0090262253678 
! Gamma         0                0                0                0                
! Port Impedance         50               0                50               0                
13.6                           0.0204372960739099 80.9869164066881 0.99862761160238 -5.73922200818717 0.998627611602379 -5.7392220081871 0.0204374688383225 80.977933406922  
! Gamma         0                0                0                0                
! Port Impedance         50               0                50               0                
13.7                           0.0205818608726905 80.9558089934964 0.99862033644454 -5.78115627511609 0.998620336444539 -5.78115627511603 0.0205820356095156 80.9467575250966 
! Gamma         0                0                0                0                
! Port Impedance         50               0                50               0                
13.8                           0.0207263859744114 80.9246193958991 0.998613061858403 -5.82308953270809 0.998613061858402 -5.82308953270802 0.0207265626818901 80.9154994591633 
! Gamma         0                0                0                0                
! Port Impedance         50               0                50               0                
13.9                           0.0208708717232468 80.8933484669147 0.998605787478005 -5.86502179356695 0.998605787478005 -5.86502179356689 0.0208710503998127 80.8841600624213 
! Gamma         0                0                0                0                
! Port Impedance         50               0                50               0                
14                             0.0210153184483237 80.8619970353079 0.998598512945146 -5.90695306969945 0.998598512945146 -5.90695306969939 0.021015499092604 80.8527401638827 
! Gamma         0                0                0                0                
! Port Impedance         50               0                50               0                
14.1                           0.0211597264640924 80.8305659071597 0.998591237909328 -5.94888337253997 0.998591237909327 -5.94888337253991 0.0211599090749083 80.8212405698446 
! Gamma         0                0                0                0                
! Port Impedance         50               0                50               0                
14.2                           0.0213040960706908 80.7990558673329 0.998583962027691 -5.99081271297435 0.99858396202769 -5.99081271297428 0.0213042806470582 80.7896620653554 
! Gamma         0                0                0                0                
! Port Impedance         50               0                50               0                
14.3                           0.0214484275543036 80.7674676808374 0.998576684964936 -6.03274110136284 0.998576684964935 -6.03274110136277 0.0214486140954332 80.7580054155826 
! Gamma         0                0                0                0                
! Port Impedance         50               0                50               0                
14.4                           0.0215927211875164 80.735802094103  0.998569406393255 -6.07466854756223 0.998569406393254 -6.07466854756217 0.0215929096928133 80.7262713670866 
! Gamma         0                0                0                0                
! Port Impedance         50               0                50               0                
14.5                           0.0217369772296628 80.7040598361661 0.998562125992242 -6.11659506094718 0.998562125992242 -6.11659506094711 0.0217371676987267 80.6944606490088 
! Gamma         0                0                0                0                
! Port Impedance         50               0                50               0                
14.6                           0.0218811959271673 80.6722416197748 0.998554843448815 -6.15852065043074 0.998554843448814 -6.15852065043067 0.0218813883597919 80.6625739741783 
! Gamma         0                0                0                0                
! Port Impedance         50               0                50               0                
14.7                           0.0220253775138808 80.6403481424178 0.998547558457118 -6.20044532448414 0.998547558457118 -6.20044532448407 0.0220255719100532 80.6306120401419 
! Gamma         0                0                0                0                
! Port Impedance         50               0                50               0                
14.8                           0.0221695222114111 80.6083800872826 0.998540270718436 -6.24236909115584 0.998540270718435 -6.24236909115578 0.0221697185713111 80.598575530124  
! Gamma         0                0                0                0                
! Port Impedance         50               0                50               0                
14.9                           0.0223136302294468 80.5763381241471 0.998532979941095 -6.28429195808988 0.998532979941094 -6.28429195808981 0.022313828553446 80.5664651139188 
! Gamma         0                0                0                0                
! Port Impedance         50               0                50               0                
15                             0.0224577017660756 80.5442229102092 0.998525685840365 -6.32621393254348 0.998525685840365 -6.32621393254342 0.0224579020547362 80.5342814487214 
! Gamma         0                0                0                0                
! Port Impedance         50               0                50               0                
15.1                           0.0226017370080959 80.5120350908579 0.998518388138364 -6.36813502140412 0.998518388138364 -6.36813502140405 0.0226019392621695 80.5020251799001 
! Gamma         0                0                0                0                
! Port Impedance         50               0                50               0                
15.2                           0.0227457361313225 80.4797753003905 0.998511086563949 -6.41005523120578 0.998511086563949 -6.41005523120571 0.022745940351749 80.4696969417143 
! Gamma         0                0                0                0                
! Port Impedance         50               0                50               0                
15.3                           0.0228896993008865 80.4474441626786 0.99850378085262 -6.45197456814474 0.998503780852619 -6.45197456814467 0.0228899054887925 80.4372973579819 
! Gamma         0                0                0                0                
! Port Impedance         50               0                50               0                
15.4                           0.0230336266715286 80.4150422917867 0.998496470746407 -6.49389303809465 0.998496470746407 -6.49389303809459 0.0230338348282258 80.4048270426985 
! Gamma         0                0                0                0                
! Port Impedance         50               0                50               0                
15.5                           0.0231775183878865 80.382570292547  0.998489155993774 -6.53581064662113 0.998489155993774 -6.53581064662106 0.0231777285148701 80.3722866006134 
! Gamma         0                0                0                0                
! Port Impedance         50               0                50               0                
15.6                           0.0233213745847759 80.3500287610918 0.998481836349503 -6.5777273989957 0.998481836349503 -6.57772739899563 0.0233215866837229 80.3396766277627 
! Gamma         0                0                0                0                
! Port Impedance         50               0                50               0                
15.7                           0.023465195387466 80.317418285348  0.998474511574594 -6.61964330020923 0.998474511574593 -6.61964330020916 0.0234654094602334 80.3069977119646 
! Gamma         0                0                0                0                
! Port Impedance         50               0                50               0                
15.8                           0.0236089809119488 80.284739445495  0.99846718143615 -6.66155835498489 0.998467181436149 -6.66155835498482 0.0236091969605713 80.2742504332786 
! Gamma         0                0                0                0                
! Port Impedance         50               0                50               0                
15.9                           0.0237527312652018 80.2519928143896 0.998459845707275 -6.70347256779053 0.998459845707275 -6.70347256779047 0.0237529492918904 80.2414353644301 
! Gamma         0                0                0                0                
! Port Impedance         50               0                50               0                
16                             0.0238964465454457 80.2191789579579 0.998452504166965 -6.74538594285063 0.998452504166964 -6.74538594285057 0.0238966665525851 80.2085530712043 
! Gamma         0                0                0                0                
! Port Impedance         50               0                50               0                
16.1                           0.0240401268423956 80.1862984355601 0.998445156599995 -6.78729848415773 0.998445156599995 -6.78729848415767 0.0240403488325424 80.1756041128105 
! Gamma         0                0                0                0                
! Port Impedance         50               0                50               0                
16.2                           0.0241837722375069 80.1533518003257 0.998437802796818 -6.82921019548347 0.998437802796817 -6.8292101954834 0.0241839962133873 80.142589042219  
! Gamma         0                0                0                0                
! Port Impedance         50               0                50               0                
16.3                           0.024327382804215 80.1203395994646 0.998430442553451 -6.87112108038911 0.998430442553451 -6.87112108038905 0.0243276087687223 80.1095084064722 
! Gamma         0                0                0                0                
! Port Impedance         50               0                50               0                
16.4                           0.0244709586081693 80.0872623745541 0.998423075671373 -6.91303114223573 0.998423075671372 -6.91303114223566 0.0244711865643622 80.0763627469721 
! Gamma         0                0                0                0                
! Port Impedance         50               0                50               0                
16.5                           0.0246144997074627 80.0541206618034 0.998415701957415 -6.95494038419392 0.998415701957414 -6.95494038419386 0.0246147296585623 80.0431525997458 
! Gamma         0                0                0                0                
! Port Impedance         50               0                50               0                
16.6                           0.0247580061528539 80.0209149922979 0.998408321223655 -6.99684880925317 0.998408321223655 -6.9968488092531 0.0247582381022418 80.0098784956902 
! Gamma         0                0                0                0                
! Port Impedance         50               0                50               0                
16.7                           0.0249014779879856 79.987645892224  0.998400933287314 -7.03875642023078 0.998400933287314 -7.03875642023072 0.0249017119392013 79.9765409607972 
! Gamma         0                0                0                0                
! Port Impedance         50               0                50               0                
16.8                           0.0250449152495972 79.9543138830764 0.998393537970651 -7.08066321978053 0.99839353797065 -7.08066321978047 0.0250451512063354 79.9431405163615 
! Gamma         0                0                0                0                
! Port Impedance         50               0                50               0                
16.9                           0.0251883179677312 79.9209194818482 0.998386135100856 -7.1225692104009 0.998386135100856 -7.12256921040083 0.02518855593384 79.9096776791712 
! Gamma         0                0                0                0                
! Port Impedance         50               0                50               0                
17                             0.0253316861659363 79.8874632012062 0.998378724509956 -7.16447439444296 0.998378724509956 -7.1644743944429 0.0253319261454139 79.8761529616836 
! Gamma         0                0                0                0                
! Port Impedance         50               0                50               0                
17.1                           0.0254750198614636 79.8539455496516 0.998371306034703 -7.20637877411803 0.998371306034702 -7.20637877411798 0.0254752618584563 79.8425668721862 
! Gamma         0                0                0                0                
! Port Impedance         50               0                50               0                
17.2                           0.0256183190654587 79.8203670316671 0.998363879516482 -7.24828235150489 0.998363879516482 -7.24828235150483 0.0256185630842584 79.8089199149443 
! Gamma         0                0                0                0                
! Port Impedance         50               0                50               0                
17.3                           0.0257615837831494 79.786728147852  0.99835644480121 -7.29018512855678 0.998356444801209 -7.29018512855672 0.0257618298281907 79.7752125903366 
! Gamma         0                0                0                0                
! Port Impedance         50               0                50               0                
17.4                           0.0259048140140275 79.753029395046  0.998349001739232 -7.33208710710808 0.998349001739232 -7.33208710710802 0.0259050620898852 79.7414453949788 
! Gamma         0                0                0                0                
! Port Impedance         50               0                50               0                
17.5                           0.0260480097520266 79.7192712664414 0.998341550185235 -7.37398828888072 0.998341550185235 -7.37398828888065 0.0260482598634133 79.7076188218369 
! Gamma         0                0                0                0                
! Port Impedance         50               0                50               0                
17.6                           0.0261911709856951 79.6854542516871 0.998334089998143 -7.41588867549029 0.998334089998143 -7.41588867549023 0.0261914231374587 79.6737333603309 
! Gamma         0                0                0                0                
! Port Impedance         50               0                50               0                
17.7                           0.026334297698365 79.6515788369816 0.998326621041027 -7.45778826845195 0.998326621041027 -7.4577882684519 0.026334551895486 79.6397894964287 
! Gamma         0                0                0                0                
! Port Impedance         50               0                50               0                
17.8                           0.0264773898683159 79.6176455051593 0.998319143181013 -7.49968706918603 0.998319143181013 -7.49968706918597 0.0264776461159044 79.6057877127318 
! Gamma         0                0                0                0                
! Port Impedance         50               0                50               0                
17.9                           0.0266204474689344 79.5836547357677 0.998311656289187 -7.5415850790234 0.998311656289187 -7.54158507902334 0.0266207057722283 79.5717284885538 
! Gamma         0                0                0                0                
! Port Impedance         50               0                50               0                
18                             0.0267634704688704 79.549607005138  0.99830416024051 -7.58348229921065 0.99830416024051 -7.58348229921059 0.0267637308332322 79.5376122999906 
! Gamma         0                0                0                0                
! Port Impedance         50               0                50               0                
18.1                           0.0269064588321879 79.5155027864493 0.998296654913723 -7.625378730915  0.998296654913723 -7.62537873091494 0.0269067212631024 79.5034396199849 
! Gamma         0                0                0                0                
! Port Impedance         50               0                50               0                
18.2                           0.0270494125185128 79.4813425497861 0.998289140191267 -7.66727437522901 0.998289140191267 -7.66727437522895 0.0270496770215844 79.4692109183842 
! Gamma         0                0                0                0                
! Port Impedance         50               0                50               0                
18.3                           0.027192331483176 79.4471267621905 0.99828161595919 -7.70916923317511 0.99828161595919 -7.70916923317505 0.0271925980641262 79.434926661993  
! Gamma         0                0                0                0                
! Port Impedance         50               0                50               0                
18.4                           0.0273352156773532 79.4128558877093 0.998274082107067 -7.7510633057099 0.998274082107067 -7.75106330570985 0.0273354843420181 79.4005873146203 
! Gamma         0                0                0                0                
! Port Impedance         50               0                50               0                
18.5                           0.0274780650482005 79.3785303874361 0.998266538527917 -7.79295659372827 0.998266538527917 -7.79295659372821 0.027478335802528 79.3661933371214 
! Gamma         0                0                0                0                
! Port Impedance         50               0                50               0                
18.6                           0.0276208795389865 79.3441507195492 0.998258985118118 -7.8348490980673 0.998258985118118 -7.83484909806725 0.0276211523890342 79.3317451874368 
! Gamma         0                0                0                0                
! Port Impedance         50               0                50               0                
18.7                           0.0277636590892207 79.3097173393454 0.99825142177733 -7.87674081951008 0.99825142177733 -7.87674081951003 0.027763934041153 79.2972433206253 
! Gamma         0                0                0                0                
! Port Impedance         50               0                50               0                
18.8                           0.0279064036347789 79.2752306992704 0.998243848408415 -7.91863175878927 0.998243848408415 -7.91863175878922 0.0279066806948645 79.2626881888952 
! Gamma         0                0                0                0                
! Port Impedance         50               0                50               0                
18.9                           0.0280491131080238 79.2406912489455 0.998236264917361 -7.96052191659053 0.998236264917361 -7.96052191659048 0.0280493922826335 79.2280802416309 
! Gamma         0                0                0                0                
! Port Impedance         50               0                50               0                
19                             0.028191787437924 79.2060994351914 0.998228671213204 -8.00241129355577 0.998228671213204 -8.00241129355572 0.028192068733528 79.1934199254169 
! Gamma         0                0                0                0                
! Port Impedance         50               0                50               0                
19.1                           0.0283344265501686 79.1714557020493 0.998221067207954 -8.04429989028631 0.998221067207954 -8.04429989028626 0.0283347099733338 79.1587076840589 
! Gamma         0                0                0                0                
! Port Impedance         50               0                50               0                
19.2                           0.0284770303672783 79.1367604907998 0.998213452816524 -8.08618770734582 0.998213452816524 -8.08618770734577 0.0284773159246665 79.1239439586028 
! Gamma         0                0                0                0                
! Port Impedance         50               0                50               0                
19.3                           0.028619598808715 79.1020142399785 0.998205827956656 -8.12807474526318 0.998205827956656 -8.12807474526313 0.02861988650708 79.0891291873508 
! Gamma         0                0                0                0                
! Port Impedance         50               0                50               0                
19.4                           0.0287621317909865 79.0672173853908 0.998198192548853 -8.16996100453517 0.998198192548853 -8.16996100453512 0.0287624216371716 79.054263805876  
! Gamma         0                0                0                0                
! Port Impedance         50               0                50               0                
19.5                           0.0289046292277492 79.032370360124  0.998190546516306 -8.21184648562903 0.998190546516306 -8.21184648562898 0.0289049212286853 79.0193482470346 
! Gamma         0                0                0                0                
! Port Impedance         50               0                50               0                
19.6                           0.0290470910299081 78.997473594558  0.998182889784831 -8.25373118898495 0.998182889784831 -8.2537311889849 0.0290473851926109 78.9843829409766 
! Gamma         0                0                0                0                
! Port Impedance         50               0                50               0                
19.7                           0.0291895171057131 78.9625275163747 0.998175222282801 -8.29561511501837 0.998175222282801 -8.29561511501833 0.0291898134372808 78.9493683151557 
! Gamma         0                0                0                0                
! Port Impedance         50               0                50               0                
19.8                           0.0293319073608536 78.9275325505657 0.998167543941082 -8.33749826412222 0.998167543941082 -8.33749826412217 0.0293322058684649 78.9143047943366 
! Gamma         0                0                0                0                
! Port Impedance         50               0                50               0                
19.9                           0.0294742616985496 78.8924891194391 0.998159854692967 -8.37938063666899 0.998159854692967 -8.37938063666895 0.0294745623894611 78.8791928006022 
! Gamma         0                0                0                0                
! Port Impedance         50               0                50               0                
20                             0.0296165800196406 78.8573976426252 0.998152154474116 -8.42126223301279 0.998152154474116 -8.42126223301275 0.0296168829011845 78.8440327533594 
! Gamma         0                0                0                0                
! Port Impedance         50               0                50               0                
20.1                           0.029758862222672 78.8222585370813 0.998144443222497 -8.46314305349122 0.998144443222497 -8.46314305349118 0.0297591673022541 78.8088250693435 
! Gamma         0                0                0                0                
! Port Impedance         50               0                50               0                
20.2                           0.0299011082039787 78.7870722170958 0.99813672087832 -8.50502309842718 0.99813672087832 -8.50502309842714 0.029901415489076 78.7735701626229 
! Gamma         0                0                0                0                
! Port Impedance         50               0                50               0                
20.3                           0.0300433178577666 78.751839094291  0.998128987383987 -8.54690236813059 0.998128987383987 -8.54690236813055 0.030043627355925 78.7382684446018 
! Gamma         0                0                0                0                
! Port Impedance         50               0                50               0                
20.4                           0.0301854910761916 78.7165595776266 0.998121242684027 -8.58878086290003 0.998121242684027 -8.58878086289999 0.0301858027950239 78.7029203240235 
! Gamma         0                0                0                0                
! Port Impedance         50               0                50               0                
20.5                           0.0303276277494365 78.6812340734013 0.998113486725047 -8.63065858302424 0.998113486725047 -8.63065858302419 0.0303279416966202 78.6675262069725 
! Gamma         0                0                0                0                
! Port Impedance         50               0                50               0                
20.6                           0.0304697277657854 78.6458629852551 0.998105719455673 -8.67253552878362 0.998105719455673 -8.67253552878358 0.0304700439490605 78.6320864968762 
! Gamma         0                0                0                0                
! Port Impedance         50               0                50               0                
20.7                           0.030611791011696 78.6104467141705 0.998097940826496 -8.7144117004516 0.998097940826496 -8.71441170045156 0.030612109438863 78.596601594507  
! Gamma         0                0                0                0                
! Port Impedance         50               0                50               0                
20.8                           0.0307538173718703 78.5749856584738 0.998090150790025 -8.75628709829593 0.998090150790025 -8.75628709829589 0.0307541380507879 78.5610718979829 
! Gamma         0                0                0                0                
! Port Impedance         50               0                50               0                
20.9                           0.0308958067293222 78.5394802138364 0.998082349300631 -8.79816172257994 0.998082349300631 -8.7981617225799 0.0308961296679055 78.5254978027691 
! Gamma         0                0                0                0                
! Port Impedance         50               0                50               0                
21                             0.0310377589654443 78.5039307732756 0.998074536314498 -8.84003557356366 0.998074536314497 -8.84003557356363 0.0310380841716626 78.4898797016788 
! Gamma         0                0                0                0                
! Port Impedance         50               0                50               0                
21.1                           0.0311796739600718 78.4683377271554 0.998066711789574 -8.88190865150497 0.998066711789574 -8.88190865150494 0.0311800014419466 78.4542179848742 
! Gamma         0                0                0                0                
! Port Impedance         50               0                50               0                
21.2                           0.0313215515915451 78.4327014631874 0.998058875685526 -8.9237809566606 0.998058875685526 -8.92378095666056 0.0313218813571482 78.418513039867  
! Gamma         0                0                0                0                
! Port Impedance         50               0                50               0                
21.3                           0.0314633917367704 78.3970223664317 0.99805102796369 -8.9656524892871 0.99805102796369 -8.96565248928706 0.0314637237942218 78.3827652515199 
! Gamma         0                0                0                0                
! Port Impedance         50               0                50               0                
21.4                           0.0316051942712782 78.3613008192978 0.998043168587028 -9.00752324964177 0.998043168587028 -9.00752324964174 0.0316055286287444 78.3469750020471 
! Gamma         0                0                0                0                
! Port Impedance         50               0                50               0                
21.5                           0.0317469590692806 78.3255372015457 0.998035297520081 -9.04939323798352 0.998035297520081 -9.04939323798349 0.0317472957349725 78.3111426710153 
! Gamma         0                0                0                0                
! Port Impedance         50               0                50               0                
21.6                           0.0318886860037268 78.2897318902866 0.998027414728927 -9.09126245457368 0.998027414728927 -9.09126245457365 0.0318890249858978 78.275268635345  
! Gamma         0                0                0                0                
! Port Impedance         50               0                50               0                
21.7                           0.0320303749463562 78.253885259985  0.99801952018114 -9.13313089967671 0.99801952018114 -9.13313089967668 0.0320307162533004 78.2393532693119 
! Gamma         0                0                0                0                
! Port Impedance         50               0                50               0                
21.8                           0.0321720257677511 78.2179976824594 0.998011613845746 -9.17499857356097 0.998011613845745 -9.17499857356094 0.0321723694078016 78.2033969445482 
! Gamma         0                0                0                0                
! Port Impedance         50               0                50               0                
21.9                           0.0323136383373871 78.1820695268844 0.998003695693181 -9.21686547649933 0.998003695693181 -9.2168654764993 0.0323139843189138 78.1674000300443 
! Gamma         0                0                0                0                
! Port Impedance         50               0                50               0                
22                             0.0324552125236818 78.1461011597923 0.997995765695259 -9.25873160876979 0.997995765695259 -9.25873160876977 0.0324555608550901 78.1313628921507 
! Gamma         0                0                0                0                
! Port Impedance         50               0                50               0                
22.1                           0.0325967481940429 78.1100929450758 0.997987823825124 -9.3005969706561 0.997987823825124 -9.30059697065607 0.0325970988837715 78.0952858945804 
! Gamma         0                0                0                0                
! Port Impedance         50               0                50               0                
22.2                           0.0327382452149138 78.0740452439897 0.997979870057219 -9.3424615624482 0.997979870057219 -9.34246156244817 0.0327385982714333 78.0591693984108 
! Gamma         0                0                0                0                
! Port Impedance         50               0                50               0                
22.3                           0.0328797034518187 78.0379584151542 0.997971904367246 -9.38432538444279 0.997971904367247 -9.38432538444276 0.0328800588836298 78.023013762087  
! Gamma         0                0                0                0                
! Port Impedance         50               0                50               0                
22.4                           0.0330211227694059 78.0018328145572 0.997963926732133 -9.42618843694373 0.997963926732133 -9.4261884369437 0.0330214805850377 77.9868193414242 
! Gamma         0                0                0                0                
! Port Impedance         50               0                50               0                
22.5                           0.0331625030314899 77.9656687955582 0.997955937129994 -9.4680507202625 0.997955937129994 -9.46805072026249 0.0331628632394979 77.9505864896112 
! Gamma         0                0                0                0                
! Port Impedance         50               0                50               0                
22.6                           0.0333038441010919 77.9294667088917 0.997947935540101 -9.50991223471856 0.997947935540102 -9.50991223471854 0.0333042067100571 77.914315557214  
! Gamma         0                0                0                0                
! Port Impedance         50               0                50               0                
22.7                           0.0334451458404798 77.8932269026705 0.997939921942847 -9.55177298063968 0.997939921942847 -9.55177298063966 0.0334455108590063 77.8780068921795 
! Gamma         0                0                0                0                
! Port Impedance         50               0                50               0                
22.8                           0.0335864081112064 77.8569497223907 0.997931896319713 -9.5936329583623 0.997931896319713 -9.59363295836228 0.0335867755479203 77.8416608398397 
! Gamma         0                0                0                0                
! Port Impedance         50               0                50               0                
22.9                           0.0337276307741462 77.8206355109354 0.99792385865324 -9.63549216823178 0.997923858653239 -9.63549216823177 0.033728000637694 77.8052777429163 
! Gamma         0                0                0                0                
! Port Impedance         50               0                50               0                
23                             0.0338688136895319 77.7842846085801 0.997915808926993 -9.67735061060271 0.997915808926993 -9.67735061060269 0.0338691859885787 77.7688579415252 
! Gamma         0                0                0                0                
! Port Impedance         50               0                50               0                
23.1                           0.0340099567169893 77.7478973529975 0.997907747125537 -9.71920828583909 0.997907747125538 -9.71920828583907 0.0340103314602174 77.7324017731819 
! Gamma         0                0                0                0                
! Port Impedance         50               0                50               0                
23.2                           0.0341510597155706 77.7114740792629 0.997899673234403 -9.76106519431456 0.997899673234403 -9.76106519431454 0.0341514369116783 77.6959095728065 
! Gamma         0                0                0                0                
! Port Impedance         50               0                50               0                
23.3                           0.034292122543788 77.6750151198602 0.997891587240061 -9.8029213364126 0.997891587240061 -9.80292133641258 0.0342925022014875 77.6593816727301 
! Gamma         0                0                0                0                
! Port Impedance         50               0                50               0                
23.4                           0.0344331450596446 77.6385208046876 0.997883489129891 -9.84477671252666 0.997883489129891 -9.84477671252665 0.0344335271876613 77.6228184027001 
! Gamma         0                0                0                0                
! Port Impedance         50               0                50               0                
23.5                           0.034574127120666 77.6019914610641 0.997875378892158 -9.88663132306034 0.997875378892158 -9.88663132306033 0.0345745117277363 77.5862200898872 
! Gamma         0                0                0                0                
! Port Impedance         50               0                50               0                
23.6                           0.0347150685839295 77.5654274137366 0.997867256515985 -9.92848516842746 0.997867256515985 -9.92848516842745 0.0347154556788  77.5495870588914 
! Gamma         0                0                0                0                
! Port Impedance         50               0                50               0                
23.7                           0.0348559693060933 77.528828984886  0.997859121991325 -9.97033824905218 0.997859121991326 -9.97033824905217 0.0348563588975192 77.5129196317497 
! Gamma         0                0                0                0                
! Port Impedance         50               0                50               0                
23.8                           0.0349968291434244 77.4921964941354 0.997850975308941 -10.0121905653691 0.997850975308941 -10.0121905653691 0.034997221240168 77.4762181279427 
! Gamma         0                0                0                0                
! Port Impedance         50               0                50               0                
23.9                           0.0351376479518256 77.455530258557  0.997842816460373 -10.0540421178232 0.997842816460373 -10.0540421178232 0.0351380425626552 77.4394828644025 
! Gamma         0                0                0                0                
! Port Impedance         50               0                50               0                
24                             0.0352784255868618 77.4188305926805 0.997834645437924 -10.0958929068701 0.997834645437924 -10.0958929068701 0.0352788227205503 77.4027141555208 
! Gamma         0                0                0                0                
! Port Impedance         50               0                50               0                
24.1                           0.0354191619037856 77.3820978085007 0.997826462234629 -10.137742932976 0.997826462234629 -10.137742932976 0.035419561569109 77.3659123131563 
! Gamma         0                0                0                0                
! Port Impedance         50               0                50               0                
24.2                           0.0355598567575614 77.3453322154865 0.99781826684424 -10.1795921966175 0.99781826684424 -10.1795921966175 0.035560258963298 77.329077646644  
! Gamma         0                0                0                0                
! Port Impedance         50               0                50               0                
24.3                           0.0357005100028898 77.3085341205892 0.997810059261194 -10.2214406982818 0.997810059261194 -10.2214406982818 0.0357009147578183 77.2922104628031 
! Gamma         0                0                0                0                
! Port Impedance         50               0                50               0                
24.4                           0.0358411214942299 77.2717038282517 0.997801839480602 -10.2632884384666 0.997801839480602 -10.2632884384666 0.0358415288071289 77.2553110659465 
! Gamma         0                0                0                0                
! Port Impedance         50               0                50               0                
24.5                           0.0359816910858226 77.2348416404176 0.99779360749822 -10.3051354176803 0.997793607498221 -10.3051354176803 0.0359821009654686 77.2183797578898 
! Gamma         0                0                0                0                
! Port Impedance         50               0                50               0                
24.6                           0.0361222186317109 77.1979478565408 0.997785363310436 -10.3469816364416 0.997785363310437 -10.3469816364416 0.0361226310868779 77.181416837961  
! Gamma         0                0                0                0                
! Port Impedance         50               0                50               0                
24.7                           0.0362627039857619 77.1610227735951 0.997777106914244 -10.3888270952796 0.997777106914245 -10.3888270952796 0.0362631190252197 77.1444226030096 
! Gamma         0                0                0                0                
! Port Impedance         50               0                50               0                
24.8                           0.0364031470016863 77.1240666860845 0.997768838307229 -10.4306717947338 0.997768838307229 -10.4306717947338 0.0364035646341994 77.1073973474174 
! Gamma         0                0                0                0                
! Port Impedance         50               0                50               0                
24.9                           0.0365435475330583 77.0870798860529 0.997760557487544 -10.4725157353539 0.997760557487544 -10.4725157353539 0.0365439677673849 77.0703413631081 
! Gamma         0                0                0                0                
! Port Impedance         50               0                50               0                
25                             0.036683905433334 77.050062663095  0.997752264453897 -10.5143589176998 0.997752264453897 -10.5143589176998 0.036684328278225 77.033254939558  
! Gamma         0                0                0                0                
! Port Impedance         50               0                50               0                
25.1                           0.0368242205558702 77.0130153043667 0.997743959205533 -10.5562013423415 0.997743959205533 -10.5562013423415 0.0368246460200678 76.9961383638063 
! Gamma         0                0                0                0                
! Port Impedance         50               0                50               0                
25.2                           0.0369644927539417 76.9759380945961 0.99773564174221 -10.5980430098591 0.99773564174221 -10.5980430098591 0.0369649208461786 76.9589919204663 
! Gamma         0                0                0                0                
! Port Impedance         50               0                50               0                
25.3                           0.0371047218807584 76.9388313160944 0.997727312064191 -10.6398839208424 0.997727312064191 -10.6398839208424 0.0371051526097565 76.9218158917366 
! Gamma         0                0                0                0                
! Port Impedance         50               0                50               0                
25.4                           0.0372449077894817 76.9016952487674 0.997718970172224 -10.6817240758909 0.997718970172224 -10.6817240758909 0.0372453411639514 76.8846105574115 
! Gamma         0                0                0                0                
! Port Impedance         50               0                50               0                
25.5                           0.0373850503332406 76.8645301701267 0.997710616067523 -10.723563475614 0.997710616067523 -10.723563475614 0.0373854863618795 76.8473761948935 
! Gamma         0                0                0                0                
! Port Impedance         50               0                50               0                
25.6                           0.037525149365147 76.8273363553015 0.997702249751761 -10.7654021206303 0.997702249751761 -10.7654021206303 0.037525588056639 76.8101130792041 
! Gamma         0                0                0                0                
! Port Impedance         50               0                50               0                
25.7                           0.0376652047383103 76.7901140770503 0.997693871227046 -10.807240011568 0.997693871227046 -10.807240011568 0.0376656461013247 76.7728214829959 
! Gamma         0                0                0                0                
! Port Impedance         50               0                50               0                
25.8                           0.0378052163058522 76.752863605773  0.997685480495913 -10.8490771490643 0.997685480495913 -10.8490771490643 0.0378056603490425 76.7355016765647 
! Gamma         0                0                0                0                
! Port Impedance         50               0                50               0                
25.9                           0.0379451839209201 76.7155852095228 0.997677077561307 -10.8909135337656 0.997677077561307 -10.8909135337656 0.0379456306529234 76.6981539278613 
! Gamma         0                0                0                0                
! Port Impedance         50               0                50               0                
26                             0.0380851074367006 76.6782791540188 0.99766866242657 -10.9327491663271 0.997668662426571 -10.9327491663271 0.0380855568661364 76.660778502504  
! Gamma         0                0                0                0                
! Port Impedance         50               0                50               0                
26.1                           0.0382249867064324 76.6409457026581 0.99766023509543 -10.974584047413 0.99766023509543 -10.974584047413 0.0382254388419019 76.6233756637906 
! Gamma         0                0                0                0                
! Port Impedance         50               0                50               0                
26.2                           0.0383648215834187 76.6035851165285 0.997651795571982 -11.0164181776958 0.997651795571982 -11.0164181776958 0.0383652764335037 76.5859456727117 
! Gamma         0                0                0                0                
! Port Impedance         50               0                50               0                
26.3                           0.0385046119210393 76.5661976544214 0.997643343860683 -11.0582515578566 0.997643343860683 -11.0582515578566 0.0385050694943015 76.5484887879625 
! Gamma         0                0                0                0                
! Port Impedance         50               0                50               0                
26.4                           0.0386443575727617 76.5287835728442 0.997634879966336 -11.1000841885846 0.997634879966336 -11.1000841885846 0.0386448178777419 76.5110052659562 
! Gamma         0                0                0                0                
! Port Impedance         50               0                50               0                
26.5                           0.038784058392153 76.4913431260336 0.997626403894077 -11.1419160705772 0.997626403894077 -11.1419160705772 0.03878452143737 76.4734953608367 
! Gamma         0                0                0                0                
! Port Impedance         50               0                50               0                
26.6                           0.0389237142328897 76.4538765659683 0.997617915649368 -11.1837472045397 0.997617915649368 -11.1837472045397 0.0389241800268398 76.4359593244916 
! Gamma         0                0                0                0                
! Port Impedance         50               0                50               0                
26.7                           0.0390633249487689 76.4163841423825 0.997609415237982 -11.2255775911851 0.997609415237982 -11.2255775911851 0.0390637934999247 76.3983974065655 
! Gamma         0                0                0                0                
! Port Impedance         50               0                50               0                
26.8                           0.0392028903937175 76.378866102779  0.997600902665993 -11.267407231234 0.997600902665993 -11.2674072312341 0.0392033617105276 76.3608098544728 
! Gamma         0                0                0                0                
! Port Impedance         50               0                50               0                
26.9                           0.0393424104218023 76.3413226924424 0.997592377939768 -11.3092361254144 0.997592377939768 -11.3092361254144 0.0393428845126902 76.3231969134116 
! Gamma         0                0                0                0                
! Port Impedance         50               0                50               0                
27                             0.0394818848872389 76.3037541544527 0.997583841065954 -11.3510642744612 0.997583841065954 -11.3510642744612 0.0394823617606022 76.2855588263766 
! Gamma         0                0                0                0                
! Port Impedance         50               0                50               0                
27.1                           0.0396213136444005 76.2661607296988 0.997575292051471 -11.3928916791167 0.997575292051471 -11.3928916791167 0.0396217933086106 76.2478958341731 
! Gamma         0                0                0                0                
! Port Impedance         50               0                50               0                
27.2                           0.0397606965478269 76.2285426568921 0.997566730903498 -11.4347183401298 0.997566730903498 -11.4347183401298 0.0397611790112278 76.2102081754298 
! Gamma         0                0                0                0                
! Port Impedance         50               0                50               0                
27.3                           0.039900033452232 76.1909001725797 0.99755815762947 -11.476544258256 0.997558157629471 -11.4765442582561 0.0399005187231398 76.1724960866133 
! Gamma         0                0                0                0                
! Port Impedance         50               0                50               0                
27.4                           0.0400393242125122 76.1532335111589 0.997549572237065 -11.5183694342574 0.997549572237065 -11.5183694342575 0.0400398122992143 76.1347598020411 
! Gamma         0                0                0                0                
! Port Impedance         50               0                50               0                
27.5                           0.0401785686837534 76.1155429048904 0.997540974734197 -11.5601938689022 0.997540974734197 -11.5601938689023 0.0401790595945081 76.0969995538957 
! Gamma         0                0                0                0                
! Port Impedance         50               0                50               0                
27.6                           0.0403177667212388 76.0778285839122 0.997532365129005 -11.6020175629648 0.997532365129005 -11.6020175629648 0.0403182604642744 76.0592155722384 
! Gamma         0                0                0                0                
! Port Impedance         50               0                50               0                
27.7                           0.0404569181804555 76.0400907762536 0.997523743429849 -11.6438405172254 0.997523743429849 -11.6438405172254 0.0404574147639696 76.0214080850229 
! Gamma         0                0                0                0                
! Port Impedance         50               0                50               0                
27.8                           0.0405960229171011 76.0023297078489 0.9975151096453  -11.6856627324698 0.997515109645299 -11.6856627324698 0.0405965223492604 75.9835773181094 
! Gamma         0                0                0                0                
! Port Impedance         50               0                50               0                
27.9                           0.0407350807870904 75.9645456025518 0.997506463784131 -11.7274842094895 0.997506463784131 -11.7274842094895 0.0407355830760295 75.9457234952784 
! Gamma         0                0                0                0                
! Port Impedance         50               0                50               0                
28                             0.0408740916465611 75.9267386821486 0.997497805855316 -11.7693049490812 0.997497805855316 -11.7693049490812 0.0408745968003821 75.907846838245  
! Gamma         0                0                0                0                
! Port Impedance         50               0                50               0                
28.1                           0.0410130553518797 75.8889091663731 0.997489135868012 -11.8111249520467 0.997489135868012 -11.8111249520467 0.0410135633786521 75.8699475666723 
! Gamma         0                0                0                0                
! Port Impedance         50               0                50               0                
28.2                           0.0411519717596474 75.8510572729199 0.997480453831564 -11.8529442191929 0.997480453831565 -11.852944219193 0.0411524826674068 75.8320258981859 
! Gamma         0                0                0                0                
! Port Impedance         50               0                50               0                
28.3                           0.0412908407267051 75.8131832174589 0.997471759755491 -11.8947627513313 0.997471759755491 -11.8947627513314 0.041291354523453 75.7940820483877 
! Gamma         0                0                0                0                
! Port Impedance         50               0                50               0                
28.4                           0.0414296621101384 75.7752872136491 0.99746305364948 -11.9365805492781 0.99746305364948 -11.9365805492781 0.0414301788038418 75.7561162308699 
! Gamma         0                0                0                0                
! Port Impedance         50               0                50               0                
28.5                           0.0415684357672828 75.7373694731528 0.997454335523384 -11.9783976138537 0.997454335523384 -11.9783976138537 0.0415689553658735 75.7181286572293 
! Gamma         0                0                0                0                
! Port Impedance         50               0                50               0                
28.6                           0.041707161555728 75.6994302056498 0.997445605387211 -12.0202139458829 0.997445605387211 -12.0202139458829 0.041707684067102 75.6801195370813 
! Gamma         0                0                0                0                
! Port Impedance         50               0                50               0                
28.7                           0.0418458393333225 75.661469618851  0.997436863251124 -12.0620295461944 0.997436863251124 -12.0620295461944 0.0418463647653396 75.6420890780736 
! Gamma         0                0                0                0                
! Port Impedance         50               0                50               0                
28.8                           0.0419844689581777 75.6234879185132 0.99742810912543 -12.1038444156209 0.997428109125429 -12.1038444156209 0.0419849973186611 75.6040374859007 
! Gamma         0                0                0                0                
! Port Impedance         50               0                50               0                
28.9                           0.0421230502886716 75.5854853084526 0.997419343020576 -12.1456585549986 0.997419343020576 -12.1456585549986 0.0421235815854073 75.5659649643179 
! Gamma         0                0                0                0                
! Port Impedance         50               0                50               0                
29                             0.0422615831834532 75.547461990559  0.997410564947147 -12.1874719651672 0.997410564947147 -12.1874719651673 0.0422621174241895 75.527871715155  
! Gamma         0                0                0                0                
! Port Impedance         50               0                50               0                
29.1                           0.0424000675014452 75.5094181648103 0.997401774915858 -12.22928464697  0.997401774915858 -12.22928464697  0.0424006046938925 75.489757938331  
! Gamma         0                0                0                0                
! Port Impedance         50               0                50               0                
29.2                           0.0425385031018482 75.4713540292857 0.997392972937549 -12.271096601253 0.997392972937549 -12.271096601253 0.0425390432536783 75.4516238318675 
! Gamma         0                0                0                0                
! Port Impedance         50               0                50               0                
29.3                           0.0426768898441433 75.4332697801805 0.997384159023183 -12.3129078288655 0.997384159023183 -12.3129078288655 0.0426774329629893 75.4134695919028 
! Gamma         0                0                0                0                
! Port Impedance         50               0                50               0                
29.4                           0.0428152275880955 75.3951656118199 0.997375333183839 -12.3547183306595 0.997375333183839 -12.3547183306596 0.0428157736815509 75.3752954127064 
! Gamma         0                0                0                0                
! Port Impedance         50               0                50               0                
29.5                           0.0429535161937561 75.3570417166726 0.997366495430708 -12.3965281074897 0.997366495430708 -12.3965281074897 0.0429540652693749 75.3371014866923 
! Gamma         0                0                0                0                
! Port Impedance         50               0                50               0                
29.6                           0.0430917555214658 75.3188982853654 0.997357645775091 -12.4383371602131 0.997357645775091 -12.4383371602131 0.0430923075867618 75.2988880044334 
! Gamma         0                0                0                0                
! Port Impedance         50               0                50               0                
29.7                           0.0432299454318568 75.2807355066967 0.997348784228393 -12.4801454896892 0.997348784228392 -12.4801454896892 0.0432305004943033 75.2606551546754 
! Gamma         0                0                0                0                
! Port Impedance         50               0                50               0                
29.8                           0.0433680857858554 75.2425535676503 0.997339910802118 -12.5219530967795 0.997339910802118 -12.5219530967796 0.043368643852885 75.2224031243504 
! Gamma         0                0                0                0                
! Port Impedance         50               0                50               0                
29.9                           0.0435061764446839 75.2043526534097 0.99733102550787 -12.5637599823477 0.99733102550787 -12.5637599823477 0.043506737523688 75.1841320985909 
! Gamma         0                0                0                0                
! Port Impedance         50               0                50               0                
30                             0.0436442172698629 75.1661329473717 0.997322128357345 -12.605566147259 0.997322128357345 -12.605566147259 0.0436447813681915 75.1458422607437 
! Gamma         0                0                0                0                
! Port Impedance         50               0                50               0                
30.1                           0.043782208123213 75.12789463116   0.997313219362329 -12.6473715923805 0.997313219362329 -12.6473715923805 0.0437827752481742 75.1075337923836 
! Gamma         0                0                0                0                
! Port Impedance         50               0                50               0                
30.2                           0.0439201488668565 75.0896378846395 0.997304298534696 -12.6891763185808 0.997304298534695 -12.6891763185809 0.0439207190257162 75.069206873327  
! Gamma         0                0                0                0                
! Port Impedance         50               0                50               0                
30.3                           0.044058039363219 75.0513628859293 0.997295365886402 -12.7309803267299 0.997295365886401 -12.7309803267299 0.0440586125632009 75.030861681646  
! Gamma         0                0                0                0                
! Port Impedance         50               0                50               0                
30.4                           0.0441958794750309 75.0130698114169 0.997286421429486 -12.7727836176989 0.997286421429485 -12.7727836176989 0.0441964557233159 74.9924983936816 
! Gamma         0                0                0                0                
! Port Impedance         50               0                50               0                
30.5                           0.0443336690653288 74.9747588357717 0.997277465176063 -12.81458619236  0.997277465176063 -12.8145861923601 0.0443342483690547 74.9541171840576 
! Gamma         0                0                0                0                
! Port Impedance         50               0                50               0                
30.6                           0.0444714079974561 74.9364301319583 0.997268497138326 -12.8563880515865 0.997268497138325 -12.8563880515866 0.0444719903637177 74.9157182256939 
! Gamma         0                0                0                0                
! Port Impedance         50               0                50               0                
30.7                           0.0446090961350651 74.8980838712504 0.997259517328537 -12.8981891962523 0.997259517328537 -12.8981891962524 0.0446096815709134 74.8773016898202 
! Gamma         0                0                0                0                
! Port Impedance         50               0                50               0                
30.8                           0.0447467333421168 74.8597202232442 0.997250525759032 -12.9399896272321 0.997250525759031 -12.9399896272321 0.0447473218545594 74.8388677459896 
! Gamma         0                0                0                0                
! Port Impedance         50               0                50               0                
30.9                           0.0448843194828825 74.8213393558714 0.997241522442211 -12.9817893454009 0.99724152244221 -12.9817893454009 0.044884911078883 74.8004165620915 
! Gamma         0                0                0                0                
! Port Impedance         50               0                50               0                
31                             0.0450218544219444 74.7829414354132 0.997232507390542 -13.0235883516343 0.997232507390541 -13.0235883516343 0.045022449108422 74.7619483043655 
! Gamma         0                0                0                0                
! Port Impedance         50               0                50               0                
31.1                           0.0451593380241958 74.7445266265129 0.997223480616556 -13.0653866468081 0.997223480616555 -13.0653866468081 0.0451599358080255 74.7234631374143 
! Gamma         0                0                0                0                
! Port Impedance         50               0                50               0                
31.2                           0.0452967701548418 74.7060950921901 0.997214442132844 -13.1071842317981 0.997214442132843 -13.1071842317982 0.045297371042854 74.684961224217  
! Gamma         0                0                0                0                
! Port Impedance         50               0                50               0                
31.3                           0.0454341506793999 74.6676469938526 0.997205391952058 -13.1489811074804 0.997205391952057 -13.1489811074805 0.0454347546783803 74.6464427261425 
! Gamma         0                0                0                0                
! Port Impedance         50               0                50               0                
31.4                           0.0455714794637001 74.6291824913109 0.997196330086905 -13.1907772747306 0.997196330086905 -13.1907772747307 0.0455720865803892 74.6079078029624 
! Gamma         0                0                0                0                
! Port Impedance         50               0                50               0                
31.5                           0.0457087563738847 74.59070174279   0.997187256550151 -13.2325727344244 0.99718725655015 -13.2325727344244 0.0457093666149782 74.5693566128641 
! Gamma         0                0                0                0                
! Port Impedance         50               0                50               0                
31.6                           0.045845981276409 74.5522049049435 0.997178171354612 -13.2743674874367 0.997178171354611 -13.2743674874368 0.0458465946485574 74.5307893124637 
! Gamma         0                0                0                0                
! Port Impedance         50               0                50               0                
31.7                           0.0459831540380413 74.5136921328656 0.997169074513158 -13.3161615346425 0.997169074513158 -13.3161615346425 0.0459837705478493 74.4922060568191 
! Gamma         0                0                0                0                
! Port Impedance         50               0                50               0                
31.8                           0.0461202745258619 74.4751635801047 0.997159966038711 -13.3579548769156 0.997159966038711 -13.3579548769156 0.046120894179889 74.4536069994428 
! Gamma         0                0                0                0                
! Port Impedance         50               0                50               0                
31.9                           0.0462573426072641 74.4366193986758 0.997150845944241 -13.3997475151295 0.99715084594424 -13.3997475151296 0.046257965412024 74.4149922923144 
! Gamma         0                0                0                0                
! Port Impedance         50               0                50               0                
32                             0.0463943581499531 74.3980597390732 0.997141714242765 -13.4415394501568 0.997141714242765 -13.4415394501569 0.0463949841119138 74.3763620858938 
! Gamma         0                0                0                0                
! Port Impedance         50               0                50               0                
32.1                           0.0465313210219459 74.3594847502836 0.997132570947348 -13.4833306828691 0.997132570947348 -13.4833306828692 0.0465319501475295 74.3377165291337 
! Gamma         0                0                0                0                
! Port Impedance         50               0                50               0                
32.2                           0.0466682310915709 74.3208945797981 0.997123416071101 -13.525121214137 0.9971234160711  -13.5251212141371 0.0466688633871536 74.2990557694918 
! Gamma         0                0                0                0                
! Port Impedance         50               0                50               0                
32.3                           0.0468050882274675 74.2822893736251 0.997114249627177 -13.56691104483  0.997114249627176 -13.5669110448301 0.0468057236993792 74.2603799529441 
! Gamma         0                0                0                0                
! Port Impedance         50               0                50               0                
32.4                           0.0469418922985851 74.243669276303  0.997105071628774 -13.6087001758164 0.997105071628773 -13.6087001758164 0.0469425309531098 74.2216892239963 
! Gamma         0                0                0                0                
! Port Impedance         50               0                50               0                
32.5                           0.047078643174183 74.2050344309118 0.997095882089132 -13.6504886079631 0.997095882089131 -13.6504886079631 0.0470792850175584 74.1829837256974 
! Gamma         0                0                0                0                
! Port Impedance         50               0                50               0                
32.6                           0.047215340723829 74.1663849790862 0.997086681021532 -13.6922763421355 0.997086681021531 -13.6922763421356 0.0472159857622466 74.1442635996508 
! Gamma         0                0                0                0                
! Port Impedance         50               0                50               0                
32.7                           0.0473519848173994 74.1277210610275 0.997077468439294 -13.7340633791979 0.997077468439294 -13.7340633791979 0.0473526330570044 74.1055289860274 
! Gamma         0                0                0                0                
! Port Impedance         50               0                50               0                
32.8                           0.0474885753250774 74.0890428155159 0.997068244355781 -13.7758497200124 0.99706824435578 -13.7758497200125 0.0474892267719685 74.0667800235775 
! Gamma         0                0                0                0                
! Port Impedance         50               0                50               0                
32.9                           0.0476251121173524 74.0503503799224 0.997059008784392 -13.8176353654399 0.997059008784391 -13.81763536544  0.0476257667775821 74.0280168496427 
! Gamma         0                0                0                0                
! Port Impedance         50               0                50               0                
33                             0.0477615950650195 74.0116438902209 0.997049761738565 -13.8594203163394 0.997049761738564 -13.8594203163395 0.0477622529445937 73.9892396001681 
! Gamma         0                0                0                0                
! Port Impedance         50               0                50               0                
33.1                           0.0478980240391774 73.9729234810003 0.997040503231775 -13.9012045735679 0.997040503231774 -13.901204573568 0.0478986851440559 73.9504484097142 
! Gamma         0                0                0                0                
! Port Impedance         50               0                50               0                
33.2                           0.0480343989112283 73.9341892854764 0.997031233277534 -13.9429881379807 0.997031233277533 -13.9429881379807 0.0480350632473243 73.911643411469  
! Gamma         0                0                0                0                
! Port Impedance         50               0                50               0                
33.3                           0.0481707195528762 73.8954414355033 0.997021951889392 -13.9847710104308 0.997021951889391 -13.9847710104309 0.0481713871260564 73.8728247372592 
! Gamma         0                0                0                0                
! Port Impedance         50               0                50               0                
33.4                           0.0483069858361257 73.8566800615856 0.997012659080932 -14.0265531917695 0.997012659080931 -14.0265531917695 0.0483076566522106 73.8339925175625 
! Gamma         0                0                0                0                
! Port Impedance         50               0                50               0                
33.5                           0.0484431976332811 73.8179052928899 0.997003354865776 -14.0683346828455 0.997003354865775 -14.0683346828456 0.0484438716980446 73.7951468815191 
! Gamma         0                0                0                0                
! Port Impedance         50               0                50               0                
33.6                           0.0485793548169443 73.7791172572563 0.996994039257578 -14.1101154845057 0.996994039257576 -14.1101154845058 0.0485800321361142 73.7562879569429 
! Gamma         0                0                0                0                
! Port Impedance         50               0                50               0                
33.7                           0.0487154572600141 73.7403160812098 0.996984712270027 -14.1518955975945 0.996984712270026 -14.1518955975945 0.0487161378392719 73.7174158703337 
! Gamma         0                0                0                0                
! Port Impedance         50               0                50               0                
33.8                           0.0488515048356847 73.7015018899721 0.99697537391685 -14.1936750229539 0.996975373916849 -14.1936750229539 0.0488521886806653 73.678530746888  
! Gamma         0                0                0                0                
! Port Impedance         50               0                50               0                
33.9                           0.0489874974174439 73.6626748074727 0.996966024211803 -14.2354537614235 0.996966024211802 -14.2354537614235 0.0489881845337363 73.6396327105103 
! Gamma         0                0                0                0                
! Port Impedance         50               0                50               0                
34                             0.0491234348790716 73.62383495636   0.996956663168679 -14.2772318138404 0.996956663168678 -14.2772318138405 0.0491241252722186 73.6007218838252 
! Gamma         0                0                0                0                
! Port Impedance         50               0                50               0                
34.1                           0.0492593170946386 73.584982458013  0.996947290801305 -14.3190091810394 0.996947290801304 -14.3190091810395 0.0492600107701368 73.5617983881874 
! Gamma         0                0                0                0                
! Port Impedance         50               0                50               0                
34.2                           0.0493951439385045 73.546117432552  0.99693790712354 -14.3607858638524 0.996937907123539 -14.3607858638524 0.0493958409018048 73.5228623436938 
! Gamma         0                0                0                0                
! Port Impedance         50               0                50               0                
34.3                           0.0495309152853165 73.5072399988497 0.996928512149278 -14.4025618631087 0.996928512149277 -14.4025618631087 0.0495316155418236 73.483913869194  
! Gamma         0                0                0                0                
! Port Impedance         50               0                50               0                
34.4                           0.0496666310100074 73.4683502745423 0.996919105892445 -14.4443371796349 0.996919105892444 -14.444337179635 0.0496673345650802 73.4449530823016 
! Gamma         0                0                0                0                
! Port Impedance         50               0                50               0                
34.5                           0.0498022909877938 73.4294483760404 0.996909688367003 -14.486111814255 0.996909688367002 -14.4861118142551 0.0498029978467457 73.4059800994046 
! Gamma         0                0                0                0                
! Port Impedance         50               0                50               0                
34.6                           0.0499378950941747 73.3905344185397 0.996900259586945 -14.52788576779  0.996900259586943 -14.52788576779  0.0499386052622734 73.3669950356767 
! Gamma         0                0                0                0                
! Port Impedance         50               0                50               0                
34.7                           0.0500734432049294 73.3516085160318 0.996890819566297 -14.569659041058 0.996890819566295 -14.5696590410581 0.050074156687397 73.3279980050879 
! Gamma         0                0                0                0                
! Port Impedance         50               0                50               0                
34.8                           0.0502089351961156 73.3126707813151 0.99688136831912 -14.6114316348744 0.996881368319119 -14.6114316348745 0.0502096519981289 73.288989120415  
! Gamma         0                0                0                0                
! Port Impedance         50               0                50               0                
34.9                           0.0503443709440677 73.2737213260047 0.99687190585951 -14.6532035500516 0.996871905859509 -14.6532035500517 0.0503450910707584 73.2499684932523 
! Gamma         0                0                0                0                
! Port Impedance         50               0                50               0                
35                             0.0504797503253949 73.2347602605439 0.996862432201593 -14.6949747873989 0.996862432201592 -14.694974787399 0.0504804737818495 73.2109362340222 
! Gamma         0                0                0                0                
! Port Impedance         50               0                50               0                
35.1                           0.0506150732169791 73.1957876942137 0.996852947359532 -14.7367453477227 0.996852947359531 -14.7367453477227 0.0506158000082392 73.1718924519852 
! Gamma         0                0                0                0                
! Port Impedance         50               0                50               0                
35.2                           0.050750339495973 73.1568037351438 0.996843451347523 -14.7785152318261 0.996843451347522 -14.7785152318262 0.0507510696270353 73.132837255251  
! Gamma         0                0                0                0                
! Port Impedance         50               0                50               0                
35.3                           0.0508855490397982 73.1178084903227 0.996833944179795 -14.8202844405096 0.996833944179794 -14.8202844405096 0.0508862825156148 73.0937707507882 
! Gamma         0                0                0                0                
! Port Impedance         50               0                50               0                
35.4                           0.0510207017261431 73.0788020656079 0.996824425870614 -14.8620529745699 0.996824425870613 -14.86205297457  0.0510214385516216 73.0546930444345 
! Gamma         0                0                0                0                
! Port Impedance         50               0                50               0                
35.5                           0.0511557974329605 73.0397845657358 0.996814896434277 -14.9038208348012 0.996814896434276 -14.9038208348013 0.0511565376129643 73.0156042409071 
! Gamma         0                0                0                0                
! Port Impedance         50               0                50               0                
35.6                           0.0512908360384661 73.0007560943322 0.99680535588512 -14.945588021994 0.996805355885118 -14.9455880219941 0.0512915795778146 72.9765044438128 
! Gamma         0                0                0                0                
! Port Impedance         50               0                50               0                
35.7                           0.0514258174211362 72.9617167539221 0.996795804237511 -14.9873545369359 0.996795804237509 -14.987354536936 0.0514265643246045 72.9373937556577 
! Gamma         0                0                0                0                
! Port Impedance         50               0                50               0                
35.8                           0.0515607414597053 72.9226666459395 0.996786241505854 -15.0291203804111 0.996786241505853 -15.0291203804111 0.0515614917320249 72.8982722778572 
! Gamma         0                0                0                0                
! Port Impedance         50               0                50               0                
35.9                           0.0516956080331641 72.8836058707374 0.996776667704591 -15.0708855532005 0.99677666770459 -15.0708855532005 0.051696361679023 72.8591401107459 
! Gamma         0                0                0                0                
! Port Impedance         50               0                50               0                
36                             0.0518304170207575 72.8445345275975 0.996767082848198 -15.1126500560818 0.996767082848197 -15.1126500560818 0.0518311740448004 72.8199973535874 
! Gamma         0                0                0                0                
! Port Impedance         50               0                50               0                
36.1                           0.051965168301982 72.8054527147399 0.996757486951187 -15.1544138898293 0.996757486951186 -15.1544138898294 0.0519659287088105 72.7808441045839 
! Gamma         0                0                0                0                
! Port Impedance         50               0                50               0                
36.2                           0.052099861756584 72.7663605293328 0.996747880028109 -15.1961770552141 0.996747880028108 -15.1961770552142 0.0521006255507567 72.7416804608859 
! Gamma         0                0                0                0                
! Port Impedance         50               0                50               0                
36.3                           0.0522344972645571 72.7272580675019 0.99673826209355 -15.2379395530039 0.996738262093548 -15.237939553004 0.0522352644505898 72.7025065186014 
! Gamma         0                0                0                0                
! Port Impedance         50               0                50               0                
36.4                           0.0523690747061401 72.6881454243399 0.996728633162134 -15.2797013839629 0.996728633162133 -15.279701383963 0.0523698452885063 72.663322372806  
! Gamma         0                0                0                0                
! Port Impedance         50               0                50               0                
36.5                           0.0525035939618143 72.6490226939162 0.996718993248525 -15.3214625488521 0.996718993248523 -15.3214625488521 0.0525043679449453 72.6241281175518 
! Gamma         0                0                0                0                
! Port Impedance         50               0                50               0                
36.6                           0.0526380549123021 72.6098899692857 0.996709342367422 -15.3632230484289 0.996709342367421 -15.3632230484289 0.0526388323005871 72.5849238458767 
! Gamma         0                0                0                0                
! Port Impedance         50               0                50               0                
36.7                           0.0527724574385637 72.5707473424985 0.996699680533566 -15.4049828834475 0.996699680533564 -15.4049828834475 0.0527732382363501 72.5457096498142 
! Gamma         0                0                0                0                
! Port Impedance         50               0                50               0                
36.8                           0.0529068014217951 72.5315949046091 0.996690007761734 -15.4467420546585 0.996690007761733 -15.4467420546586 0.052907585633389 72.5064856204018 
! Gamma         0                0                0                0                
! Port Impedance         50               0                50               0                
36.9                           0.0530410867434262 72.4924327456851 0.996680324066747 -15.4885005628093 0.996680324066745 -15.4885005628093 0.0530418743730924 72.4672518476909 
! Gamma         0                0                0                0                
! Port Impedance         50               0                50               0                
37                             0.0531753132851178 72.4532609548167 0.996670629463462 -15.5302584086436 0.99667062946346 -15.5302584086436 0.0531761043370801 72.4280084207552 
! Gamma         0                0                0                0                
! Port Impedance         50               0                50               0                
37.1                           0.0533094809287595 72.4140796201254 0.996660923966778 -15.5720155929018 0.996660923966776 -15.5720155929019 0.053310275407201 72.3887554276999 
! Gamma         0                0                0                0                
! Port Impedance         50               0                50               0                
37.2                           0.0534435895564673 72.3748888287731 0.996651207591636 -15.6137721163209 0.996651207591634 -15.613772116321 0.0534443874655307 72.3494929556709 
! Gamma         0                0                0                0                
! Port Impedance         50               0                50               0                
37.3                           0.0535776390505814 72.3356886669707 0.996641480353018 -15.6555279796344 0.996641480353016 -15.6555279796344 0.0535784403943693 72.3102210908632 
! Gamma         0                0                0                0                
! Port Impedance         50               0                50               0                
37.4                           0.0537116292936633 72.2964792199872 0.996631742265947 -15.6972831835722 0.996631742265946 -15.6972831835723 0.0537124340762383 72.2709399185297 
! Gamma         0                0                0                0                
! Port Impedance         50               0                50               0                
37.5                           0.0538455601684939 72.2572605721582 0.996621993345491 -15.7390377288611 0.996621993345489 -15.7390377288612 0.0538463683938791 72.2316495229904 
! Gamma         0                0                0                0                
! Port Impedance         50               0                50               0                
37.6                           0.0539794315580705 72.2180328068945 0.996612233606758 -15.7807916162241 0.996612233606756 -15.7807916162242 0.0539802432302498 72.1923499876403 
! Gamma         0                0                0                0                
! Port Impedance         50               0                50               0                
37.7                           0.054113243345605 72.1787960066906 0.996602463064902 -15.822544846381 0.9966024630649  -15.822544846381 0.0541140584685233 72.1530413949585 
! Gamma         0                0                0                0                
! Port Impedance         50               0                50               0                
37.8                           0.0542469954145209 72.1395502531336 0.99659268173512 -15.8642974200479 0.996592681735118 -15.8642974200479 0.0542478139920843 72.1137238265166 
! Gamma         0                0                0                0                
! Port Impedance         50               0                50               0                
37.9                           0.0543806876484512 72.1002956269113 0.996582889632653 -15.9060493379377 0.996582889632652 -15.9060493379378 0.0543815096845276 72.0743973629867 
! Gamma         0                0                0                0                
! Port Impedance         50               0                50               0                
38                             0.0545143199312356 72.0610322078204 0.996573086772789 -15.9478006007599 0.996573086772788 -15.9478006007599 0.0545151454296547 72.0350620841505 
! Gamma         0                0                0                0                
! Port Impedance         50               0                50               0                
38.1                           0.0546478921469183 72.0217600747754 0.996563273170861 -15.9895512092202 0.996563273170859 -15.9895512092203 0.0546487211114722 71.995718068907  
! Gamma         0                0                0                0                
! Port Impedance         50               0                50               0                
38.2                           0.0547814041797454 71.9824793058161 0.996553448842246 -16.0313011640214 0.996553448842244 -16.0313011640214 0.0547822366141886 71.956365395281  
! Gamma         0                0                0                0                
! Port Impedance         50               0                50               0                
38.3                           0.0549148559141623 71.9431899781164 0.99654361380237 -16.0730504658624 0.996543613802368 -16.0730504658625 0.0549156918222125 71.917004140431  
! Gamma         0                0                0                0                
! Port Impedance         50               0                50               0                
38.4                           0.0550482472348114 71.9038921679921 0.996533768066705 -16.1147991154391 0.996533768066704 -16.1147991154392 0.0550490866201494 71.8776343806577 
! Gamma         0                0                0                0                
! Port Impedance         50               0                50               0                
38.5                           0.0551815780265295 71.8645859509088 0.996523911650773 -16.1565471134438 0.996523911650772 -16.1565471134439 0.0551824208927996 71.8382561914117 
! Gamma         0                0                0                0                
! Port Impedance         50               0                50               0                
38.6                           0.0553148481743452 71.8252714014904 0.996514044570142 -16.1982944605655 0.996514044570141 -16.1982944605655 0.0553156945251558 71.7988696473018 
! Gamma         0                0                0                0                
! Port Impedance         50               0                50               0                
38.7                           0.0554480575634763 71.7859485935263 0.996504166840429 -16.2400411574897 0.996504166840428 -16.2400411574897 0.0554489074024  71.7594748221025 
! Gamma         0                0                0                0                
! Port Impedance         50               0                50               0                
38.8                           0.0555812060793279 71.7466175999801 0.996494278477302 -16.2817872048987 0.9964942784773  -16.2817872048988 0.0555820594099018 71.7200717887621 
! Gamma         0                0                0                0                
! Port Impedance         50               0                50               0                
38.9                           0.0557142936074888 71.7072784929964 0.996484379496476 -16.3235326034715 0.996484379496475 -16.3235326034716 0.0557151504332152 71.6806606194104 
! Gamma         0                0                0                0                
! Port Impedance         50               0                50               0                
39                             0.05584732003373 71.6679313439094 0.996474469913721 -16.3652773538838 0.996474469913719 -16.3652773538838 0.0558481803580764 71.6412413853666 
! Gamma         0                0                0                0                
! Port Impedance         50               0                50               0                
39.1                           0.0559802852440015 71.6285762232501 0.996464549744853 -16.4070214568077 0.996464549744851 -16.4070214568077 0.0559811490704011 71.6018141571466 
! Gamma         0                0                0                0                
! Port Impedance         50               0                50               0                
39.2                           0.0561131891244301 71.589213200754  0.996454619005743 -16.4487649129124 0.996454619005741 -16.4487649129125 0.0561140564562823 71.562379004471  
! Gamma         0                0                0                0                
! Port Impedance         50               0                50               0                
39.3                           0.0562460315613167 71.5498423453687 0.996444677712313 -16.4905077228637 0.996444677712311 -16.4905077228638 0.0562469024019871 71.5229359962723 
! Gamma         0                0                0                0                
! Port Impedance         50               0                50               0                
39.4                           0.0563788124411338 71.5104637252614 0.996434725880537 -16.5322498873241 0.996434725880535 -16.5322498873242 0.0563796867939549 71.4834852007026 
! Gamma         0                0                0                0                
! Port Impedance         50               0                50               0                
39.5                           0.056511531650523 71.4710774078261 0.996424763526443 -16.5739914069531 0.996424763526442 -16.5739914069531 0.0565124095187945 71.4440266851411 
! Gamma         0                0                0                0                
! Port Impedance         50               0                50               0                
39.6                           0.0566441890762924 71.4316834596912 0.996414790666114 -16.6157322824066 0.996414790666112 -16.6157322824066 0.0566450704632814 71.4045605162009 
! Gamma         0                0                0                0                
! Port Impedance         50               0                50               0                
39.7                           0.0567767846054138 71.3922819467269 0.996404807315683 -16.6574725143378 0.996404807315682 -16.6574725143378 0.0567776695143558 71.3650867597371 
! Gamma         0                0                0                0                
! Port Impedance         50               0                50               0                
39.8                           0.056909318125021 71.352872934052  0.996394813491343 -16.6992121033964 0.996394813491341 -16.6992121033964 0.0569102065591192 71.3256054808534 
! Gamma         0                0                0                0                
! Port Impedance         50               0                50               0                
39.9                           0.057041789522406 71.3134564860415 0.996384809209339 -16.7409510502291 0.996384809209337 -16.7409510502292 0.0570426814848327 71.2861167439095 
! Gamma         0                0                0                0                
! Port Impedance         50               0                50               0                
40                             0.0571741986850177 71.2740326663337 0.996374794485972 -16.7826893554797 0.99637479448597 -16.7826893554797 0.0571750941789142 71.2466206125285 
! Gamma         0                0                0                0                
! Port Impedance         50               0                50               0                
40.1                           0.0573065455004583 71.234601537837  0.996364769337601 -16.8244270197886 0.996364769337599 -16.8244270197886 0.0573074445289354 71.2071171496035 
! Gamma         0                0                0                0                
! Port Impedance         50               0                50               0                
40.2                           0.0574388298564815 71.1951631627371 0.99635473378064 -16.8661640437933 0.996354733780638 -16.8661640437933 0.05743973242262 71.1676064173048 
! Gamma         0                0                0                0                
! Port Impedance         50               0                50               0                
40.3                           0.0575710516409897 71.1557176025041 0.996344687831561 -16.9079004281283 0.99634468783156 -16.9079004281284 0.0575719577478405 71.1280884770869 
! Gamma         0                0                0                0                
! Port Impedance         50               0                50               0                
40.4                           0.0577032107420312 71.1162649178991 0.996334631506896 -16.9496361734252 0.996334631506894 -16.9496361734253 0.057704120392616 71.0885633896956 
! Gamma         0                0                0                0                
! Port Impedance         50               0                50               0                
40.5                           0.057835307047798 71.0768051689811 0.996324564823232 -16.9913712803125 0.99632456482323 -16.9913712803126 0.0578362202451098 71.0490312151743 
! Gamma         0                0                0                0                
! Port Impedance         50               0                50               0                
40.6                           0.0579673404466234 71.0373384151142 0.996314487797217 -17.0331057494158 0.996314487797215 -17.0331057494159 0.0579682571936264 71.0094920128712 
! Gamma         0                0                0                0                
! Port Impedance         50               0                50               0                
40.7                           0.0580993108269789 70.9978647149738 0.996304400445557 -17.0748395813579 0.996304400445555 -17.0748395813579 0.0581002311266094 70.969945841446  
! Gamma         0                0                0                0                
! Port Impedance         50               0                50               0                
40.8                           0.0582312180774719 70.9583841265535 0.99629430278502 -17.1165727767585 0.996294302785018 -17.1165727767585 0.0582321419326386 70.9303927588765 
! Gamma         0                0                0                0                
! Port Impedance         50               0                50               0                
40.9                           0.0583630620868437 70.9188967071718 0.996284194832434 -17.1583053362347 0.996284194832431 -17.1583053362348 0.058363989500428 70.8908328224651 
! Gamma         0                0                0                0                
! Port Impedance         50               0                50               0                
41                             0.0584948427439661 70.8794025134786 0.996274076604684 -17.2000372604008 0.996274076604683 -17.2000372604009 0.0584957737188227 70.8512660888458 
! Gamma         0                0                0                0                
! Port Impedance         50               0                50               0                
41.1                           0.0586265599378395 70.8399016014618 0.996263948118723 -17.2417685498682 0.996263948118721 -17.2417685498683 0.0586274944767965 70.8116926139902 
! Gamma         0                0                0                0                
! Port Impedance         50               0                50               0                
41.2                           0.0587582135575901 70.8003940264536 0.99625380939156 -17.2834992052457 0.996253809391558 -17.2834992052457 0.0587591516634498 70.7721124532143 
! Gamma         0                0                0                0                
! Port Impedance         50               0                50               0                
41.3                           0.0588898034924674 70.760879843137  0.996243660440271 -17.3252292271391 0.996243660440269 -17.3252292271392 0.0588907451680065 70.7325256611846 
! Gamma         0                0                0                0                
! Port Impedance         50               0                50               0                
41.4                           0.0590213296318418 70.7213591055525 0.99623350128199 -17.366958616152 0.996233501281988 -17.366958616152 0.0590222748798121 70.6929322919249 
! Gamma         0                0                0                0                
! Port Impedance         50               0                50               0                
41.5                           0.0591527918652022 70.6818318671036 0.996223331933919 -17.408687372885 0.996223331933917 -17.408687372885 0.0591537406883305 70.6533323988225 
! Gamma         0                0                0                0                
! Port Impedance         50               0                50               0                
41.6                           0.059284190082153 70.6422981805641 0.99621315241332 -17.4504154979362 0.996213152413318 -17.4504154979363 0.0592851424831421 70.6137260346339 
! Gamma         0                0                0                0                
! Port Impedance         50               0                50               0                
41.7                           0.0594155241724122 70.6027580980835 0.996202962737521 -17.4921429919013 0.996202962737519 -17.4921429919013 0.0594164801539411 70.5741132514918 
! Gamma         0                0                0                0                
! Port Impedance         50               0                50               0                
41.8                           0.0595467940258084 70.5632116711934 0.996192762923916 -17.5338698553732 0.996192762923913 -17.5338698553733 0.0595477535905327 70.5344941009109 
! Gamma         0                0                0                0                
! Port Impedance         50               0                50               0                
41.9                           0.0596779995322788 70.5236589508139 0.99618255298996 -17.5755960889426 0.996182552989958 -17.5755960889426 0.0596789626828311 70.4948686337939 
! Gamma         0                0                0                0                
! Port Impedance         50               0                50               0                
42                             0.0598091405818664 70.4840999872592 0.996172332953178 -17.6173216931975 0.996172332953176 -17.6173216931975 0.0598101073208569 70.4552369004377 
! Gamma         0                0                0                0                
! Port Impedance         50               0                50               0                
42.1                           0.0599402170647174 70.4445348302441 0.996162102831158 -17.6590466687237 0.996162102831156 -17.6590466687237 0.0599411873947343 70.4155989505394 
! Gamma         0                0                0                0                
! Port Impedance         50               0                50               0                
42.2                           0.0600712288710791 70.4049635288895 0.996151862641555 -17.7007710161044 0.996151862641553 -17.7007710161044 0.0600722027946889 70.3759548332025 
! Gamma         0                0                0                0                
! Port Impedance         50               0                50               0                
42.3                           0.0602021758912973 70.3653861317286 0.996141612402092 -17.7424947359207 0.99614161240209 -17.7424947359208 0.0602031534110455 70.3363045969422 
! Gamma         0                0                0                0                
! Port Impedance         50               0                50               0                
42.4                           0.0603330580158136 70.3258026867129 0.996131352130558 -17.7842178287514 0.996131352130556 -17.7842178287514 0.0603340391342249 70.2966482896918 
! Gamma         0                0                0                0                
! Port Impedance         50               0                50               0                
42.5                           0.0604638751351634 70.2862132412175 0.99612108184481 -17.8259402951728 0.996121081844808 -17.8259402951728 0.0604648598547423 70.2569859588085 
! Gamma         0                0                0                0                
! Port Impedance         50               0                50               0                
42.6                           0.0605946271399729 70.2466178420476 0.996110801562772 -17.8676621357592 0.99611080156277 -17.8676621357593 0.0605956154632041 70.2173176510789 
! Gamma         0                0                0                0                
! Port Impedance         50               0                50               0                
42.7                           0.0607253139209572 70.2070165354435 0.996100511302438 -17.9093833510827 0.996100511302436 -17.9093833510828 0.0607263058503062 70.1776434127248 
! Gamma         0                0                0                0                
! Port Impedance         50               0                50               0                
42.8                           0.0608559353689176 70.1674093670869 0.99609021108187 -17.9511039417133 0.996090211081868 -17.9511039417133 0.0608569309068308 70.1379632894093 
! Gamma         0                0                0                0                
! Port Impedance         50               0                50               0                
42.9                           0.0609864913747392 70.1277963821061 0.9960799009192  -17.9928239082187 0.996079900919198 -17.9928239082187 0.0609874905236447 70.0982773262416 
! Gamma         0                0                0                0                
! Port Impedance         50               0                50               0                
43                             0.0611169818293885 70.088177625082  0.996069580832628 -18.0345432511648 0.996069580832626 -18.0345432511649 0.0611179845916964 70.0585855677834 
! Gamma         0                0                0                0                
! Port Impedance         50               0                50               0                
43.1                           0.061247406623911 70.0485531400531 0.996059250840425 -18.0762619711155 0.996059250840423 -18.0762619711155 0.0612484130020138 70.0188880580542 
! Gamma         0                0                0                0                
! Port Impedance         50               0                50               0                
43.2                           0.0613777656494287 70.0089229705216 0.996048910960932 -18.1179800686324 0.99604891096093 -18.1179800686324 0.061378775645702 69.9791848405364 
! Gamma         0                0                0                0                
! Port Impedance         50               0                50               0                
43.3                           0.0615080587971381 69.9692871594585 0.996038561212561 -18.1596975442756 0.996038561212559 -18.1596975442756 0.0615090724139408 69.9394759581814 
! Gamma         0                0                0                0                
! Port Impedance         50               0                50               0                
43.4                           0.0616382859583072 69.9296457493091 0.996028201613794 -18.2014143986031 0.996028201613792 -18.2014143986031 0.0616393031979821 69.8997614534146 
! Gamma         0                0                0                0                
! Port Impedance         50               0                50               0                
43.5                           0.0617684470242737 69.8899987819985 0.996017832183185 -18.2431306321711 0.996017832183183 -18.2431306321711 0.0617694678891479 69.8600413681409 
! Gamma         0                0                0                0                
! Port Impedance         50               0                50               0                
43.6                           0.0618985418864421 69.8503462989366 0.996007452939361 -18.284846245534 0.996007452939358 -18.284846245534 0.0618995663788276 69.8203157437498 
! Gamma         0                0                0                0                
! Port Impedance         50               0                50               0                
43.7                           0.0620285704362821 69.8106883410238 0.995997063901017 -18.3265612392444 0.995997063901015 -18.3265612392444 0.062029598558476 69.7805846211212 
! Gamma         0                0                0                0                
! Port Impedance         50               0                50               0                
43.8                           0.0621585325653254 69.771024948656  0.995986665086926 -18.3682756138533 0.995986665086924 -18.3682756138533 0.0621595643196106 69.7408480406301 
! Gamma         0                0                0                0                
! Port Impedance         50               0                50               0                
43.9                           0.0622884281651639 69.7313561617298 0.995976256515929 -18.4099893699101 0.995976256515927 -18.4099893699101 0.0622894635538094 69.7011060421522 
! Gamma         0                0                0                0                
! Port Impedance         50               0                50               0                
44                             0.0624182571274473 69.6916820196478 0.995965838206941 -18.4517025079623 0.995965838206939 -18.4517025079623 0.0624192961527087 69.6613586650688 
! Gamma         0                0                0                0                
! Port Impedance         50               0                50               0                
44.1                           0.0625480193438805 69.6520025613236 0.995955410178952 -18.4934150285561 0.99595541017895 -18.4934150285561 0.0625490620080007 69.6216059482721 
! Gamma         0                0                0                0                
! Port Impedance         50               0                50               0                
44.2                           0.0626777147062218 69.6123178251869 0.995944972451024 -18.5351269322361 0.995944972451022 -18.5351269322361 0.0626787610114311 69.58184793017   
! Gamma         0                0                0                0                
! Port Impedance         50               0                50               0                
44.3                           0.06280734310628 69.5726278491888 0.995934525042293 -18.5768382195453 0.99593452504229 -18.5768382195453 0.0628083930547968 69.5420846486915 
! Gamma         0                0                0                0                
! Port Impedance         50               0                50               0                
44.4                           0.0629369044359126 69.5329326708062 0.995924067971968 -18.6185488910255 0.995924067971966 -18.6185488910255 0.0629379580299438 69.5023161412915 
! Gamma         0                0                0                0                
! Port Impedance         50               0                50               0                
44.5                           0.0630663985870234 69.4932323270473 0.995913601259336 -18.6602589472168 0.995913601259334 -18.6602589472168 0.0630674558287649 69.4625424449557 
! Gamma         0                0                0                0                
! Port Impedance         50               0                50               0                
44.6                           0.0631958254515601 69.4535268544565 0.995903124923754 -18.7019683886582 0.995903124923752 -18.7019683886583 0.063196886343197 69.4227635962057 
! Gamma         0                0                0                0                
! Port Impedance         50               0                50               0                
44.7                           0.063325184921512 69.4138162891189 0.995892638984658 -18.7436772158874 0.995892638984656 -18.7436772158874 0.0633262494652196 69.3829796311038 
! Gamma         0                0                0                0                
! Port Impedance         50               0                50               0                
44.8                           0.063454476888908 69.3741006666655 0.995882143461557 -18.7853854294406 0.995882143461554 -18.7853854294406 0.0634555450868518 69.3431905852577 
! Gamma         0                0                0                0                
! Port Impedance         50               0                50               0                
44.9                           0.0635837012458142 69.3343800222778 0.995871638374034 -18.8270930298531 0.995871638374032 -18.8270930298531 0.0635847731001504 69.3033964938254 
! Gamma         0                0                0                0                
! Port Impedance         50               0                50               0                
45                             0.0637128578843318 69.2946543906927 0.995861123741752 -18.8688000176587 0.99586112374175 -18.8688000176587 0.0637139333972081 69.2635973915202 
! Gamma         0                0                0                0                
! Port Impedance         50               0                50               0                
45.1                           0.0638419466965945 69.2549238062073 0.995850599584445 -18.9105063933905 0.995850599584443 -18.9105063933905 0.0638430258701504 69.2237933126151 
! Gamma         0                0                0                0                
! Port Impedance         50               0                50               0                
45.2                           0.0639709675747669 69.2151883026831 0.995840065921928 -18.9522121575801 0.995840065921925 -18.9522121575801 0.0639720504111339 69.1839842909474 
! Gamma         0                0                0                0                
! Port Impedance         50               0                50               0                
45.3                           0.0640999204110419 69.1754479135515 0.995829522774087 -18.9939173107584 0.995829522774085 -18.9939173107584 0.0641010069123442 69.1441703599239 
! Gamma         0                0                0                0                
! Port Impedance         50               0                50               0                
45.4                           0.0642288050976385 69.1357026718176 0.995818970160889 -19.0356218534551 0.995818970160887 -19.0356218534551 0.0642298952659936 69.1043515525249 
! Gamma         0                0                0                0                
! Port Impedance         50               0                50               0                
45.5                           0.0643576215267999 69.0959526100652 0.995808408102376 -19.0773257861991 0.995808408102374 -19.0773257861991 0.0643587153643187 69.0645279013091 
! Gamma         0                0                0                0                
! Port Impedance         50               0                50               0                
45.6                           0.064486369590791 69.0561977604612 0.995797836618667 -19.1190291095184 0.995797836618665 -19.1190291095184 0.0644874670995787 69.0246994384182 
! Gamma         0                0                0                0                
! Port Impedance         50               0                50               0                
45.7                           0.0646150491818966 69.0164381547604 0.995787255729958 -19.1607318239401 0.995787255729955 -19.1607318239401 0.0646161503640528 68.9848661955812 
! Gamma         0                0                0                0                
! Port Impedance         50               0                50               0                
45.8                           0.064743660192419 68.9766738243095 0.995776665456522 -19.2024339299905 0.99577666545652 -19.2024339299905 0.0647447650500382 68.9450282041189 
! Gamma         0                0                0                0                
! Port Impedance         50               0                50               0                
45.9                           0.0648722025146759 68.9369048000518 0.995766065818712 -19.2441354281953 0.995766065818709 -19.2441354281953 0.0648733110498482 68.9051854949485 
! Gamma         0                0                0                0                
! Port Impedance         50               0                50               0                
46                             0.0650006760409986 68.8971311125319 0.995755456836954 -19.2858363190793 0.995755456836952 -19.2858363190793 0.0650017882558099 68.8653380985878 
! Gamma         0                0                0                0                
! Port Impedance         50               0                50               0                
46.1                           0.0651290806637293 68.8573527918993 0.995744838531757 -19.3275366031668 0.995744838531755 -19.3275366031668 0.0651301965602621 68.8254860451598 
! Gamma         0                0                0                0                
! Port Impedance         50               0                50               0                
46.2                           0.0652574162752197 68.8175698679134 0.995734210923705 -19.3692362809815 0.995734210923703 -19.3692362809815 0.065258535855553 68.7856293643968 
! Gamma         0                0                0                0                
! Port Impedance         50               0                50               0                
46.3                           0.0653856827678284 68.7777823699476 0.995723574033461 -19.4109353530463 0.995723574033459 -19.4109353530463 0.0653868060340386 68.7457680856446 
! Gamma         0                0                0                0                
! Port Impedance         50               0                50               0                
46.4                           0.065513880033919 68.7379903269936 0.995712927881766 -19.4526338198839 0.995712927881764 -19.4526338198839 0.0655150069880803 68.7059022378673 
! Gamma         0                0                0                0                
! Port Impedance         50               0                50               0                
46.5                           0.0656420079658581 68.6981937676653 0.99570227248944 -19.4943316820164 0.995702272489438 -19.4943316820164 0.065643138610043 68.666031849651  
! Gamma         0                0                0                0                
! Port Impedance         50               0                50               0                
46.6                           0.0657700664560134 68.6583927202038 0.995691607877381 -19.5360289399655 0.995691607877379 -19.5360289399655 0.0657712007922927 68.6261569492081 
! Gamma         0                0                0                0                
! Port Impedance         50               0                50               0                
46.7                           0.0658980553967512 68.6185872124804 0.995680934066566 -19.5777255942524 0.995680934066564 -19.5777255942524 0.065899193427195 68.5862775643816 
! Gamma         0                0                0                0                
! Port Impedance         50               0                50               0                
46.8                           0.0660259746804348 68.5787772720018 0.995670251078051 -19.6194216453982 0.995670251078049 -19.6194216453982 0.0660271164071128 68.5463937226493 
! Gamma         0                0                0                0                
! Port Impedance         50               0                50               0                
46.9                           0.0661538241994225 68.5389629259138 0.995659558932972 -19.6611170939236 0.99565955893297 -19.6611170939236 0.0661549696244043 68.5065054511275 
! Gamma         0                0                0                0                
! Port Impedance         50               0                50               0                
47                             0.0662816038460653 68.499144201005  0.995648857652542 -19.7028119403491 0.99564885765254 -19.7028119403491 0.066282752971421 68.4666127765756 
! Gamma         0                0                0                0                
! Port Impedance         50               0                50               0                
47.1                           0.0664093135127051 68.4593211237115 0.995638147258054 -19.744506185195 0.995638147258052 -19.744506185195 0.0664104663405057 68.4267157253996 
! Gamma         0                0                0                0                
! Port Impedance         50               0                50               0                
47.2                           0.0665369530916729 68.4194937201205 0.995627427770882 -19.7861998289814 0.99562742777088 -19.7861998289814 0.0665381096239907 68.3868143236566 
! Gamma         0                0                0                0                
! Port Impedance         50               0                50               0                
47.3                           0.0666645224752867 68.3796620159743 0.995616699212476 -19.8278928722285 0.995616699212474 -19.8278928722285 0.0666656827141956 68.3469085970583 
! Gamma         0                0                0                0                
! Port Impedance         50               0                50               0                
47.4                           0.0667920215558492 68.3398260366744 0.995605961604369 -19.8695853154562 0.995605961604367 -19.8695853154562 0.0667931855034257 68.3069985709755 
! Gamma         0                0                0                0                
! Port Impedance         50               0                50               0                
47.5                           0.0669194502256466 68.2999858072851 0.995595214968171 -19.9112771591847 0.995595214968169 -19.9112771591847 0.0669206178839696 68.2670842704414 
! Gamma         0                0                0                0                
! Port Impedance         50               0                50               0                
47.6                           0.0670468083769462 68.2601413525378 0.995584459325573 -19.952968403934 0.995584459325571 -19.952968403934 0.0670479797480976 68.2271657201558 
! Gamma         0                0                0                0                
! Port Impedance         50               0                50               0                
47.7                           0.0671740959019944 68.2202926968346 0.995573694698346 -19.9946590502244 0.995573694698344 -19.9946590502244 0.0671752709880599 68.1872429444889 
! Gamma         0                0                0                0                
! Port Impedance         50               0                50               0                
47.8                           0.0673013126930153 68.180439864252  0.995562921108339 -20.0363490985761 0.995562921108336 -20.0363490985761 0.0673024914960844 68.1473159674854 
! Gamma         0                0                0                0                
! Port Impedance         50               0                50               0                
47.9                           0.0674284586422083 68.1405828785452 0.995552138577482 -20.0780385495097 0.99555213857748 -20.0780385495097 0.067429641164375 68.1073848128677 
! Gamma         0                0                0                0                
! Port Impedance         50               0                50               0                
48                             0.0675555336417467 68.1007217631511 0.995541347127785 -20.119727403546 0.995541347127783 -20.119727403546 0.0675567198851097 68.0674495040401 
! Gamma         0                0                0                0                
! Port Impedance         50               0                50               0                
48.1                           0.0676825375837754 68.0608565411926 0.995530546781338 -20.161415661206 0.995530546781336 -20.161415661206 0.0676837275504388 68.0275100640923 
! Gamma         0                0                0                0                
! Port Impedance         50               0                50               0                
48.2                           0.0678094703604093 68.0209872354824 0.995519737560311 -20.2031033230112 0.995519737560309 -20.2031033230112 0.0678106640524829 67.9875665158034 
! Gamma         0                0                0                0                
! Port Impedance         50               0                50               0                
48.3                           0.0679363318637318 67.981113868526  0.995508919486952 -20.2447903894833 0.99550891948695 -20.2447903894833 0.0679375292833313 67.9476188816452 
! Gamma         0                0                0                0                
! Port Impedance         50               0                50               0                
48.4                           0.0680631219857923 67.9412364625259 0.995498092583592 -20.2864768611445 0.99549809258359 -20.2864768611445 0.06806432313504 67.9076671837861 
! Gamma         0                0                0                0                
! Port Impedance         50               0                50               0                
48.5                           0.0681898406186048 67.9013550393854 0.995487256872641 -20.3281627385176 0.995487256872639 -20.3281627385176 0.0681910454996301 67.8677114440947 
! Gamma         0                0                0                0                
! Port Impedance         50               0                50               0                
48.6                           0.0683164876541463 67.8614696207113 0.995476412376588 -20.3698480221255 0.995476412376586 -20.3698480221255 0.0683176962690859 67.8277516841431 
! Gamma         0                0                0                0                
! Port Impedance         50               0                50               0                
48.7                           0.0684430629843546 67.8215802278185 0.995465559118003 -20.4115327124923 0.995465559118001 -20.4115327124923 0.068444275335353 67.787787925211  
! Gamma         0                0                0                0                
! Port Impedance         50               0                50               0                
48.8                           0.0685695665011269 67.7816868817328 0.995454697119535 -20.4532168101421 0.995454697119533 -20.4532168101421 0.0685707825903366 67.7478201882886 
! Gamma         0                0                0                0                
! Port Impedance         50               0                50               0                
48.9                           0.0686959980963178 67.7417896031948 0.995443826403916 -20.4949003156   0.995443826403914 -20.4949003156   0.0686972179259002 67.7078484940806 
! Gamma         0                0                0                0                
! Port Impedance         50               0                50               0                
49                             0.0688223576617378 67.7018884126633 0.995432946993954 -20.5365832293918 0.995432946993952 -20.5365832293917 0.0688235812338632 67.6678728630094 
! Gamma         0                0                0                0                
! Port Impedance         50               0                50               0                
49.1                           0.0689486450891515 67.6619833303183 0.995422058912541 -20.5782655520438 0.995422058912538 -20.5782655520438 0.0689498724059995 67.6278933152187 
! Gamma         0                0                0                0                
! Port Impedance         50               0                50               0                
49.2                           0.0690748602702758 67.6220743760654 0.995411162182645 -20.6199472840835 0.995411162182643 -20.6199472840835 0.069076091334036 67.5879098705769 
! Gamma         0                0                0                0                
! Port Impedance         50               0                50               0                
49.3                           0.0692010030967782 67.5821615695381 0.995400256827318 -20.6616284260388 0.995400256827315 -20.6616284260388 0.0692022379096504 67.5479225486804 
! Gamma         0                0                0                0                
! Port Impedance         50               0                50               0                
49.4                           0.0693270734602756 67.5422449301021 0.995389342869688 -20.7033089784388 0.995389342869686 -20.7033089784387 0.06932831202447 67.5079313688569 
! Gamma         0                0                0                0                
! Port Impedance         50               0                50               0                
49.5                           0.0694530712523318 67.502324476858  0.995378420332968 -20.7449889418133 0.995378420332966 -20.7449889418133 0.0694543135700699 67.4679363501692 
! Gamma         0                0                0                0                
! Port Impedance         50               0                50               0                
49.6                           0.0695789963644567 67.4624002286448 0.995367489240446 -20.7866683166933 0.995367489240443 -20.7866683166933 0.0695802424379712 67.4279375114179 
! Gamma         0                0                0                0                
! Port Impedance         50               0                50               0                
49.7                           0.0697048486881041 67.4224722040434 0.995356549615492 -20.8283471036107 0.995356549615489 -20.8283471036107 0.0697060985196397 67.387934871145  
! Gamma         0                0                0                0                
! Port Impedance         50               0                50               0                
49.8                           0.0698306281146704 67.3825404213797 0.995345601481556 -20.8700253030985 0.995345601481553 -20.8700253030985 0.0698318817064837 67.3479284476374 
! Gamma         0                0                0                0                
! Port Impedance         50               0                50               0                
49.9                           0.0699563345354928 67.3426048987277 0.995334644862167 -20.9117029156907 0.995334644862165 -20.9117029156907 0.0699575918898532 67.3079182589297 
! Gamma         0                0                0                0                
! Port Impedance         50               0                50               0                
50                             0.0700819678418478 67.3026656539132 0.995323679780936 -20.9533799419226 0.995323679780933 -20.9533799419226 0.0700832289610376 67.2679043228076 
! Gamma         0                0                0                0                
! Port Impedance         50               0                50               0                
50.1                           0.0702075279249497 67.2627227045163 0.99531270626155 -20.9950563823307 0.995312706261548 -20.9950563823307 0.0702087928112644 67.2278866568111 
! Gamma         0                0                0                0                
! Port Impedance         50               0                50               0                
50.2                           0.0703330146759489 67.2227760678753 0.995301724327778 -21.0367322374526 0.995301724327776 -21.0367322374526 0.0703342833316979 67.1878652782379 
! Gamma         0                0                0                0                
! Port Impedance         50               0                50               0                
50.3                           0.0704584279859305 67.1828257610891 0.995290734003469 -21.0784075078273 0.995290734003467 -21.0784075078273 0.070459700413437 67.1478402041459 
! Gamma         0                0                0                0                
! Port Impedance         50               0                50               0                
50.4                           0.0705837677459125 67.1428718010209 0.995279735312549 -21.1200821939951 0.995279735312547 -21.1200821939951 0.0705850439475144 67.1078114513571 
! Gamma         0                0                0                0                
! Port Impedance         50               0                50               0                
50.5                           0.0707090338468449 67.1029142043012 0.995268728279026 -21.1617562964977 0.995268728279024 -21.1617562964977 0.0707103138248946 67.0677790364602 
! Gamma         0                0                0                0                
! Port Impedance         50               0                50               0                
50.6                           0.0708342261796072 67.0629529873306 0.995257712926986 -21.2034298158782 0.995257712926984 -21.2034298158782 0.0708355099364725 67.0277429758138 
! Gamma         0                0                0                0                
! Port Impedance         50               0                50               0                
50.7                           0.070959344635008 67.0229881662832 0.995246689280593 -21.2451027526812 0.995246689280591 -21.2451027526811 0.0709606321730722 66.9877032855494 
! Gamma         0                0                0                0                
! Port Impedance         50               0                50               0                
50.8                           0.0710843891037828 66.9830197571091 0.995235657364093 -21.2867751074527 0.995235657364091 -21.2867751074527 0.0710856804254449 66.9476599815744 
! Gamma         0                0                0                0                
! Port Impedance         50               0                50               0                
50.9                           0.0712093594765928 66.9430477755382 0.995224617201809 -21.3284468807404 0.995224617201807 -21.3284468807404 0.0712106545842681 66.9076130795754 
! Gamma         0                0                0                0                
! Port Impedance         50               0                50               0                
51                             0.0713342556440234 66.9030722370824 0.995213568818143 -21.3701180730936 0.995213568818141 -21.3701180730936 0.0713355545401438 66.8675625950209 
! Gamma         0                0                0                0                
! Port Impedance         50               0                50               0                
51.1                           0.0714590774965828 66.863093157039  0.995202512237577 -21.411788685063 0.995202512237575 -21.411788685063 0.0714603801835971 66.827508543164  
! Gamma         0                0                0                0                
! Port Impedance         50               0                50               0                
51.2                           0.0715838249247006 66.8231105504935 0.995191447484669 -21.4534587172013 0.995191447484667 -21.4534587172012 0.0715851314050748 66.7874509390461 
! Gamma         0                0                0                0                
! Port Impedance         50               0                50               0                
51.3                           0.0717084978187264 66.7831244323225 0.99518037458406 -21.4951281700626 0.995180374584058 -21.4951281700626 0.0717098080949441 66.7473897974989 
! Gamma         0                0                0                0                
! Port Impedance         50               0                50               0                
51.4                           0.0718330960689284 66.7431348171966 0.995169293560464 -21.5367970442031 0.995169293560462 -21.5367970442031 0.0718344101434912 66.707325133148  
! Gamma         0                0                0                0                
! Port Impedance         50               0                50               0                
51.5                           0.071957619565492 66.7031417195834 0.995158204438679 -21.5784653401806 0.995158204438676 -21.5784653401806 0.0719589374409196 66.6672569604155 
! Gamma         0                0                0                0                
! Port Impedance         50               0                50               0                
51.6                           0.0720820681985185 66.6631451537499 0.995147107243575 -21.6201330585548 0.995147107243573 -21.6201330585547 0.0720833898773491 66.6271852935227 
! Gamma         0                0                0                0                
! Port Impedance         50               0                50               0                
51.7                           0.0722064418580236 66.6231451337662 0.995136002000107 -21.6618001998872 0.995136002000105 -21.6618001998872 0.0722077673428146 66.5871101464932 
! Gamma         0                0                0                0                
! Port Impedance         50               0                50               0                
51.8                           0.0723307404339363 66.5831416735071 0.995124888733301 -21.7034667647415 0.995124888733299 -21.7034667647415 0.0723320697272642 66.5470315331553 
! Gamma         0                0                0                0                
! Port Impedance         50               0                50               0                
51.9                           0.0724549638160978 66.543134786656  0.995113767468267 -21.7451327536831 0.995113767468265 -21.7451327536831 0.0724562969205584 66.5069494671454 
! Gamma         0                0                0                0                
! Port Impedance         50               0                50               0                
52                             0.0725791118942594 66.503124486707  0.995102638230187 -21.7867981672796 0.995102638230185 -21.7867981672796 0.0725804488124686 66.4668639619102 
! Gamma         0                0                0                0                
! Port Impedance         50               0                50               0                
52.1                           0.0727031845580819 66.4631107869677 0.995091501044325 -21.8284630061005 0.995091501044323 -21.8284630061005 0.0727045252926756 66.4267750307096 
! Gamma         0                0                0                0                
! Port Impedance         50               0                50               0                
52.2                           0.0728271816971343 66.4230937005622 0.995080355936021 -21.8701272707176 0.995080355936019 -21.8701272707176 0.0728285262507688 66.3866826866195 
! Gamma         0                0                0                0                
! Port Impedance         50               0                50               0                
52.3                           0.0729511032008922 66.3830732404337 0.99506920293069 -21.9117909617047 0.995069202930688 -21.9117909617047 0.0729524515762446 66.3465869425343 
! Gamma         0                0                0                0                
! Port Impedance         50               0                50               0                
52.4                           0.073074948958737 66.3430494193468 0.995058042053826 -21.9534540796379 0.995058042053825 -21.9534540796379 0.0730763011585054 66.3064878111701 
! Gamma         0                0                0                0                
! Port Impedance         50               0                50               0                
52.5                           0.073198718859954 66.3030222498907 0.995046873331001 -21.9951166250953 0.995046873330999 -21.9951166250953 0.0732000748868579 66.2663853050665 
! Gamma         0                0                0                0                
! Port Impedance         50               0                50               0                
52.6                           0.0733224127937321 66.2629917444815 0.995035696787861 -22.0367785986576 0.995035696787859 -22.0367785986575 0.0733237726505125 66.2262794365899 
! Gamma         0                0                0                0                
! Port Impedance         50               0                50               0                
52.7                           0.073446030649162 66.2229579153649 0.995024512450131 -22.0784400009075 0.995024512450128 -22.0784400009074 0.0734473943385818 66.186170217936  
! Gamma         0                0                0                0                
! Port Impedance         50               0                50               0                
52.8                           0.0735695723152349 66.1829207746188 0.995013320343609 -22.1201008324302 0.995013320343607 -22.1201008324302 0.0735709398400793 66.1460576611322 
! Gamma         0                0                0                0                
! Port Impedance         50               0                50               0                
52.9                           0.073693037680842 66.1428803341557 0.995002120494174 -22.1617610938134 0.995002120494172 -22.1617610938133 0.0736944090439184 66.1059417780401 
! Gamma         0                0                0                0                
! Port Impedance         50               0                50               0                
53                             0.0738164266347726 66.1028366057258 0.994990912927776 -22.2034207856469 0.994990912927774 -22.2034207856469 0.0738178018389112 66.0658225803586 
! Gamma         0                0                0                0                
! Port Impedance         50               0                50               0                
53.1                           0.0739397390657135 66.0627896009187 0.994979697670444 -22.2450799085234 0.994979697670442 -22.2450799085234 0.0739411181137676 66.0257000796257 
! Gamma         0                0                0                0                
! Port Impedance         50               0                50               0                
53.2                           0.0740629748622477 66.0227393311667 0.994968474748282 -22.2867384630377 0.99496847474828 -22.2867384630377 0.0740643577570935 65.9855742872215 
! Gamma         0                0                0                0                
! Port Impedance         50               0                50               0                
53.3                           0.0741861339128531 65.9826858077468 0.994957244187468 -22.3283964497875 0.994957244187466 -22.3283964497874 0.0741875206573906 65.9454452143708 
! Gamma         0                0                0                0                
! Port Impedance         50               0                50               0                
53.4                           0.0743092161059017 65.9426290417832 0.994946006014257 -22.3700538693728 0.994946006014255 -22.3700538693727 0.0743106067030546 65.9053128721449 
! Gamma         0                0                0                0                
! Port Impedance         50               0                50               0                
53.5                           0.0744322213296587 65.9025690442503 0.994934760254979 -22.4117107223963 0.994934760254977 -22.4117107223963 0.0744336157823744 65.8651772714648 
! Gamma         0                0                0                0                
! Port Impedance         50               0                50               0                
53.6                           0.0745551494722806 65.8625058259742 0.994923506936037 -22.4533670094635 0.994923506936035 -22.4533670094635 0.074556547783531 65.8250384231033 
! Gamma         0                0                0                0                
! Port Impedance         50               0                50               0                
53.7                           0.0746780004218153 65.822439397636  0.99491224608391 -22.4950227311826 0.994912246083908 -22.4950227311825 0.0746794025945966 65.7848963376874 
! Gamma         0                0                0                0                
! Port Impedance         50               0                50               0                
53.8                           0.0748007740662  65.7823697697738 0.994900977725152 -22.5366778881643 0.994900977725149 -22.5366778881642 0.0748021801035332 65.7447510257006 
! Gamma         0                0                0                0                
! Port Impedance         50               0                50               0                
53.9                           0.0749234702932611 65.7422969527849 0.994889701886388 -22.5783324810223 0.994889701886386 -22.5783324810223 0.0749248801981918 65.7046024974857 
! Gamma         0                0                0                0                
! Port Impedance         50               0                50               0                
54                             0.0750460889907124 65.7022209569288 0.994878418594322 -22.6199865103731 0.99487841859432 -22.6199865103731 0.0750475027663117 65.6644507632468 
! Gamma         0                0                0                0                
! Port Impedance         50               0                50               0                
54.1                           0.0751686300461546 65.6621417923287 0.994867127875728 -22.6616399768361 0.994867127875726 -22.6616399768361 0.0751700476955189 65.6242958330516 
! Gamma         0                0                0                0                
! Port Impedance         50               0                50               0                
54.2                           0.0752910933470744 65.6220594689745 0.994855829757454 -22.7032928810334 0.994855829757453 -22.7032928810334 0.0752925148733254 65.5841377168342 
! Gamma         0                0                0                0                
! Port Impedance         50               0                50               0                
54.3                           0.0754134787808432 65.5819739967248 0.994844524266423 -22.7449452235902 0.994844524266421 -22.7449452235902 0.0754149041871287 65.5439764243967 
! Gamma         0                0                0                0                
! Port Impedance         50               0                50               0                
54.4                           0.0755357862347163 65.5418853853094 0.994833211429629 -22.7865970051347 0.994833211429628 -22.7865970051347 0.0755372155242098 65.5038119654121 
! Gamma         0                0                0                0                
! Port Impedance         50               0                50               0                
54.5                           0.075658015595832 65.5017936443311 0.994821891274141 -22.828248226298 0.994821891274139 -22.8282482262979 0.0756594487717333 65.4636443494262 
! Gamma         0                0                0                0                
! Port Impedance         50               0                50               0                
54.6                           0.0757801667512107 65.4616987832686 0.994810563827098 -22.8698988877142 0.994810563827097 -22.8698988877142 0.075781603816746 65.4234735858602 
! Gamma         0                0                0                0                
! Port Impedance         50               0                50               0                
54.7                           0.0759022395877541 65.4216008114784 0.994799229115714 -22.9115489900207 0.994799229115713 -22.9115489900207 0.0759036805461761 65.3832996840126 
! Gamma         0                0                0                0                
! Port Impedance         50               0                50               0                
54.8                           0.0760242339922441 65.381499738197  0.994787887167274 -22.9531985338579 0.994787887167272 -22.9531985338579 0.0760256788468321 65.3431226530615 
! Gamma         0                0                0                0                
! Port Impedance         50               0                50               0                
54.9                           0.0761461498513419 65.341395572543  0.994776538009134 -22.9948475198693 0.994776538009132 -22.9948475198693 0.0761475986054024 65.3029425020669 
! Gamma         0                0                0                0                
! Port Impedance         50               0                50               0                
55                             0.0762679870515875 65.3012883235198 0.994765181668723 -23.0364959487017 0.994765181668722 -23.0364959487017 0.0762694397084539 65.2627592399731 
! Gamma         0                0                0                0                
! Port Impedance         50               0                50               0                
55.1                           0.0763897454793986 65.261178000017  0.994753818173542 -23.0781438210051 0.99475381817354 -23.078143821005 0.0763912020424316 65.2225728756103 
! Gamma         0                0                0                0                
! Port Impedance         50               0                50               0                
55.2                           0.0765114250210698 65.2210646108132 0.994742447551161 -23.1197911374326 0.994742447551159 -23.1197911374326 0.0765128854936574 65.1823834176973 
! Gamma         0                0                0                0                
! Port Impedance         50               0                50               0                
55.3                           0.0766330255627717 65.1809481645781 0.994731069829222 -23.1614378986409 0.99473106982922 -23.1614378986409 0.0766344899483298 65.1421908748431 
! Gamma         0                0                0                0                
! Port Impedance         50               0                50               0                
55.4                           0.0767545469905504 65.140828669874  0.994719685035438 -23.2030841052899 0.994719685035437 -23.2030841052899 0.0767560152925223 65.1019952555498 
! Gamma         0                0                0                0                
! Port Impedance         50               0                50               0                
55.5                           0.0768759891903265 65.1007061351587 0.994708293197593 -23.2447297580429 0.994708293197591 -23.2447297580428 0.0768774614121836 65.0617965682139 
! Gamma         0                0                0                0                
! Port Impedance         50               0                50               0                
55.6                           0.0769973520478944 65.0605805687869 0.99469689434354 -23.2863748575664 0.994696894343538 -23.2863748575664 0.076998828193136 65.0215948211288 
! Gamma         0                0                0                0                
! Port Impedance         50               0                50               0                
55.7                           0.0771186354489215 65.0204519790129 0.994685488501201 -23.3280194045307 0.994685488501199 -23.3280194045306 0.0771201155210749 64.981390022487  
! Gamma         0                0                0                0                
! Port Impedance         50               0                50               0                
55.8                           0.0772398392789474 64.9803203739923 0.99467407569857 -23.3696633996093 0.994674075698568 -23.3696633996092 0.0772413232815685 64.9411821803817 
! Gamma         0                0                0                0                
! Port Impedance         50               0                50               0                
55.9                           0.0773609634233834 64.9401857617839 0.99466265596371 -23.4113068434794 0.994662655963708 -23.4113068434793 0.0773624513600565 64.9009713028091 
! Gamma         0                0                0                0                
! Port Impedance         50               0                50               0                
56                             0.0774820077675118 64.900048150352  0.99465122932475 -23.4529497368216 0.994651229324748 -23.4529497368216 0.0774834996418495 64.8607573976708 
! Gamma         0                0                0                0                
! Port Impedance         50               0                50               0                
56.1                           0.077602972196485 64.8599075475684 0.994639795809892 -23.4945920803202 0.99463979580989 -23.4945920803202 0.0776044680121287 64.820540472775  
! Gamma         0                0                0                0                
! Port Impedance         50               0                50               0                
56.2                           0.0777238565953246 64.8197639612143 0.994628355447403 -23.5362338746631 0.994628355447402 -23.536233874663 0.0777253563559445 64.7803205358391 
! Gamma         0                0                0                0                
! Port Impedance         50               0                50               0                
56.3                           0.0778446608489217 64.7796173989823 0.994616908265623 -23.5778751205418 0.994616908265621 -23.5778751205417 0.0778461645582167 64.7400975944916 
! Gamma         0                0                0                0                
! Port Impedance         50               0                50               0                
56.4                           0.077965384842035 64.7394678684783 0.994605454292953 -23.6195158186515 0.994605454292952 -23.6195158186514 0.0779668925037332 64.6998716562739 
! Gamma         0                0                0                0                
! Port Impedance         50               0                50               0                
56.5                           0.0780860284592911 64.6993153772235 0.994593993557869 -23.6611559696911 0.994593993557867 -23.6611559696911 0.0780875400771495 64.6596427286422 
! Gamma         0                0                0                0                
! Port Impedance         50               0                50               0                
56.6                           0.0782065915851835 64.6591599326566 0.994582526088909 -23.7027955743634 0.994582526088907 -23.7027955743633 0.0782081071629883 64.6194108189698 
! Gamma         0                0                0                0                
! Port Impedance         50               0                50               0                
56.7                           0.0783270741040721 64.6190015421349 0.994571051914681 -23.7444346333748 0.994571051914679 -23.7444346333747 0.0783285936456388 64.5791759345486 
! Gamma         0                0                0                0                
! Port Impedance         50               0                50               0                
56.8                           0.0784474759001825 64.5788402129374 0.994559571063859 -23.7860731474356 0.994559571063857 -23.7860731474355 0.0784489994093558 64.5389380825912 
! Gamma         0                0                0                0                
! Port Impedance         50               0                50               0                
56.9                           0.0785677968576057 64.5386759522656 0.994548083565183 -23.8277111172599 0.994548083565182 -23.8277111172599 0.0785693243382597 64.4986972702327 
! Gamma         0                0                0                0                
! Port Impedance         50               0                50               0                
57                             0.078688036860297 64.4985087672461 0.994536589447462 -23.8693485435659 0.99453658944746 -23.8693485435659 0.0786895683163353 64.4584535045329 
! Gamma         0                0                0                0                
! Port Impedance         50               0                50               0                
57.1                           0.0788081957920762 64.4583386649319 0.994525088739567 -23.9109854270755 0.994525088739565 -23.9109854270754 0.0788097312274319 64.4182067924776 
! Gamma         0                0                0                0                
! Port Impedance         50               0                50               0                
57.2                           0.0789282735366265 64.4181656523047 0.994513581470437 -23.9526217685145 0.994513581470435 -23.9526217685145 0.0789298129552622 64.3779571409808 
! Gamma         0                0                0                0                
! Port Impedance         50               0                50               0                
57.3                           0.079048269977494 64.3779897362767 0.994502067669076 -23.994257568613 0.994502067669075 -23.9942575686129 0.079049813383402 64.3377045568867 
! Gamma         0                0                0                0                
! Port Impedance         50               0                50               0                
57.4                           0.0791681849980877 64.3378109236919 0.994490547364555 -24.0358928281047 0.994490547364553 -24.0358928281046 0.07916973239529 64.2974490469709 
! Gamma         0                0                0                0                
! Port Impedance         50               0                50               0                
57.5                           0.0792880184816785 64.2976292213286 0.994479020586005 -24.0775275477277 0.994479020586004 -24.0775275477276 0.0792895698742267 64.2571906179429 
! Gamma         0                0                0                0                
! Port Impedance         50               0                50               0                
57.6                           0.079407770311399 64.2574446359007 0.994467487362627 -24.1191617282239 0.994467487362626 -24.1191617282239 0.0794093257033744 64.2169292764476 
! Gamma         0                0                0                0                
! Port Impedance         50               0                50               0                
57.7                           0.0795274403702429 64.2172571740596 0.994455947723683 -24.1607953703397 0.994455947723681 -24.1607953703396 0.0795289997657566 64.1766650290667 
! Gamma         0                0                0                0                
! Port Impedance         50               0                50               0                
57.8                           0.0796470285410645 64.177066842396  0.994444401698498 -24.2024284748251 0.994444401698497 -24.2024284748251 0.0796485919442576 64.1363978823211 
! Gamma         0                0                0                0                
! Port Impedance         50               0                50               0                
57.9                           0.0797665347065788 64.1368736474418 0.994432849316465 -24.2440610424348 0.994432849316463 -24.2440610424348 0.0797681021216217 64.0961278426724 
! Gamma         0                0                0                0                
! Port Impedance         50               0                50               0                
58                             0.0798859587493602 64.0966775956715 0.994421290607035 -24.2856930739274 0.994421290607034 -24.2856930739274 0.0798875301804535 64.0558549165244 
! Gamma         0                0                0                0                
! Port Impedance         50               0                50               0                
58.1                           0.0800053005518429 64.056478693504  0.994409725599726 -24.3273245700659 0.994409725599725 -24.3273245700658 0.080006876003217 64.015579110225  
! Gamma         0                0                0                0                
! Port Impedance         50               0                50               0                
58.2                           0.0801245599963201 64.0162769473047 0.994398154324117 -24.3689555316173 0.994398154324115 -24.3689555316172 0.080126139472235 63.9753004300682 
! Gamma         0                0                0                0                
! Port Impedance         50               0                50               0                
58.3                           0.0802437369649438 63.9760723633865 0.994386576809848 -24.4105859593532 0.994386576809847 -24.4105859593532 0.0802453204696894 63.9350188822951 
! Gamma         0                0                0                0                
! Port Impedance         50               0                50               0                
58.4                           0.0803628313397244 63.9358649480122 0.994374993086624 -24.4522158540494 0.994374993086623 -24.4522158540493 0.0803644188776203 63.8947344730962 
! Gamma         0                0                0                0                
! Port Impedance         50               0                50               0                
58.5                           0.0804818430025302 63.8956547073956 0.99436340318421 -24.493845216486 0.994363403184209 -24.493845216486 0.0804834345779259 63.8544472086129 
! Gamma         0                0                0                0                
! Port Impedance         50               0                50               0                
58.6                           0.0806007718350873 63.8554416477034 0.994351807132433 -24.5354740474477 0.994351807132432 -24.5354740474477 0.0806023674523619 63.814157094939  
! Gamma         0                0                0                0                
! Port Impedance         50               0                50               0                
58.7                           0.0807196177189794 63.8152257750569 0.99434020496118 -24.5771023477233 0.994340204961179 -24.5771023477233 0.0807212173825417 63.7738641381225 
! Gamma         0                0                0                0                
! Port Impedance         50               0                50               0                
58.8                           0.0808383805356469 63.7750070955334 0.994328596700399 -24.6187301181064 0.994328596700398 -24.6187301181063 0.0808399842499355 63.7335683441671 
! Gamma         0                0                0                0                
! Port Impedance         50               0                50               0                
58.9                           0.0809570601663875 63.7347856151681 0.994316982380101 -24.6603573593947 0.994316982380099 -24.6603573593947 0.0809586679358704 63.6932697190338 
! Gamma         0                0                0                0                
! Port Impedance         50               0                50               0                
59                             0.0810756564923551 63.6945613399554 0.994305362030352 -24.7019840723908 0.994305362030351 -24.7019840723907 0.0810772683215301 63.6529682686429 
! Gamma         0                0                0                0                
! Port Impedance         50               0                50               0                
59.1                           0.0811941693945601 63.6543342758507 0.994293735681284 -24.7436102579015 0.994293735681283 -24.7436102579014 0.0811957852879543 63.6126639988748 
! Gamma         0                0                0                0                
! Port Impedance         50               0                50               0                
59.2                           0.0813125987538689 63.614104428772  0.994282103363083 -24.7852359167383 0.994282103363082 -24.7852359167383 0.0813142187160391 63.5723569155725 
! Gamma         0                0                0                0                
! Port Impedance         50               0                50               0                
59.3                           0.0814309444510038 63.5738718046012 0.994270465105997 -24.8268610497174 0.994270465105996 -24.8268610497173 0.0814325684865359 63.5320470245424 
! Gamma         0                0                0                0                
! Port Impedance         50               0                50               0                
59.4                           0.0815492063665428 63.533636409186  0.994258820940333 -24.8684856576594 0.994258820940332 -24.8684856576594 0.0815508344800521 63.4917343315563 
! Gamma         0                0                0                0                
! Port Impedance         50               0                50               0                
59.5                           0.0816673843809191 63.493398248341  0.994247170896455 -24.9101097413898 0.994247170896454 -24.9101097413898 0.0816690165770502 63.4514188423526 
! Gamma         0                0                0                0                
! Port Impedance         50               0                50               0                
59.6                           0.0817854783744213 63.4531573278497 0.994235515004786 -24.9517333017386 0.994235515004785 -24.9517333017386 0.081787114657848 63.4111005626382 
! Gamma         0                0                0                0                
! Port Impedance         50               0                50               0                
59.7                           0.0819034882271932 63.4129136534657 0.994223853295807 -24.9933563395405 0.994223853295806 -24.9933563395405 0.0819051286026181 63.3707794980899 
! Gamma         0                0                0                0                
! Port Impedance         50               0                50               0                
59.8                           0.0820214138192334 63.3726672309143 0.994212185800055 -25.0349788556351 0.994212185800054 -25.034978855635 0.0820230582913882 63.3304556543557 
! Gamma         0                0                0                0                
! Port Impedance         50               0                50               0                
59.9                           0.0821392550303953 63.3324180658941 0.994200512548127 -25.0766008508665 0.994200512548126 -25.0766008508665 0.0821409036040405 63.2901290370563 
! Gamma         0                0                0                0                
! Port Impedance         50               0                50               0                
60                             0.0822570117403869 63.2921661640781 0.994188833570675 -25.1182223260839 0.994188833570674 -25.1182223260838 0.0822586644203118 63.249799651787  
! Gamma         0                0                0                0                
! Port Impedance         50               0                50               0                
60.1                           0.082374683828771 63.2519115311157 0.994177148898406 -25.159843282141 0.994177148898405 -25.159843282141 0.0823763406197934 63.2094675041185 
! Gamma         0                0                0                0                
! Port Impedance         50               0                50               0                
60.2                           0.0824922711749647 63.2116541726337 0.994165458562086 -25.2014637198967 0.994165458562085 -25.2014637198966 0.0824939320819308 63.1691325995991 
! Gamma         0                0                0                0                
! Port Impedance         50               0                50               0                
60.3                           0.0826097736582393 63.1713940942379 0.994153762592534 -25.2430836402144 0.994153762592534 -25.2430836402143 0.0826114386860239 63.1287949437555 
! Gamma         0                0                0                0                
! Port Impedance         50               0                50               0                
60.4                           0.0827271911577206 63.1311313015146 0.994142061020628 -25.2847030439626 0.994142061020627 -25.2847030439626 0.0827288603112267 63.0884545420945 
! Gamma         0                0                0                0                
! Port Impedance         50               0                50               0                
60.5                           0.0828445235523887 63.090865800032  0.994130353877298 -25.3263219320148 0.994130353877297 -25.3263219320148 0.0828461968365472 63.0481114001046 
! Gamma         0                0                0                0                
! Port Impedance         50               0                50               0                
60.6                           0.0829617707210777 63.0505975953415 0.99411864119353 -25.3679403052493 0.994118641193529 -25.3679403052492 0.0829634481408476 63.007765523257  
! Gamma         0                0                0                0                
! Port Impedance         50               0                50               0                
60.7                           0.083078932542476 63.0103266929791 0.994106923000364 -25.4095581645494 0.994106923000363 -25.4095581645494 0.0830806141028439 62.9674169170073 
! Gamma         0                0                0                0                
! Port Impedance         50               0                50               0                
60.8                           0.0831960088951262 62.970053098467  0.994095199328894 -25.4511755108035 0.994095199328893 -25.4511755108034 0.0831976946011064 62.9270655867968 
! Gamma         0                0                0                0                
! Port Impedance         50               0                50               0                
60.9                           0.0833129996574249 62.9297768173148 0.994083470210269 -25.4927923449049 0.994083470210267 -25.4927923449049 0.0833146895140592 62.8867115380538 
! Gamma         0                0                0                0                
! Port Impedance         50               0                50               0                
61                             0.083429904707623 62.8894978550207 0.994071735675689 -25.5344086677521 0.994071735675688 -25.534408667752 0.0834315987199803 62.8463547761952 
! Gamma         0                0                0                0                
! Port Impedance         50               0                50               0                
61.1                           0.0835467239238254 62.8492162170731 0.99405999575641 -25.5760244802485 0.994059995756409 -25.5760244802484 0.0835484220970019 62.8059953066274 
! Gamma         0                0                0                0                
! Port Impedance         50               0                50               0                
61.2                           0.0836634571839915 62.808931908952  0.994048250483737 -25.6176397833028 0.994048250483737 -25.6176397833027 0.0836651595231102 62.7656331347482 
! Gamma         0                0                0                0                
! Port Impedance         50               0                50               0                
61.3                           0.0837801043659347 62.76864493613   0.994036499889032 -25.6592545778287 0.994036499889031 -25.6592545778286 0.0837818108761454 62.7252682659478 
! Gamma         0                0                0                0                
! Port Impedance         50               0                50               0                
61.4                           0.083896665347323 62.728355304074  0.994024744003705 -25.7008688647451 0.994024744003705 -25.7008688647451 0.0838983760338018 62.6849007056099 
! Gamma         0                0                0                0                
! Port Impedance         50               0                50               0                
61.5                           0.0840131400056786 62.688063018246  0.994012982859219 -25.7424826449762 0.994012982859218 -25.7424826449761 0.0840148548736282 62.6445304591136 
! Gamma         0                0                0                0                
! Port Impedance         50               0                50               0                
61.6                           0.0841295282183785 62.6477680841051 0.994001216487089 -25.7840959194511 0.994001216487088 -25.7840959194511 0.0841312472730274 62.6041575318342 
! Gamma         0                0                0                0                
! Port Impedance         50               0                50               0                
61.7                           0.0842458298626539 62.607470507108  0.993989444918879 -25.8257086891045 0.993989444918879 -25.8257086891045 0.0842475531092567 62.5637819291447 
! Gamma         0                0                0                0                
! Port Impedance         50               0                50               0                
61.8                           0.0843620448155913 62.5671702927111 0.993977668186206 -25.8673209548762 0.993977668186206 -25.8673209548761 0.0843637722594281 62.523403656417  
! Gamma         0                0                0                0                
! Port Impedance         50               0                50               0                
61.9                           0.0844781729541315 62.5268674463709 0.993965886320736 -25.9089327177111 0.993965886320735 -25.9089327177111 0.0844799046005079 62.4830227190232 
! Gamma         0                0                0                0                
! Port Impedance         50               0                50               0                
62                             0.0845942141550707 62.4865619735459 0.993954099354184 -25.9505439785597 0.993954099354183 -25.9505439785597 0.0845959500093176 62.4426391223369 
! Gamma         0                0                0                0                
! Port Impedance         50               0                50               0                
62.1                           0.0847101682950603 62.4462538796976 0.993942307318316 -25.9921547383778 0.993942307318315 -25.9921547383777 0.0847119083625333 62.4022528717343 
! Gamma         0                0                0                0                
! Port Impedance         50               0                50               0                
62.2                           0.0848260352506068 62.4059431702917 0.993930510244946 -26.0337649981263 0.993930510244945 -26.0337649981262 0.0848277795366864 62.3618639725956 
! Gamma         0                0                0                0                
! Port Impedance         50               0                50               0                
62.3                           0.0849418148980726 62.3656298507994 0.993918708165938 -26.0753747587717 0.993918708165937 -26.0753747587717 0.0849435634081635 62.3214724303061 
! Gamma         0                0                0                0                
! Port Impedance         50               0                50               0                
62.4                           0.0850575071136754 62.3253139266987 0.993906901113202 -26.1169840212859 0.993906901113201 -26.1169840212858 0.0850592598532068 62.2810782502575 
! Gamma         0                0                0                0                
! Port Impedance         50               0                50               0                
62.5                           0.0851731117734893 62.2849954034752 0.9938950891187  -26.1585927866461 0.993895089118699 -26.1585927866461 0.085174868747914 62.2406814378489 
! Gamma         0                0                0                0                
! Port Impedance         50               0                50               0                
62.6                           0.0852886287534444 62.2446742866238 0.993883272214438 -26.2002010558351 0.993883272214437 -26.200201055835 0.085290389968239 62.2002819984885 
! Gamma         0                0                0                0                
! Port Impedance         50               0                50               0                
62.7                           0.0854040579293271 62.2043505816496 0.993871450432471 -26.241808829841 0.993871450432471 -26.241808829841 0.0854058233899915 62.159879937594  
! Gamma         0                0                0                0                
! Port Impedance         50               0                50               0                
62.8                           0.0855193991767807 62.1640242940692 0.993859623804902 -26.2834161096577 0.993859623804901 -26.2834161096576 0.0855211688888379 62.1194752605946 
! Gamma         0                0                0                0                
! Port Impedance         50               0                50               0                
62.9                           0.0856346523713054 62.1236954294116 0.993847792363877 -26.3250228962841 0.993847792363877 -26.3250228962841 0.085636426340301 62.0790679729315 
! Gamma         0                0                0                0                
! Port Impedance         50               0                50               0                
63                             0.0857498173882585 62.0833639932197 0.993835956141593 -26.3666291907253 0.993835956141592 -26.3666291907252 0.0857515956197608 62.0386580800593 
! Gamma         0                0                0                0                
! Port Impedance         50               0                50               0                
63.1                           0.085864894102855 62.0430299910511 0.993824115170288 -26.4082349939913 0.993824115170288 -26.4082349939913 0.0858666766024542 61.9982455874474 
! Gamma         0                0                0                0                
! Port Impedance         50               0                50               0                
63.2                           0.0859798823901675 62.0026934284796 0.993812269482251 -26.4498403070983 0.99381226948225 -26.4498403070982 0.0859816691634759 61.9578305005808 
! Gamma         0                0                0                0                
! Port Impedance         50               0                50               0                
63.3                           0.086094782125127 61.9623543110961 0.993800419109811 -26.4914451310676 0.99380041910981 -26.4914451310676 0.0860965731777782 61.9174128249611 
! Gamma         0                0                0                0                
! Port Impedance         50               0                50               0                
63.4                           0.0862095931825227 61.9220126445097 0.993788564085344 -26.5330494669265 0.993788564085344 -26.5330494669264 0.0862113885201717 61.8769925661081 
! Gamma         0                0                0                0                
! Port Impedance         50               0                50               0                
63.5                           0.0863243154370028 61.8816684343486 0.993776704441272 -26.5746533157077 0.993776704441271 -26.5746533157076 0.0863261150653253 61.8365697295606 
! Gamma         0                0                0                0                
! Port Impedance         50               0                50               0                
63.6                           0.0864389487630747 61.841321686262  0.993764840210058 -26.6162566784497 0.993764840210057 -26.6162566784496 0.0864407526877669 61.7961443208773 
! Gamma         0                0                0                0                
! Port Impedance         50               0                50               0                
63.7                           0.0865534930351052 61.80097240592   0.99375297142421 -26.6578595561967 0.993752971424209 -26.6578595561966 0.0865553012618836 61.7557163456384 
! Gamma         0                0                0                0                
! Port Impedance         50               0                50               0                
63.8                           0.086667948127321 61.7606205990156 0.99374109811628 -26.6994619499986 0.99374109811628 -26.6994619499986 0.0866697606619219 61.7152858094462 
! Gamma         0                0                0                0                
! Port Impedance         50               0                50               0                
63.9                           0.0867823139138093 61.7202662712656 0.993729220318863 -26.7410638609111 0.993729220318863 -26.741063860911 0.0867841307619884 61.6748527179264 
! Gamma         0                0                0                0                
! Port Impedance         50               0                50               0                
64                             0.086896590268518 61.6799094284112 0.993717338064596 -26.7826652899954 0.993717338064595 -26.7826652899954 0.0868984114360501 61.6344170767292 
! Gamma         0                0                0                0                
! Port Impedance         50               0                50               0                
64.1                           0.0870107770652559 61.6395500762194 0.993705451386156 -26.824266238319 0.993705451386156 -26.8242662383189 0.0870126025579346 61.5939788915301 
! Gamma         0                0                0                0                
! Port Impedance         50               0                50               0                
64.2                           0.0871248741776936 61.5991882204842 0.993693560316267 -26.8658667069546 0.993693560316266 -26.8658667069545 0.0871267040013308 61.5535381680312 
! Gamma         0                0                0                0                
! Port Impedance         50               0                50               0                
64.3                           0.0872388814793638 61.5588238670273 0.993681664887689 -26.9074666969811 0.993681664887689 -26.9074666969811 0.0872407156397892 61.5130949119621 
! Gamma         0                0                0                0                
! Port Impedance         50               0                50               0                
64.4                           0.0873527988436613 61.5184570216992 0.993669765133228 -26.9490662094833 0.993669765133227 -26.9490662094832 0.0873546373467225 61.4726491290809 
! Gamma         0                0                0                0                
! Port Impedance         50               0                50               0                
64.5                           0.0874666261438442 61.4780876903803 0.993657861085726 -26.9906652455515 0.993657861085725 -26.9906652455515 0.0874684689954059 61.4322008251754 
! Gamma         0                0                0                0                
! Port Impedance         50               0                50               0                
64.6                           0.087580363253034 61.4377158789817 0.993645952778069 -27.0322638062823 0.993645952778069 -27.0322638062823 0.0875822104589773 61.3917500060637 
! Gamma         0                0                0                0                
! Port Impedance         50               0                50               0                
64.7                           0.0876940100442159 61.3973415934466 0.993634040243182 -27.073861892778 0.993634040243182 -27.0738618927779 0.0876958616104388 61.3512966775956 
! Gamma         0                0                0                0                
! Port Impedance         50               0                50               0                
64.8                           0.0878075663902398 61.3569648397507 0.993622123514028 -27.1154595061467 0.993622123514028 -27.1154595061467 0.0878094223226558 61.3108408456536 
! Gamma         0                0                0                0                
! Port Impedance         50               0                50               0                
64.9                           0.0879210321638203 61.3165856239039 0.993610202623612 -27.1570566475028 0.993610202623612 -27.1570566475027 0.0879228924683587 61.2703825161534 
! Gamma         0                0                0                0                
! Port Impedance         50               0                50               0                
65                             0.0880344072375377 61.2762039519505 0.993598277604976 -27.1986533179663 0.993598277604976 -27.1986533179663 0.0880362719201428 61.2299216950454 
! Gamma         0                0                0                0                
! Port Impedance         50               0                50               0                
65.1                           0.0881476914838382 61.2358198299706 0.9935863484912  -27.2402495186635 0.9935863484912  -27.2402495186634 0.0881495605504689 61.1894583883153 
! Gamma         0                0                0                0                
! Port Impedance         50               0                50               0                
65.2                           0.0882608847750346 61.1954332640811 0.993574415315404 -27.2818452507265 0.993574415315404 -27.2818452507264 0.088262758231664 61.1489926019852 
! Gamma         0                0                0                0                
! Port Impedance         50               0                50               0                
65.3                           0.088373986983307 61.1550442604363 0.993562478110745 -27.3234405152934 0.993562478110745 -27.3234405152934 0.088375864835922 61.1085243421147 
! Gamma         0                0                0                0                
! Port Impedance         50               0                50               0                
65.4                           0.0884869979807029 61.1146528252292 0.993550536910416 -27.3650353135086 0.993550536910416 -27.3650353135086 0.0884888802353038 61.0680536148014 
! Gamma         0                0                0                0                
! Port Impedance         50               0                50               0                
65.5                           0.0885999176391383 61.0742589646922 0.993538591747649 -27.4066296465224 0.993538591747649 -27.4066296465223 0.0886018043017382 61.0275804261821 
! Gamma         0                0                0                0                
! Port Impedance         50               0                50               0                
65.6                           0.0887127458303984 61.033862685098  0.993526642655712 -27.448223515491 0.993526642655712 -27.448223515491 0.0887146369070226 60.987104782434  
! Gamma         0                0                0                0                
! Port Impedance         50               0                50               0                
65.7                           0.0888254824261374 60.9934639927606 0.993514689667908 -27.4898169215771 0.993514689667908 -27.489816921577 0.0888273779228235 60.946626689775  
! Gamma         0                0                0                0                
! Port Impedance         50               0                50               0                
65.8                           0.0889381272978801 60.9530628940363 0.993502732817578 -27.5314098659492 0.993502732817578 -27.5314098659492 0.0889400272206767 60.906146154465  
! Gamma         0                0                0                0                
! Port Impedance         50               0                50               0                
65.9                           0.0890506803170219 60.9126593953243 0.993490772138097 -27.5730023497821 0.993490772138097 -27.5730023497821 0.0890525846719888 60.8656631828067 
! Gamma         0                0                0                0                
! Port Impedance         50               0                50               0                
66                             0.0891631413548298 60.8722535030678 0.993478807662875 -27.6145943742568 0.993478807662875 -27.6145943742567 0.0891650501480371 60.8251777811464 
! Gamma         0                0                0                0                
! Port Impedance         50               0                50               0                
66.1                           0.0892755102824429 60.8318452237547 0.993466839425358 -27.6561859405602 0.993466839425358 -27.6561859405602 0.0892774235199707 60.784689955875  
! Gamma         0                0                0                0                
! Port Impedance         50               0                50               0                
66.2                           0.0893877869708729 60.7914345639188 0.993454867459025 -27.6977770498858 0.993454867459025 -27.6977770498858 0.0893897046588107 60.7441997134289 
! Gamma         0                0                0                0                
! Port Impedance         50               0                50               0                
66.3                           0.0894999712910051 60.7510215301401 0.993442891797389 -27.739367703433 0.993442891797389 -27.739367703433 0.0895018934354515 60.7037070602907 
! Gamma         0                0                0                0                
! Port Impedance         50               0                50               0                
66.4                           0.0896120631135993 60.7106061290464 0.993430912473999 -27.7809579024076 0.993430912473999 -27.7809579024076 0.089613989720661 60.6632120029901 
! Gamma         0                0                0                0                
! Port Impedance         50               0                50               0                
66.5                           0.0897240623092896 60.6701883673133 0.993418929522434 -27.8225476480216 0.993418929522435 -27.8225476480216 0.0897259933850815 60.6227145481046 
! Gamma         0                0                0                0                
! Port Impedance         50               0                50               0                
66.6                           0.0898359687485863 60.6297682516658 0.993406942976309 -27.8641369414933 0.993406942976309 -27.8641369414932 0.0898379042992304 60.5822147022609 
! Gamma         0                0                0                0                
! Port Impedance         50               0                50               0                
66.7                           0.0899477823018756 60.5893457888784 0.993394952869267 -27.9057257840472 0.993394952869267 -27.9057257840471 0.0899497223335009 60.5417124721349 
! Gamma         0                0                0                0                
! Port Impedance         50               0                50               0                
66.8                           0.0900595028394212 60.5489209857766 0.993382959234988 -27.9473141769141 0.993382959234988 -27.9473141769141 0.0900614473581627 60.5012078644532 
! Gamma         0                0                0                0                
! Port Impedance         50               0                50               0                
66.9                           0.0901711302313642 60.5084938492372 0.993370962107182 -27.9889021213313 0.993370962107182 -27.9889021213313 0.0901730792433629 60.4607008859937 
! Gamma         0                0                0                0                
! Port Impedance         50               0                50               0                
67                             0.0902826643477246 60.4680643861895 0.993358961519588 -28.0304896185424 0.993358961519588 -28.0304896185423 0.0902846178591266 60.420191543586  
! Gamma         0                0                0                0                
! Port Impedance         50               0                50               0                
67.1                           0.0903941050584019 60.4276326036156 0.993346957505979 -28.0720766697971 0.993346957505979 -28.072076669797 0.0903960630753578 60.3796798441129 
! Gamma         0                0                0                0                
! Port Impedance         50               0                50               0                
67.2                           0.0905054522331755 60.3871985085518 0.993334950100157 -28.1136632763517 0.993334950100157 -28.1136632763517 0.0905074147618401 60.3391657945106 
! Gamma         0                0                0                0                
! Port Impedance         50               0                50               0                
67.3                           0.090616705741706 60.3467621080887 0.993322939335956 -28.155249439469 0.993322939335956 -28.155249439469 0.0906186727882373 60.2986494017699 
! Gamma         0                0                0                0                
! Port Impedance         50               0                50               0                
67.4                           0.0907278654535358 60.3063234093726 0.993310925247237 -28.196835160418 0.993310925247237 -28.1968351604179 0.0907298370240948 60.2581306729367 
! Gamma         0                0                0                0                
! Port Impedance         50               0                50               0                
67.5                           0.0908389312380897 60.2658824196059 0.993298907867893 -28.238420440474 0.993298907867893 -28.238420440474 0.0908409073388398 60.2176096151128 
! Gamma         0                0                0                0                
! Port Impedance         50               0                50               0                
67.6                           0.0909499029646762 60.2254391460478 0.993286887231844 -28.2800052809192 0.993286887231844 -28.2800052809192 0.0909518836017824 60.1770862354568 
! Gamma         0                0                0                0                
! Port Impedance         50               0                50               0                
67.7                           0.0910607805024881 60.1849935960153 0.99327486337304 -28.3215896830419 0.99327486337304 -28.3215896830419 0.0910627656821164 60.1365605411846 
! Gamma         0                0                0                0                
! Port Impedance         50               0                50               0                
67.8                           0.0911715637206033 60.1445457768839 0.99326283632546 -28.3631736481369 0.99326283632546 -28.3631736481369 0.0911735534489202 60.0960325395704 
! Gamma         0                0                0                0                
! Port Impedance         50               0                50               0                
67.9                           0.0912822524879855 60.1040956960881 0.993250806123109 -28.4047571775056 0.993250806123109 -28.4047571775056 0.0912842467711576 60.0555022379473 
! Gamma         0                0                0                0                
! Port Impedance         50               0                50               0                
68                             0.0913928466734858 60.0636433611223 0.993238772800021 -28.4463402724559 0.993238772800022 -28.4463402724559 0.0913948455176787 60.0149696437081 
! Gamma         0                0                0                0                
! Port Impedance         50               0                50               0                
68.1                           0.0915033461458428 60.0231887795415 0.993226736390257 -28.4879229343022 0.993226736390257 -28.4879229343021 0.0915053495572208 59.974434764306  
! Gamma         0                0                0                0                
! Port Impedance         50               0                50               0                
68.2                           0.0916137507736837 59.9827319589622 0.993214696927903 -28.5295051643653 0.993214696927904 -28.5295051643653 0.0916157587584091 59.9338976072551 
! Gamma         0                0                0                0                
! Port Impedance         50               0                50               0                
68.3                           0.0917240604255255 59.9422729070626 0.993202654447075 -28.5710869639729 0.993202654447075 -28.5710869639728 0.0917260729897581 59.8933581801315 
! Gamma         0                0                0                0                
! Port Impedance         50               0                50               0                
68.4                           0.0918342749697757 59.9018116315837 0.993190608981911 -28.6126683344589 0.993190608981912 -28.6126683344588 0.0918362921196719 59.8528164905737 
! Gamma         0                0                0                0                
! Port Impedance         50               0                50               0                
68.5                           0.0919443942747333 59.86134814033   0.993178560566578 -28.654249277164 0.993178560566578 -28.6542492771639 0.0919464160164455 59.8122725462834 
! Gamma         0                0                0                0                
! Port Impedance         50               0                50               0                
68.6                           0.0920544182085897 59.82088244117   0.993166509235266 -28.6958297934354 0.993166509235266 -28.6958297934354 0.0920564445482657 59.771726355026  
! Gamma         0                0                0                0                
! Port Impedance         50               0                50               0                
68.7                           0.0921643466394296 59.7804145420369 0.993154455022191 -28.737409884627 0.993154455022191 -28.737409884627 0.0921663775832121 59.7311779246317 
! Gamma         0                0                0                0                
! Port Impedance         50               0                50               0                
68.8                           0.0922741794352319 59.7399444509295 0.993142397961593 -28.7789895520994 0.993142397961594 -28.7789895520994 0.0922762149892576 59.6906272629958 
! Gamma         0                0                0                0                
! Port Impedance         50               0                50               0                
68.9                           0.0923839164638712 59.6994721759123 0.993130338087737 -28.8205687972197 0.993130338087737 -28.8205687972197 0.0923859566342703 59.6500743780795 
! Gamma         0                0                0                0                
! Port Impedance         50               0                50               0                
69                             0.092493557593118 59.658997725117  0.99311827543491 -28.8621476213616 0.993118275434911 -28.8621476213616 0.0924956023860133 59.6095192779103 
! Gamma         0                0                0                0                
! Port Impedance         50               0                50               0                
69.1                           0.0926031026906403 59.6185211067423 0.993106210037425 -28.9037260259058 0.993106210037426 -28.9037260259058 0.0926051521121467 59.5689619705833 
! Gamma         0                0                0                0                
! Port Impedance         50               0                50               0                
69.2                           0.0927125516240044 59.5780423290551 0.993094141929616 -28.9453040122393 0.993094141929616 -28.9453040122393 0.0927146056802281 59.528402464261  
! Gamma         0                0                0                0                
! Port Impedance         50               0                50               0                
69.3                           0.0928219042606756 59.5375614003908 0.993082071145839 -28.9868815817561 0.993082071145839 -28.9868815817561 0.0928239629577137 59.4878407671746 
! Gamma         0                0                0                0                
! Port Impedance         50               0                50               0                
69.4                           0.09293116046802 59.4970783291543 0.993069997720474 -29.0284587358569 0.993069997720475 -29.0284587358569 0.0929332238119593 59.4472768876243 
! Gamma         0                0                0                0                
! Port Impedance         50               0                50               0                
69.5                           0.0930403201133048 59.4565931238202 0.993057921687923 -29.0700354759489 0.993057921687924 -29.0700354759489 0.0930423881102214 59.40671083398   
! Gamma         0                0                0                0                
! Port Impedance         50               0                50               0                
69.6                           0.0931493830636997 59.4161057929336 0.993045843082607 -29.1116118034463 0.993045843082608 -29.1116118034463 0.0931514557196583 59.3661426146819 
! Gamma         0                0                0                0                
! Port Impedance         50               0                50               0                
69.7                           0.0932583491862778 59.3756163451109 0.993033761938971 -29.15318771977  0.993033761938972 -29.15318771977  0.0932604265073308 59.3255722382412 
! Gamma         0                0                0                0                
! Port Impedance         50               0                50               0                
69.8                           0.0933672183480167 59.3351247890399 0.99302167829148 -29.1947632263477 0.99302167829148 -29.1947632263477 0.0933693003402037 59.2849997132406 
! Gamma         0                0                0                0                
! Port Impedance         50               0                50               0                
69.9                           0.0934759904157999 59.294631133481  0.993009592174617 -29.2363383246138 0.993009592174617 -29.2363383246137 0.0934780770851468 59.2444250483348 
! Gamma         0                0                0                0                
! Port Impedance         50               0                50               0                
70                             0.0935846652564173 59.2541353872674 0.992997503622887 -29.2779130160095 0.992997503622888 -29.2779130160095 0.0935867566089356 59.2038482522513 
! Gamma         0                0                0                0                
! Port Impedance         50               0                50               0                
70.1                           0.0936932427365667 59.2136375593056 0.992985412670816 -29.3194873019831 0.992985412670816 -29.319487301983 0.0936953387782528 59.1632693337909 
! Gamma         0                0                0                0                
! Port Impedance         50               0                50               0                
70.2                           0.0938017227228549 59.1731376585763 0.992973319352945 -29.3610611839893 0.992973319352946 -29.3610611839893 0.0938038234596893 59.1226883018283 
! Gamma         0                0                0                0                
! Port Impedance         50               0                50               0                
70.3                           0.0939101050817986 59.1326356941348 0.992961223703838 -29.40263466349  0.992961223703839 -29.40263466349  0.0939122105197452 59.0821051653125 
! Gamma         0                0                0                0                
! Port Impedance         50               0                50               0                
70.4                           0.0940183896798258 59.0921316751115 0.992949125758075 -29.4442077419539 0.992949125758076 -29.4442077419539 0.094020499824831 59.0415199332677 
! Gamma         0                0                0                0                
! Port Impedance         50               0                50               0                
70.5                           0.0941265763832767 59.0516256107125 0.992937025550256 -29.4857804208565 0.992937025550257 -29.4857804208565 0.0941286912412688 59.0009326147933 
! Gamma         0                0                0                0                
! Port Impedance         50               0                50               0                
70.6                           0.094234665058405 59.0111175102204 0.992924923114995 -29.5273527016802 0.992924923114996 -29.5273527016802 0.0942367846352933 58.9603432190653 
! Gamma         0                0                0                0                
! Port Impedance         50               0                50               0                
70.7                           0.0943426555713788 58.9706073829943 0.992912818486928 -29.5689245859143 0.992912818486929 -29.5689245859143 0.0943447798730531 58.9197517553358 
! Gamma         0                0                0                0                
! Port Impedance         50               0                50               0                
70.8                           0.0944505477882823 58.9300952384707 0.992900711700704 -29.610496075055 0.992900711700704 -29.610496075055 0.0944526768206115 58.8791582329346 
! Gamma         0                0                0                0                
! Port Impedance         50               0                50               0                
70.9                           0.0945583415751162 58.889581086164  0.99288860279099 -29.6520671706057 0.992888602790991 -29.6520671706056 0.0945604753439483 58.8385626612687 
! Gamma         0                0                0                0                
! Port Impedance         50               0                50               0                
71                             0.0946660367977998 58.8490649356672 0.992876491792471 -29.6936378740762 0.992876491792472 -29.6936378740762 0.0946681753089605 58.7979650498238 
! Gamma         0                0                0                0                
! Port Impedance         50               0                50               0                
71.1                           0.0947736333221713 58.8085467966519 0.992864378739845 -29.7352081869839 0.992864378739846 -29.7352081869839 0.0947757765814635 58.757365408164  
! Gamma         0                0                0                0                
! Port Impedance         50               0                50               0                
71.2                           0.0948811310139896 58.7680266788693 0.992852263667826 -29.7767781108526 0.992852263667827 -29.7767781108526 0.0948832790271925 58.7167637459328 
! Gamma         0                0                0                0                
! Port Impedance         50               0                50               0                
71.3                           0.0949885297389354 58.7275045921503 0.992840146611144 -29.8183476472135 0.992840146611145 -29.8183476472135 0.0949906825118035 58.6761600728536 
! Gamma         0                0                0                0                
! Port Impedance         50               0                50               0                
71.4                           0.0950958293626122 58.6869805464066 0.992828027604543 -29.8599167976045 0.992828027604544 -29.8599167976045 0.0950979869008749 58.6355543987298 
! Gamma         0                0                0                0                
! Port Impedance         50               0                50               0                
71.5                           0.0952030297505477 58.6464545516303 0.992815906682781 -29.9014855635708 0.992815906682782 -29.9014855635708 0.0952051920599082 58.5949467334458 
! Gamma         0                0                0                0                
! Port Impedance         50               0                50               0                
71.6                           0.0953101307681951 58.6059266178954 0.992803783880631 -29.9430539466643 0.992803783880632 -29.9430539466643 0.0953122978543295 58.5543370869671 
! Gamma         0                0                0                0                
! Port Impedance         50               0                50               0                
71.7                           0.0954171322809342 58.5653967553575 0.992791659232877 -29.9846219484442 0.992791659232878 -29.9846219484441 0.095419304149491 58.5137254693409 
! Gamma         0                0                0                0                
! Port Impedance         50               0                50               0                
71.8                           0.0955240341540726 58.5248649742545 0.99277953277432 -30.0261895704765 0.992779532774321 -30.0261895704765 0.0955262108106715 58.4731118906969 
! Gamma         0                0                0                0                
! Port Impedance         50               0                50               0                
71.9                           0.0956308362528475 58.4843312849073 0.99276740453977 -30.0677568143346 0.99276740453977 -30.0677568143346 0.0956330177030786 58.4324963612471 
! Gamma         0                0                0                0                
! Port Impedance         50               0                50               0                
72                             0.0957375384424261 58.4437956977198 0.99275527456405 -30.1093236815986 0.992755274564051 -30.1093236815986 0.0957397246918493 58.3918788912868 
! Gamma         0                0                0                0                
! Port Impedance         50               0                50               0                
72.1                           0.0958441405879075 58.40325822318   0.992743142881998 -30.150890173856 0.992743142881999 -30.150890173856 0.0958463316420516 58.351259491195  
! Gamma         0                0                0                0                
! Port Impedance         50               0                50               0                
72.2                           0.095950642554324 58.3627188718598 0.99273100952846 -30.1924562927011 0.992731009528461 -30.1924562927011 0.0959528384186854 58.3106381714346 
! Gamma         0                0                0                0                
! Port Impedance         50               0                50               0                
72.3                           0.0960570442066421 58.3221776544158 0.992718874538296 -30.2340220397355 0.992718874538297 -30.2340220397355 0.0960592448866846 58.2700149425531 
! Gamma         0                0                0                0                
! Port Impedance         50               0                50               0                
72.4                           0.096163345409764 58.2816345815896 0.992706737946374 -30.275587416568 0.992706737946375 -30.275587416568 0.0961655509109173 58.2293898151828 
! Gamma         0                0                0                0                
! Port Impedance         50               0                50               0                
72.5                           0.0962695460285288 58.2410896642084 0.992694599787574 -30.3171524248142 0.992694599787575 -30.3171524248142 0.0962717563561881 58.1887628000415 
! Gamma         0                0                0                0                
! Port Impedance         50               0                50               0                
72.6                           0.096375645927714 58.2005429131853 0.992682460096787 -30.3587170660971 0.992682460096789 -30.3587170660971 0.0963778610872389 58.1481339079329 
! Gamma         0                0                0                0                
! Port Impedance         50               0                50               0                
72.7                           0.0964816449720368 58.1599943395197 0.992670318908913 -30.4002813420469 0.992670318908914 -30.4002813420469 0.0964838649687504 58.1075031497465 
! Gamma         0                0                0                0                
! Port Impedance         50               0                50               0                
72.8                           0.0965875430261551 58.1194439542978 0.992658176258859 -30.4418452543007 0.992658176258861 -30.4418452543007 0.0965897678653432 58.066870536459  
! Gamma         0                0                0                0                
! Port Impedance         50               0                50               0                
72.9                           0.0966933399546695 58.0788917686929 0.992646032181546 -30.483408804503 0.992646032181547 -30.483408804503 0.0966955696415795 58.0262360791338 
! Gamma         0                0                0                0                
! Port Impedance         50               0                50               0                
73                             0.096799035622124 58.0383377939659 0.992633886711898 -30.5249719943055 0.992633886711899 -30.5249719943055 0.0968012701619644 57.9855997889217 
! Gamma         0                0                0                0                
! Port Impedance         50               0                50               0                
73.1                           0.0969046298930079 57.9977820414657 0.992621739884852 -30.5665348253669 0.992621739884853 -30.5665348253669 0.0969068692909469 57.9449616770617 
! Gamma         0                0                0                0                
! Port Impedance         50               0                50               0                
73.2                           0.0970101226317567 57.9572245226295 0.992609591735348 -30.6080972993532 0.992609591735349 -30.6080972993532 0.0970123668929218 57.9043217548808 
! Gamma         0                0                0                0                
! Port Impedance         50               0                50               0                
73.3                           0.0971155137027541 57.9166652489833 0.992597442298338 -30.6496594179378 0.99259744229834 -30.6496594179378 0.0971177628322306 57.8636800337946 
! Gamma         0                0                0                0                
! Port Impedance         50               0                50               0                
73.4                           0.0972208029703327 57.8761042321423 0.992585291608779 -30.6912211828011 0.99258529160878 -30.6912211828011 0.0972230569731632 57.823036525308  
! Gamma         0                0                0                0                
! Port Impedance         50               0                50               0                
73.5                           0.0973259902987759 57.8355414838109 0.992573139701634 -30.7327825956307 0.992573139701636 -30.7327825956307 0.0973282491799592 57.782391241015  
! Gamma         0                0                0                0                
! Port Impedance         50               0                50               0                
73.6                           0.097431075552319 57.7949770157838 0.992560986611874 -30.7743436581217 0.992560986611876 -30.7743436581218 0.0974333393168094 57.7417441925996 
! Gamma         0                0                0                0                
! Port Impedance         50               0                50               0                
73.7                           0.097536058595151 57.7544108399457 0.992548832374475 -30.8159043719764 0.992548832374476 -30.8159043719764 0.0975383272478571 57.7010953918359 
! Gamma         0                0                0                0                
! Port Impedance         50               0                50               0                
73.8                           0.0976409392914155 57.7138429682719 0.992536677024418 -30.8574647389041 0.992536677024419 -30.8574647389041 0.0976432128371992 57.6604448505885 
! Gamma         0                0                0                0                
! Port Impedance         50               0                50               0                
73.9                           0.0977457175052127 57.6732734128287 0.992524520596689 -30.8990247606217 0.99252452059669 -30.8990247606217 0.0977479959488886 57.6197925808127 
! Gamma         0                0                0                0                
! Port Impedance         50               0                50               0                
74                             0.0978503931006005 57.6327021857737 0.992512363126281 -30.9405844388533 0.992512363126283 -30.9405844388533 0.0978526764469345 57.5791385945554 
! Gamma         0                0                0                0                
! Port Impedance         50               0                50               0                
74.1                           0.0979549659415958 57.5921292993563 0.992500204648191 -30.9821437753303 0.992500204648192 -30.9821437753303 0.0979572541953046 57.5384829039548 
! Gamma         0                0                0                0                
! Port Impedance         50               0                50               0                
74.2                           0.0980594358921766 57.5515547659176 0.992488045197417 -31.0237027717913 0.992488045197418 -31.0237027717913 0.0980617290579263 57.497825521241  
! Gamma         0                0                0                0                
! Port Impedance         50               0                50               0                
74.3                           0.0981638028162825 57.5109785978912 0.992475884808963 -31.0652614299824 0.992475884808965 -31.0652614299824 0.0981661008986881 57.4571664587365 
! Gamma         0                0                0                0                
! Port Impedance         50               0                50               0                
74.4                           0.0982680665778173 57.4704008078035 0.992463723517838 -31.1068197516569 0.992463723517839 -31.1068197516569 0.0982703695814412 57.4165057288562 
! Gamma         0                0                0                0                
! Port Impedance         50               0                50               0                
74.5                           0.0983722270406494 57.4298214082735 0.992451561359049 -31.1483777385756 0.992451561359051 -31.1483777385756 0.0983745349700009 57.3758433441081 
! Gamma         0                0                0                0                
! Port Impedance         50               0                50               0                
74.6                           0.0984762840686143 57.3892404120138 0.992439398367612 -31.1899353925065 0.992439398367613 -31.1899353925065 0.0984785969281481 57.3351793170932 
! Gamma         0                0                0                0                
! Port Impedance         50               0                50               0                
74.7                           0.098580237525515 57.3486578318305 0.992427234578539 -31.231492715225 0.99242723457854 -31.231492715225 0.0985825553196309 57.2945136605063 
! Gamma         0                0                0                0                
! Port Impedance         50               0                50               0                
74.8                           0.0986840872751245 57.3080736806237 0.992415070026848 -31.2730497085139 0.992415070026849 -31.2730497085139 0.0986864100081659 57.2538463871358 
! Gamma         0                0                0                0                
! Port Impedance         50               0                50               0                
74.9                           0.0987878331811868 57.2674879713877 0.992402904747556 -31.3146063741635 0.992402904747558 -31.3146063741635 0.0987901608574398 57.2131775098645 
! Gamma         0                0                0                0                
! Port Impedance         50               0                50               0                
75                             0.0988914751074186 57.2269007172111 0.992390738775683 -31.3561627139712 0.992390738775685 -31.3561627139712 0.0988938077311109 57.1725070416694 
! Gamma         0                0                0                0                
! Port Impedance         50               0                50               0                
75.1                           0.0989950129175105 57.1863119312776 0.992378572146249 -31.3977187297421 0.99237857214625 -31.3977187297421 0.0989973504928109 57.1318349956224 
! Gamma         0                0                0                0                
! Port Impedance         50               0                50               0                
75.2                           0.0990984464751291 57.1457216268658 0.992366404894272 -31.4392744232885 0.992366404894274 -31.4392744232885 0.0991007890061457 57.0911613848905 
! Gamma         0                0                0                0                
! Port Impedance         50               0                50               0                
75.3                           0.0992017756439178 57.1051298173499 0.992354237054775 -31.4808297964302 0.992354237054776 -31.4808297964303 0.0992041231346978 57.050486222736  
! Gamma         0                0                0                0                
! Port Impedance         50               0                50               0                
75.4                           0.0993050002874993 57.0645365161996 0.992342068662775 -31.5223848509946 0.992342068662776 -31.5223848509946 0.0993073527420272 57.0098095225166 
! Gamma         0                0                0                0                
! Port Impedance         50               0                50               0                
75.5                           0.0994081202694762 57.0239417369805 0.992329899753291 -31.5639395888163 0.992329899753293 -31.5639395888163 0.0994104776916734 56.9691312976862 
! Gamma         0                0                0                0                
! Port Impedance         50               0                50               0                
75.6                           0.0995111354534332 56.9833454933546 0.992317730361342 -31.6054940117373 0.992317730361344 -31.6054940117373 0.0995134978471566 56.9284515617946 
! Gamma         0                0                0                0                
! Port Impedance         50               0                50               0                
75.7                           0.0996140457029382 56.94274779908   0.992305560521944 -31.6470481216073 0.992305560521945 -31.6470481216073 0.0996164130719796 56.8877703284881 
! Gamma         0                0                0                0                
! Port Impedance         50               0                50               0                
75.8                           0.0997168508815445 56.902148668012  0.992293390270109 -31.6886019202834 0.992293390270111 -31.6886019202834 0.0997192232296289 56.8470876115099 
! Gamma         0                0                0                0                
! Port Impedance         50               0                50               0                
75.9                           0.0998195508527916 56.8615481141024 0.992281219640851 -31.7301554096301 0.992281219640853 -31.7301554096301 0.0998219281835767 56.8064034246997 
! Gamma         0                0                0                0                
! Port Impedance         50               0                50               0                
76                             0.0999221454802076 56.8209461514007 0.992269048669178 -31.7717085915193 0.99226904866918 -31.7717085915193 0.0999245277972825 56.7657177819948 
! Gamma         0                0                0                0                
! Port Impedance         50               0                50               0                
76.1                           0.10002463462731 56.7803427940534 0.992256877390096 -31.8132614678307 0.992256877390098 -31.8132614678307 0.100027021934194 56.7250306974298 
! Gamma         0                0                0                0                
! Port Impedance         50               0                50               0                
76.2                           0.100127018157608 56.7397380563051 0.992244705838608 -31.8548140404511 0.99224470583861 -31.8548140404512 0.100129410457751 56.6843421851368 
! Gamma         0                0                0                0                
! Port Impedance         50               0                50               0                
76.3                           0.100229295934604 56.6991319524982 0.992232534049713 -31.8963663112752 0.992232534049715 -31.8963663112752 0.100231693231382 56.6436522593461 
! Gamma         0                0                0                0                
! Port Impedance         50               0                50               0                
76.4                           0.100331467821794 56.6585244970732 0.992220362058406 -31.937918282205 0.992220362058407 -31.937918282205 0.100333870118512 56.6029609343859 
! Gamma         0                0                0                0                
! Port Impedance         50               0                50               0                
76.5                           0.100433533682671 56.617915704569  0.992208189899676 -31.97946995515  0.992208189899677 -31.97946995515  0.100435940982561 56.5622682246831 
! Gamma         0                0                0                0                
! Port Impedance         50               0                50               0                
76.6                           0.100535493380726 56.5773055896233 0.992196017608509 -32.0210213320273 0.992196017608511 -32.0210213320274 0.100537905686943 56.5215741447627 
! Gamma         0                0                0                0                
! Port Impedance         50               0                50               0                
76.7                           0.10063734677945 56.5366941669725 0.992183845219885 -32.0625724147617 0.992183845219886 -32.0625724147617 0.100639764095073 56.4808787092491 
! Gamma         0                0                0                0                
! Port Impedance         50               0                50               0                
76.8                           0.100739093742333 56.496081451452  0.992171672768778 -32.1041232052852 0.992171672768779 -32.1041232052852 0.100741516070366 56.4401819328652 
! Gamma         0                0                0                0                
! Port Impedance         50               0                50               0                
76.9                           0.100840734132871 56.4554674579966 0.992159500290157 -32.1456737055377 0.992159500290159 -32.1456737055377 0.100843161476238 56.3994838304335 
! Gamma         0                0                0                0                
! Port Impedance         50               0                50               0                
77                             0.100942267814561 56.4148522016405 0.992147327818983 -32.1872239174665 0.992147327818985 -32.1872239174665 0.100944700176108 56.3587844168758 
! Gamma         0                0                0                0                
! Port Impedance         50               0                50               0                
77.1                           0.101043694650908 56.3742356975174 0.992135155390213 -32.2287738430264 0.992135155390215 -32.2287738430265 0.101046132033401 56.3180837072136 
! Gamma         0                0                0                0                
! Port Impedance         50               0                50               0                
77.2                           0.101145014505425 56.3336179608612 0.992122983038793 -32.2703234841801 0.992122983038795 -32.2703234841801 0.101147456911547 56.2773817165682 
! Gamma         0                0                0                0                
! Port Impedance         50               0                50               0                
77.3                           0.101246227241634 56.2929990070055 0.992110810799666 -32.3118728428975 0.992110810799667 -32.3118728428975 0.101248674673987 56.236678460161  
! Gamma         0                0                0                0                
! Port Impedance         50               0                50               0                
77.4                           0.101347332723068 56.2523788513842 0.992098638707762 -32.3534219211564 0.992098638707763 -32.3534219211564 0.101349785184169 56.1959739533135 
! Gamma         0                0                0                0                
! Port Impedance         50               0                50               0                
77.5                           0.101448330813272 56.2117575095318 0.992086466798007 -32.394970720942 0.992086466798009 -32.394970720942 0.101450788305556 56.1552682114477 
! Gamma         0                0                0                0                
! Port Impedance         50               0                50               0                
77.6                           0.101549221375808 56.1711349970832 0.992074295105317 -32.4365192442472 0.992074295105319 -32.4365192442473 0.10155168390162 56.1145612500862 
! Gamma         0                0                0                0                
! Port Impedance         50               0                50               0                
77.7                           0.101650004274251 56.130511329774  0.992062123664599 -32.4780674930727 0.992062123664601 -32.4780674930727 0.101652471835853 56.0738530848523 
! Gamma         0                0                0                0                
! Port Impedance         50               0                50               0                
77.8                           0.101750679372195 56.0898865234409 0.99204995251075 -32.5196154694265 0.992049952510752 -32.5196154694265 0.10175315197176 56.0331437314701 
! Gamma         0                0                0                0                
! Port Impedance         50               0                50               0                
77.9                           0.101851246533256 56.0492605940215 0.992037781678659 -32.5611631753244 0.99203778167866 -32.5611631753244 0.101853724172866 55.9924332057652 
! Gamma         0                0                0                0                
! Port Impedance         50               0                50               0                
78                             0.101951705621068 56.0086335575548 0.992025611203202 -32.6027106127899 0.992025611203204 -32.60271061279  0.101954188302717 55.9517215236639 
! Gamma         0                0                0                0                
! Port Impedance         50               0                50               0                
78.1                           0.102052056499289 55.968005430181  0.992013441119249 -32.6442577838542 0.99201344111925 -32.6442577838542 0.102054544224878 55.9110087011943 
! Gamma         0                0                0                0                
! Port Impedance         50               0                50               0                
78.2                           0.102152299031602 55.9273762281421 0.992001271461654 -32.6858046905558 0.992001271461656 -32.6858046905559 0.102154791802941 55.8702947544859 
! Gamma         0                0                0                0                
! Port Impedance         50               0                50               0                
78.3                           0.102252433081717 55.8867459677816 0.991989102265264 -32.7273513349414 0.991989102265266 -32.7273513349414 0.102254930900521 55.82957969977   
! Gamma         0                0                0                0                
! Port Impedance         50               0                50               0                
78.4                           0.102352458513372 55.8461146655447 0.991976933564913 -32.7688977190649 0.991976933564914 -32.768897719065 0.102354961381261 55.7888635533797 
! Gamma         0                0                0                0                
! Port Impedance         50               0                50               0                
78.5                           0.102452375190333 55.805482337979  0.991964765395422 -32.8104438449882 0.991964765395424 -32.8104438449883 0.102454883108833 55.7481463317501 
! Gamma         0                0                0                0                
! Port Impedance         50               0                50               0                
78.6                           0.102552182976401 55.7648490017337 0.991952597791602 -32.8519897147808 0.991952597791604 -32.8519897147808 0.10255469594694 55.7074280514183 
! Gamma         0                0                0                0                
! Port Impedance         50               0                50               0                
78.7                           0.102651881735407 55.7242146735606 0.991940430788249 -32.8935353305198 0.991940430788251 -32.8935353305198 0.102654399759314 55.6667087290238 
! Gamma         0                0                0                0                
! Port Impedance         50               0                50               0                
78.8                           0.10275147133122 55.6835793703136 0.991928264420148 -32.93508069429  0.99192826442015 -32.93508069429  0.102753994409726 55.6259883813085 
! Gamma         0                0                0                0                
! Port Impedance         50               0                50               0                
78.9                           0.102850951627745 55.6429431089492 0.991916098722069 -32.9766258081841 0.991916098722071 -32.9766258081842 0.102853479761978 55.5852670251167 
! Gamma         0                0                0                0                
! Port Impedance         50               0                50               0                
79                             0.102950322488925 55.6023059065265 0.991903933728769 -33.0181706743024 0.991903933728771 -33.0181706743024 0.102952855679914 55.5445446773954 
! Gamma         0                0                0                0                
! Port Impedance         50               0                50               0                
79.1                           0.103049583778743 55.5616677802073 0.991891769474992 -33.0597152947528 0.991891769474993 -33.0597152947529 0.103052122027414 55.5038213551944 
! Gamma         0                0                0                0                
! Port Impedance         50               0                50               0                
79.2                           0.103148735361227 55.521028747256  0.991879605995465 -33.1012596716512 0.991879605995467 -33.1012596716512 0.1031512786684  55.463097075666  
! Gamma         0                0                0                0                
! Port Impedance         50               0                50               0                
79.3                           0.103247777100446 55.4803888250403 0.991867443324902 -33.142803807121 0.991867443324904 -33.142803807121 0.103250325466837 55.422371856066  
! Gamma         0                0                0                0                
! Port Impedance         50               0                50               0                
79.4                           0.103346708860517 55.4397480310305 0.991855281498002 -33.1843477032934 0.991855281498004 -33.1843477032935 0.103349262286736 55.3816457137528 
! Gamma         0                0                0                0                
! Port Impedance         50               0                50               0                
79.5                           0.103445530505603 55.3991063828003 0.991843120549447 -33.2258913623075 0.991843120549449 -33.2258913623075 0.103448088992152 55.3409186661882 
! Gamma         0                0                0                0                
! Port Impedance         50               0                50               0                
79.6                           0.103544241899917 55.3584638980264 0.991830960513905 -33.2674347863099 0.991830960513907 -33.2674347863099 0.10354680544719 55.3001907309371 
! Gamma         0                0                0                0                
! Port Impedance         50               0                50               0                
79.7                           0.103642842907724 55.317820594489  0.991818801426026 -33.3089779774551 0.991818801426028 -33.3089779774552 0.103645411516004 55.2594619256679 
! Gamma         0                0                0                0                
! Port Impedance         50               0                50               0                
79.8                           0.10374133339334 55.2771764900715 0.991806643320444 -33.3505209379055 0.991806643320446 -33.3505209379055 0.1037439070628  55.2187322681523 
! Gamma         0                0                0                0                
! Port Impedance         50               0                50               0                
79.9                           0.103839713221137 55.2365316027608 0.991794486231775 -33.3920636698309 0.991794486231777 -33.392063669831 0.103842291951837 55.1780017762655 
! Gamma         0                0                0                0                
! Port Impedance         50               0                50               0                
80                             0.103937982255545 55.1958859506473 0.991782330194621 -33.4336061754094 0.991782330194623 -33.4336061754094 0.103940566047433 55.1372704679865 
! Gamma         0                0                0                0                
! Port Impedance         50               0                50               0                
80.1                           0.10403614036105 55.155239551925  0.991770175243561 -33.4751484568264 0.991770175243563 -33.4751484568264 0.104038729213957 55.0965383613977 
! Gamma         0                0                0                0                
! Port Impedance         50               0                50               0                
80.2                           0.1041341874022  55.1145924248917 0.991758021413162 -33.5166905162754 0.991758021413163 -33.5166905162754 0.104136781315843 55.0558054746853 
! Gamma         0                0                0                0                
! Port Impedance         50               0                50               0                
80.3                           0.104232123243603 55.0739445879487 0.991745868737966 -33.5582323559575 0.991745868737968 -33.5582323559575 0.104234722217583 55.0150718261394 
! Gamma         0                0                0                0                
! Port Impedance         50               0                50               0                
80.4                           0.104329947749934 55.0332960596014 0.991733717252501 -33.5997739780817 0.991733717252503 -33.5997739780817 0.104332551783731 54.9743374341539 
! Gamma         0                0                0                0                
! Port Impedance         50               0                50               0                
80.5                           0.104427660785931 54.9926468584587 0.991721566991275 -33.6413153848649 0.991721566991277 -33.641315384865 0.104430269878908 54.9336023172266 
! Gamma         0                0                0                0                
! Port Impedance         50               0                50               0                
80.6                           0.104525262216401 54.9519970032337 0.991709417988775 -33.6828565785317 0.991709417988777 -33.6828565785317 0.104527876367798 54.8928664939593 
! Gamma         0                0                0                0                
! Port Impedance         50               0                50               0                
80.7                           0.10462275190622 54.9113465127432 0.991697270279468 -33.7243975613145 0.99169727027947 -33.7243975613145 0.104625371115158 54.8521299830579 
! Gamma         0                0                0                0                
! Port Impedance         50               0                50               0                
80.8                           0.104720129720334 54.8706954059082 0.991685123897803 -33.7659383354535 0.991685123897804 -33.7659383354536 0.10472275398581 54.8113928033322 
! Gamma         0                0                0                0                
! Port Impedance         50               0                50               0                
80.9                           0.104817395523765 54.8300437017537 0.991672978878205 -33.807478903197 0.991672978878207 -33.8074789031971 0.10482002484465 54.7706549736964 
! Gamma         0                0                0                0                
! Port Impedance         50               0                50               0                
81                             0.104914549181607 54.7893914194088 0.991660835255082 -33.8490192668008 0.991660835255084 -33.8490192668008 0.10491718355665 54.7299165131686 
! Gamma         0                0                0                0                
! Port Impedance         50               0                50               0                
81.1                           0.105011590559034 54.7487385781065 0.991648693062818 -33.8905594285287 0.99164869306282 -33.8905594285288 0.105014229986854 54.6891774408712 
! Gamma         0                0                0                0                
! Port Impedance         50               0                50               0                
81.2                           0.105108519521294 54.7080851971842 0.991636552335775 -33.9320993906524 0.991636552335777 -33.9320993906524 0.105111164000384 54.6484377760309 
! Gamma         0                0                0                0                
! Port Impedance         50               0                50               0                
81.3                           0.105205335933721 54.6674312960833 0.991624413108294 -33.9736391554513 0.991624413108296 -33.9736391554513 0.105207985462445 54.6076975379785 
! Gamma         0                0                0                0                
! Port Impedance         50               0                50               0                
81.4                           0.105302039661726 54.6267768943496 0.991612275414694 -34.0151787252128 0.991612275414695 -34.0151787252128 0.105304694238317 54.5669567461493 
! Gamma         0                0                0                0                
! Port Impedance         50               0                50               0                
81.5                           0.10539863057081 54.586122011633  0.991600139289269 -34.0567181022321 0.991600139289271 -34.0567181022321 0.10540129019337 54.5262154200828 
! Gamma         0                0                0                0                
! Port Impedance         50               0                50               0                
81.6                           0.105495108526555 54.5454666676875 0.991588004766293 -34.0982572888123 0.991588004766295 -34.0982572888123 0.105497773193053 54.4854735794228 
! Gamma         0                0                0                0                
! Port Impedance         50               0                50               0                
81.7                           0.105591473394633 54.5048108823715 0.991575871880014 -34.1397962872643 0.991575871880016 -34.1397962872644 0.105594143102905 54.4447312439175 
! Gamma         0                0                0                0                
! Port Impedance         50               0                50               0                
81.8                           0.105687725040808 54.4641546756477 0.991563740664657 -34.181335099907 0.991563740664659 -34.1813350999071 0.105690399788552 54.4039884334195 
! Gamma         0                0                0                0                
! Port Impedance         50               0                50               0                
81.9                           0.105783863330932 54.423498067583  0.991551611154423 -34.2228737290672 0.991551611154426 -34.2228737290672 0.105786543115713 54.3632451678857 
! Gamma         0                0                0                0                
! Port Impedance         50               0                50               0                
82                             0.105879888130954 54.3828410783484 0.991539483383489 -34.2644121770793 0.991539483383491 -34.2644121770794 0.105882572950197 54.3225014673773 
! Gamma         0                0                0                0                
! Port Impedance         50               0                50               0                
82.1                           0.105975799306915 54.3421837282194 0.991527357386004 -34.305950446286 0.991527357386006 -34.3059504462861 0.105978489157909 54.28175735206   
! Gamma         0                0                0                0                
! Port Impedance         50               0                50               0                
82.2                           0.106071596724958 54.3015260375757 0.991515233196096 -34.3474885390377 0.991515233196097 -34.3474885390378 0.106074291604848 54.2410128422039 
! Gamma         0                0                0                0                
! Port Impedance         50               0                50               0                
82.3                           0.106167280251322 54.2608680269012 0.991503110847863 -34.3890264576926 0.991503110847865 -34.3890264576927 0.106169980157113 54.2002679581834 
! Gamma         0                0                0                0                
! Port Impedance         50               0                50               0                
82.4                           0.106262849752348 54.220209716784  0.991490990375381 -34.4305642046171 0.991490990375383 -34.4305642046171 0.106265554680904 54.1595227204771 
! Gamma         0                0                0                0                
! Port Impedance         50               0                50               0                
82.5                           0.10635830509448 54.1795511279165 0.991478871812697 -34.4721017821851 0.991478871812699 -34.4721017821852 0.10636101504252 54.1187771496683 
! Gamma         0                0                0                0                
! Port Impedance         50               0                50               0                
82.6                           0.106453646144268 54.1388922810953 0.991466755193833 -34.5136391927789 0.991466755193835 -34.513639192779 0.106456361108366 54.0780312664442 
! Gamma         0                0                0                0                
! Port Impedance         50               0                50               0                
82.7                           0.106548872768369 54.0982331972211 0.991454640552782 -34.5551764387884 0.991454640552784 -34.5551764387884 0.106551592744953 54.0372850915967 
! Gamma         0                0                0                0                
! Port Impedance         50               0                50               0                
82.8                           0.106643984833547 54.0575738972988 0.99144252792351 -34.5967135226114 0.991442527923512 -34.5967135226115 0.106646709818896 53.9965386460218 
! Gamma         0                0                0                0                
! Port Impedance         50               0                50               0                
82.9                           0.106738982206679 54.0169144024376 0.991430417339957 -34.6382504466539 0.991430417339959 -34.638250446654 0.106741712196926 53.9557919507197 
! Gamma         0                0                0                0                
! Port Impedance         50               0                50               0                
83                             0.106833864754754 53.9762547338505 0.991418308836033 -34.6797872133296 0.991418308836035 -34.6797872133297 0.106836599745879 53.9150450267949 
! Gamma         0                0                0                0                
! Port Impedance         50               0                50               0                
83.1                           0.106928632344876 53.9355949128547 0.991406202445619 -34.7213238250603 0.991406202445621 -34.7213238250603 0.106931372332708 53.8742978954562 
! Gamma         0                0                0                0                
! Port Impedance         50               0                50               0                
83.2                           0.107023284844263 53.8949349608716 0.99139409820257 -34.7628602842755 0.991394098202572 -34.7628602842756 0.10702602982448 53.8335505780164 
! Gamma         0                0                0                0                
! Port Impedance         50               0                50               0                
83.3                           0.107117822120256 53.8542748994261 0.991381996140709 -34.804396593413 0.991381996140711 -34.8043965934131 0.107120572088381 53.7928030958924 
! Gamma         0                0                0                0                
! Port Impedance         50               0                50               0                
83.4                           0.107212244040312 53.8136147501476 0.99136989629383 -34.8459327549183 0.991369896293832 -34.8459327549184 0.107214998991715 53.7520554706054 
! Gamma         0                0                0                0                
! Port Impedance         50               0                50               0                
83.5                           0.107306550472014 53.7729545347689 0.991357798695697 -34.887468771245 0.991357798695699 -34.8874687712451 0.107309310401905 53.7113077237803 
! Gamma         0                0                0                0                
! Port Impedance         50               0                50               0                
83.6                           0.107400741283067 53.7322942751271 0.991345703380045 -34.9290046448545 0.991345703380047 -34.9290046448546 0.107403506186501 53.6705598771463 
! Gamma         0                0                0                0                
! Port Impedance         50               0                50               0                
83.7                           0.107494816341303 53.6916339931627 0.991333610380577 -34.9705403782163 0.99133361038058 -34.9705403782164 0.107497586213175 53.6298119525364 
! Gamma         0                0                0                0                
! Port Impedance         50               0                50               0                
83.8                           0.107588775514681 53.65097371092   0.991321519730966 -35.0120759738078 0.991321519730968 -35.0120759738079 0.107591550349728 53.5890639718874 
! Gamma         0                0                0                0                
! Port Impedance         50               0                50               0                
83.9                           0.107682618671293 53.6103134505472 0.991309431464852 -35.0536114341145 0.991309431464854 -35.0536114341146 0.107685398464087 53.5483159572401 
! Gamma         0                0                0                0                
! Port Impedance         50               0                50               0                
84                             0.107776345679359 53.5696532342957 0.991297345615845 -35.0951467616297 0.991297345615847 -35.0951467616298 0.107779130424313 53.5075679307388 
! Gamma         0                0                0                0                
! Port Impedance         50               0                50               0                
84.1                           0.107869956407237 53.5289930845209 0.991285262217521 -35.1366819588549 0.991285262217523 -35.1366819588549 0.107872746098597 53.4668199146317 
! Gamma         0                0                0                0                
! Port Impedance         50               0                50               0                
84.2                           0.107963450723419 53.4883330236812 0.991273181303427 -35.1782170282993 0.991273181303429 -35.1782170282993 0.107966245355267 53.4260719312705 
! Gamma         0                0                0                0                
! Port Impedance         50               0                50               0                
84.3                           0.108056828496534 53.4476730743387 0.991261102907073 -35.2197519724802 0.991261102907075 -35.2197519724803 0.108059628062786 53.3853240031105 
! Gamma         0                0                0                0                
! Port Impedance         50               0                50               0                
84.4                           0.108150089595351 53.4070132591586 0.991249027061939 -35.2612867939232 0.991249027061941 -35.2612867939232 0.108152894089756 53.3445761527105 
! Gamma         0                0                0                0                
! Port Impedance         50               0                50               0                
84.5                           0.108243233888784 53.3663536009095 0.99123695380147 -35.3028214951614 0.991236953801472 -35.3028214951615 0.108246043304919 53.3038284027326 
! Gamma         0                0                0                0                
! Port Impedance         50               0                50               0                
84.6                           0.108336261245886 53.3256941224631 0.991224883159077 -35.3443560787362 0.99122488315908 -35.3443560787363 0.108339075577161 53.2630807759423 
! Gamma         0                0                0                0                
! Port Impedance         50               0                50               0                
84.7                           0.108429171535859 53.285034846794  0.991212815168139 -35.3858905471971 0.991212815168141 -35.3858905471971 0.108431990775511 53.2223332952084 
! Gamma         0                0                0                0                
! Port Impedance         50               0                50               0                
84.8                           0.108521964628051 53.24437579698   0.991200749861998 -35.4274249031012 0.991200749862   -35.4274249031013 0.108524788769145 53.1815859835026 
! Gamma         0                0                0                0                
! Port Impedance         50               0                50               0                
84.9                           0.108614640391961 53.2037169962017 0.991188687273961 -35.468959149014 0.991188687273963 -35.4689591490141 0.108617469427386 53.1408388638999 
! Gamma         0                0                0                0                
! Port Impedance         50               0                50               0                
85                             0.108707198697238 53.1630584677423 0.991176627437302 -35.5104932875089 0.991176627437304 -35.510493287509 0.10871003261971 53.100091959578  
! Gamma         0                0                0                0                
! Port Impedance         50               0                50               0                
85.1                           0.108799639413685 53.122400234988  0.991164570385258 -35.5520273211673 0.99116457038526 -35.5520273211673 0.108802478215742 53.0593452938178 
! Gamma         0                0                0                0                
! Port Impedance         50               0                50               0                
85.2                           0.108891962411262 53.0817423214274 0.991152516151029 -35.5935612525785 0.991152516151031 -35.5935612525786 0.108894806085264 53.0185988900028 
! Gamma         0                0                0                0                
! Port Impedance         50               0                50               0                
85.3                           0.108984167560083 53.0410847506515 0.991140464767781 -35.63509508434  0.991140464767783 -35.6350950843401 0.108987016098212 52.977852771619  
! Gamma         0                0                0                0                
! Port Impedance         50               0                50               0                
85.4                           0.109076254730426 53.0004275463538 0.991128416268642 -35.6766288190574 0.991128416268644 -35.6766288190575 0.109079108124682 52.9371069622552 
! Gamma         0                0                0                0                
! Port Impedance         50               0                50               0                
85.5                           0.109168223792726 52.9597707323301 0.991116370686703 -35.7181624593441 0.991116370686705 -35.7181624593442 0.109171082034929 52.8963614856026 
! Gamma         0                0                0                0                
! Port Impedance         50               0                50               0                
85.6                           0.109260074617583 52.9191143324782 0.991104328055018 -35.7596960078216 0.99110432805502 -35.7596960078217 0.109262937699369 52.8556163654546 
! Gamma         0                0                0                0                
! Port Impedance         50               0                50               0                
85.7                           0.109351807075764 52.878458370798  0.991092288406602 -35.8012294671195 0.991092288406604 -35.8012294671196 0.109354674988585 52.814871625707  
! Gamma         0                0                0                0                
! Port Impedance         50               0                50               0                
85.8                           0.109443421038201 52.8378028713914 0.991080251774435 -35.8427628398755 0.991080251774437 -35.8427628398756 0.109446293773323 52.7741272903576 
! Gamma         0                0                0                0                
! Port Impedance         50               0                50               0                
85.9                           0.109534916375996 52.7971478584619 0.991068218191456 -35.8842961287352 0.991068218191457 -35.8842961287353 0.109537793924498 52.7333833835064 
! Gamma         0                0                0                0                
! Port Impedance         50               0                50               0                
86                             0.109626292960422 52.7564933563149 0.991056187690565 -35.9258293363523 0.991056187690567 -35.9258293363524 0.109629175313196 52.6926399293548 
! Gamma         0                0                0                0                
! Port Impedance         50               0                50               0                
86.1                           0.109717550662926 52.7158393893571 0.991044160304624 -35.9673624653886 0.991044160304626 -35.9673624653887 0.109720437810674 52.6518969522065 
! Gamma         0                0                0                0                
! Port Impedance         50               0                50               0                
86.2                           0.109808689355129 52.6751859820969 0.991032136066457 -36.0088955185139 0.991032136066459 -36.008895518514 0.109811581288362 52.6111544764664 
! Gamma         0                0                0                0                
! Port Impedance         50               0                50               0                
86.3                           0.10989970890883 52.6345331591436 0.991020115008845 -36.050428498406 0.991020115008847 -36.0504284984061 0.109902605617867 52.5704125266411 
! Gamma         0                0                0                0                
! Port Impedance         50               0                50               0                
86.4                           0.109990609196006 52.593880945208  0.991008097164531 -36.0919614077509 0.991008097164533 -36.091961407751 0.109993510670975 52.5296711273386 
! Gamma         0                0                0                0                
! Port Impedance         50               0                50               0                
86.5                           0.110081390088817 52.5532293651017 0.990996082566216 -36.1334942492426 0.990996082566218 -36.1334942492427 0.110084296319648 52.4889303032678 
! Gamma         0                0                0                0                
! Port Impedance         50               0                50               0                
86.6                           0.110172051459603 52.5125784437372 0.990984071246563 -36.1750270255831 0.990984071246565 -36.1750270255832 0.110174962436033 52.448190079239  
! Gamma         0                0                0                0                
! Port Impedance         50               0                50               0                
86.7                           0.110262593180893 52.4719282061277 0.99097206323819 -36.2165597394825 0.990972063238192 -36.2165597394826 0.110265508892461 52.4074504801634 
! Gamma         0                0                0                0                
! Port Impedance         50               0                50               0                
86.8                           0.110353015125399 52.431278677387  0.990960058573676 -36.2580923936591 0.990960058573678 -36.2580923936591 0.110355935561446 52.3667115310528 
! Gamma         0                0                0                0                
! Port Impedance         50               0                50               0                
86.9                           0.110443317166026 52.3906298827294 0.990948057285558 -36.299624990839 0.99094805728556 -36.2996249908391 0.110446242315692 52.3259732570197 
! Gamma         0                0                0                0                
! Port Impedance         50               0                50               0                
87                             0.110533499175865 52.3499818474694 0.990936059406329 -36.3411575337566 0.990936059406332 -36.3411575337567 0.110536429028092 52.2852356832773 
! Gamma         0                0                0                0                
! Port Impedance         50               0                50               0                
87.1                           0.110623561028205 52.3093345970215 0.990924064968442 -36.3826900251543 0.990924064968444 -36.3826900251544 0.11062649557173 52.2444988351389 
! Gamma         0                0                0                0                
! Port Impedance         50               0                50               0                
87.2                           0.110713502596527 52.2686881569003 0.990912074004305 -36.4242224677827 0.990912074004307 -36.4242224677828 0.110716441819885 52.203762738018  
! Gamma         0                0                0                0                
! Port Impedance         50               0                50               0                
87.3                           0.110803323754509 52.2280425527202 0.990900086546283 -36.4657548644002 0.990900086546285 -36.4657548644003 0.11080626764603 52.1630274174283 
! Gamma         0                0                0                0                
! Port Impedance         50               0                50               0                
87.4                           0.110893024376028 52.1873978101951 0.990888102626699 -36.5072872177735 0.9908881026267  -36.5072872177736 0.110895972923837 52.1222928989833 
! Gamma         0                0                0                0                
! Port Impedance         50               0                50               0                
87.5                           0.110982604335163 52.1467539551385 0.990876122277829 -36.5488195306773 0.990876122277831 -36.5488195306774 0.110985557527176 52.0815592083961 
! Gamma         0                0                0                0                
! Port Impedance         50               0                50               0                
87.6                           0.111072063506195 52.1061110134633 0.990864145531907 -36.5903518058946 0.990864145531909 -36.5903518058947 0.11107502133012 52.0408263714794 
! Gamma         0                0                0                0                
! Port Impedance         50               0                50               0                
87.7                           0.111161401763609 52.0654690111812 0.990852172421124 -36.6318840462161 0.990852172421126 -36.6318840462162 0.111164364206946 52.0000944141453 
! Gamma         0                0                0                0                
! Port Impedance         50               0                50               0                
87.8                           0.111250618982098 52.0248279744032 0.990840202977621 -36.6734162544409 0.990840202977623 -36.673416254441 0.111253586032134 51.959363362405  
! Gamma         0                0                0                0                
! Port Impedance         50               0                50               0                
87.9                           0.111339715036563 51.9841879293388 0.990828237233497 -36.7149484333761 0.990828237233499 -36.7149484333762 0.111342686680373 51.9186332423689 
! Gamma         0                0                0                0                
! Port Impedance         50               0                50               0                
88                             0.111428689802117 51.9435489022962 0.990816275220806 -36.7564805858369 0.990816275220808 -36.756480585837 0.111431666026563 51.877904080246  
! Gamma         0                0                0                0                
! Port Impedance         50               0                50               0                
88.1                           0.111517543154083 51.9029109196823 0.990804316971554 -36.7980127146465 0.990804316971556 -36.7980127146466 0.111520523945812 51.8371759023443 
! Gamma         0                0                0                0                
! Port Impedance         50               0                50               0                
88.2                           0.111606274968001 51.8622740080017 0.990792362517701 -36.8395448226365 0.990792362517703 -36.8395448226366 0.111609260313443 51.7964487350699 
! Gamma         0                0                0                0                
! Port Impedance         50               0                50               0                
88.3                           0.111694885119627 51.8216381938576 0.990780411891162 -36.8810769126462 0.990780411891163 -36.8810769126463 0.111697875004996 51.7557226049275 
! Gamma         0                0                0                0                
! Port Impedance         50               0                50               0                
88.4                           0.111783373484936 51.7810035039507 0.990768465123801 -36.9226089875233 0.990768465123802 -36.9226089875234 0.111786367896227 51.7149975385199 
! Gamma         0                0                0                0                
! Port Impedance         50               0                50               0                
88.5                           0.111871739940122 51.7403699650794 0.990756522247438 -36.9641410501234 0.99075652224744 -36.9641410501235 0.11187473886311 51.6742735625476 
! Gamma         0                0                0                0                
! Port Impedance         50               0                50               0                
88.6                           0.111959984361604 51.6997376041398 0.990744583293845 -37.0056731033105 0.990744583293847 -37.0056731033106 0.111962987781842 51.6335507038091 
! Gamma         0                0                0                0                
! Port Impedance         50               0                50               0                
88.7                           0.112048106626024 51.6591064481251 0.990732648294745 -37.0472051499564 0.990732648294747 -37.0472051499565 0.112051114528843 51.5928289892002 
! Gamma         0                0                0                0                
! Port Impedance         50               0                50               0                
88.8                           0.11213610661025 51.6184765241257 0.990720717281812 -37.0887371929411 0.990720717281814 -37.0887371929412 0.112139118980758 51.5521084457144 
! Gamma         0                0                0                0                
! Port Impedance         50               0                50               0                
88.9                           0.11222398419138 51.5778478593287 0.990708790286673 -37.1302692351529 0.990708790286675 -37.130269235153 0.112227001014459 51.5113891004418 
! Gamma         0                0                0                0                
! Port Impedance         50               0                50               0                
89                             0.112311739246741 51.5372204810181 0.990696867340904 -37.1718012794879 0.990696867340906 -37.171801279488 0.112314760507047 51.4706709805701 
! Gamma         0                0                0                0                
! Port Impedance         50               0                50               0                
89.1                           0.112399371653894 51.4965944165743 0.990684948476032 -37.2133333288505 0.990684948476034 -37.2133333288506 0.112402397335856 51.4299541133833 
! Gamma         0                0                0                0                
! Port Impedance         50               0                50               0                
89.2                           0.112486881290632 51.4559696934739 0.990673033723535 -37.2548653861533 0.990673033723536 -37.2548653861534 0.112489911378451 51.389238526262  
! Gamma         0                0                0                0                
! Port Impedance         50               0                50               0                
89.3                           0.112574268034988 51.4153463392897 0.990661123114839 -37.2963974543169 0.990661123114841 -37.296397454317 0.112577302512633 51.3485242466833 
! Gamma         0                0                0                0                
! Port Impedance         50               0                50               0                
89.4                           0.11266153176523 51.3747243816901 0.990649216681323 -37.3379295362699 0.990649216681324 -37.33792953627  0.112664570616439 51.3078113022203 
! Gamma         0                0                0                0                
! Port Impedance         50               0                50               0                
89.5                           0.112748672359867 51.3341038484394 0.990637314454311 -37.3794616349493 0.990637314454312 -37.3794616349494 0.112751715568147 51.267099720542  
! Gamma         0                0                0                0                
! Port Impedance         50               0                50               0                
89.6                           0.112835689697651 51.2934847673973 0.990625416465077 -37.4209937533001 0.990625416465079 -37.4209937533002 0.112838737246275 51.226389529413  
! Gamma         0                0                0                0                
! Port Impedance         50               0                50               0                
89.7                           0.112922583657578 51.2528671665184 0.990613522744847 -37.4625258942752 0.990613522744848 -37.4625258942754 0.112925635529584 51.1856807566937 
! Gamma         0                0                0                0                
! Port Impedance         50               0                50               0                
89.8                           0.113009354118891 51.2122510738527 0.990601633324789 -37.5040580608361 0.990601633324791 -37.5040580608362 0.113012410297079 51.1449734303394 
! Gamma         0                0                0                0                
! Port Impedance         50               0                50               0                
89.9                           0.11309600096108 51.1716365175446 0.990589748236024 -37.545590255952 0.990589748236026 -37.5455902559521 0.113099061428013 51.1042675784007 
! Gamma         0                0                0                0                
! Port Impedance         50               0                50               0                
90                             0.113182524063884 51.1310235258332 0.990577867509618 -37.5871224826004 0.99057786750962 -37.5871224826005 0.113185588801888 51.0635632290228 
! Gamma         0                0                0                0                
! Port Impedance         50               0                50               0                
90.1                           0.113268923307296 51.0904121270518 0.990565991176584 -37.628654743767 0.990565991176586 -37.6286547437671 0.113271992298457 51.0228604104455 
! Gamma         0                0                0                0                
! Port Impedance         50               0                50               0                
90.2                           0.113355198571564 51.0498023496279 0.990554119267883 -37.6701870424455 0.990554119267885 -37.6701870424456 0.113358271797723 50.9821591510033 
! Gamma         0                0                0                0                
! Port Impedance         50               0                50               0                
90.3                           0.113441349737188 51.0091942220826 0.990542251814421 -37.7117193816377 0.990542251814422 -37.7117193816378 0.113444427179948 50.9414594791243 
! Gamma         0                0                0                0                
! Port Impedance         50               0                50               0                
90.4                           0.11352737668493 50.968587773031  0.99053038884705 -37.7532517643537 0.990530388847052 -37.7532517643538 0.113530458325648 50.9007614233308 
! Gamma         0                0                0                0                
! Port Impedance         50               0                50               0                
90.5                           0.11361327929581 50.927983031181  0.99051853039657 -37.7947841936117 0.990518530396571 -37.7947841936118 0.113616365115598 50.8600650122388 
! Gamma         0                0                0                0                
! Port Impedance         50               0                50               0                
90.6                           0.113699057451109 50.8873800253341 0.990506676493724 -37.8363166724379 0.990506676493725 -37.836316672438 0.113702147430834 50.8193702745575 
! Gamma         0                0                0                0                
! Port Impedance         50               0                50               0                
90.7                           0.113784711032373 50.8467787843845 0.9904948271692  -37.8778492038667 0.990494827169202 -37.8778492038668 0.113787805152654 50.7786772390895 
! Gamma         0                0                0                0                
! Port Impedance         50               0                50               0                
90.8                           0.113870239921415 50.806179337319  0.990482982453633 -37.9193817909408 0.990482982453635 -37.9193817909409 0.113873338162621 50.7379859347301 
! Gamma         0                0                0                0                
! Port Impedance         50               0                50               0                
90.9                           0.113955644000312 50.7655817132169 0.9904711423776  -37.9609144367107 0.990471142377602 -37.9609144367108 0.113958746342564 50.6972963904674 
! Gamma         0                0                0                0                
! Port Impedance         50               0                50               0                
91                             0.114040923151415 50.7249859412494 0.990459306971623 -38.0024471442353 0.990459306971625 -38.0024471442354 0.114044029574582 50.6566086353821 
! Gamma         0                0                0                0                
! Port Impedance         50               0                50               0                
91.1                           0.114126077257342 50.6843920506798 0.990447476266168 -38.0439799165816 0.99044747626617 -38.0439799165817 0.114129187741041 50.6159226986469 
! Gamma         0                0                0                0                
! Port Impedance         50               0                50               0                
91.2                           0.114211106200989 50.643800070863  0.990435650291644 -38.0855127568248 0.990435650291645 -38.0855127568249 0.114214220724582 50.5752386095265 
! Gamma         0                0                0                0                
! Port Impedance         50               0                50               0                
91.3                           0.114296009865523 50.6032100312453 0.990423829078402 -38.127045668048 0.990423829078403 -38.1270456680481 0.11429912840812 50.5345563973773 
! Gamma         0                0                0                0                
! Port Impedance         50               0                50               0                
91.4                           0.114380788134392 50.5626219613641 0.990412012656737 -38.1685786533426 0.990412012656738 -38.1685786533427 0.114383910674846 50.493876091647  
! Gamma         0                0                0                0                
! Port Impedance         50               0                50               0                
91.5                           0.114465440891321 50.5220358908476 0.990400201056886 -38.2101117158082 0.990400201056887 -38.2101117158084 0.114468567408226 50.4531977218748 
! Gamma         0                0                0                0                
! Port Impedance         50               0                50               0                
91.6                           0.114549968020318 50.4814518494147 0.990388394309027 -38.2516448585526 0.990388394309029 -38.2516448585526 0.114553098492011 50.4125213176905 
! Gamma         0                0                0                0                
! Port Impedance         50               0                50               0                
91.7                           0.114634369405673 50.4408698668746 0.990376592443283 -38.2931780846913 0.990376592443284 -38.2931780846914 0.114637503810231 50.3718469088148 
! Gamma         0                0                0                0                
! Port Impedance         50               0                50               0                
91.8                           0.11471864493196 50.4002899731266 0.990364795489713 -38.3347113973486 0.990364795489715 -38.3347113973487 0.1147217832472  50.3311745250586 
! Gamma         0                0                0                0                
! Port Impedance         50               0                50               0                
91.9                           0.114802794484042 50.3597121981597 0.990353003478322 -38.3762447996564 0.990353003478323 -38.3762447996565 0.114805936687518 50.2905041963231 
! Gamma         0                0                0                0                
! Port Impedance         50               0                50               0                
92                             0.114886817947071 50.3191365720526 0.990341216439052 -38.417778294755 0.990341216439053 -38.4177782947551 0.114889964016074 50.2498359525993 
! Gamma         0                0                0                0                
! Port Impedance         50               0                50               0                
92.1                           0.114970715206488 50.2785631249733 0.990329434401787 -38.4593118857928 0.990329434401788 -38.4593118857929 0.114973865118044 50.2091698239677 
! Gamma         0                0                0                0                
! Port Impedance         50               0                50               0                
92.2                           0.115054486148027 50.2379918871785 0.99031765739635 -38.5008455759264 0.990317657396352 -38.5008455759265 0.115057639878897 50.1685058405982 
! Gamma         0                0                0                0                
! Port Impedance         50               0                50               0                
92.3                           0.115138130657719 50.197422889014  0.990305885452506 -38.5423793683204 0.990305885452508 -38.5423793683205 0.115141288184397 50.1278440327499 
! Gamma         0                0                0                0                
! Port Impedance         50               0                50               0                
92.4                           0.115221648621888 50.1568561609139 0.990294118599957 -38.5839132661477 0.990294118599958 -38.5839132661478 0.115224809920601 50.0871844307705 
! Gamma         0                0                0                0                
! Port Impedance         50               0                50               0                
92.5                           0.11530503992716 50.1162917334002 0.990282356868344 -38.6254472725893 0.990282356868345 -38.6254472725894 0.115308204973863 50.0465270650962 
! Gamma         0                0                0                0                
! Port Impedance         50               0                50               0                
92.6                           0.115388304460459 50.0757296370833 0.990270600287247 -38.6669813908343 0.990270600287248 -38.6669813908344 0.11539147323084 50.0058719662514 
! Gamma         0                0                0                0                
! Port Impedance         50               0                50               0                
92.7                           0.115471442109012 50.0351699026609 0.990258848886185 -38.7085156240799 0.990258848886186 -38.70851562408  0.115474614578484 49.9652191648487 
! Gamma         0                0                0                0                
! Port Impedance         50               0                50               0                
92.8                           0.11555445276035 49.9946125609179 0.990247102694614 -38.7500499755316 0.990247102694615 -38.7500499755317 0.115557628904056 49.924568691588  
! Gamma         0                0                0                0                
! Port Impedance         50               0                50               0                
92.9                           0.11563733630231 49.9540576427265 0.990235361741927 -38.791584448403 0.990235361741929 -38.7915844484031 0.115640516095118 49.8839205772568 
! Gamma         0                0                0                0                
! Port Impedance         50               0                50               0                
93                             0.115720092623038 49.9135051790456 0.990223626057457 -38.8331190459157 0.990223626057459 -38.8331190459158 0.11572327603954 49.8432748527297 
! Gamma         0                0                0                0                
! Port Impedance         50               0                50               0                
93.1                           0.115802721610988 49.8729552009204 0.990211895670471 -38.8746537712996 0.990211895670473 -38.8746537712997 0.115805908625501 49.8026315489679 
! Gamma         0                0                0                0                
! Port Impedance         50               0                50               0                
93.2                           0.115885223154927 49.8324077394823 0.990200170610174 -38.9161886277928 0.990200170610175 -38.9161886277929 0.115888413741491 49.7619906970194 
! Gamma         0                0                0                0                
! Port Impedance         50               0                50               0                
93.3                           0.115967597143936 49.7918628259488 0.990188450905707 -38.9577236186414 0.990188450905708 -38.9577236186415 0.11597079127631 49.7213523280181 
! Gamma         0                0                0                0                
! Port Impedance         50               0                50               0                
93.4                           0.11604984346741 49.7513204916227 0.990176736586145 -38.9992587470997 0.990176736586147 -38.9992587470998 0.116053041119074 49.6807164731841 
! Gamma         0                0                0                0                
! Port Impedance         50               0                50               0                
93.5                           0.116131962015062 49.7107807678922 0.990165027680503 -39.0407940164301 0.990165027680504 -39.0407940164302 0.116135163159217 49.640083163823  
! Gamma         0                0                0                0                
! Port Impedance         50               0                50               0                
93.6                           0.116213952676925 49.6702436862305 0.990153324217728 -39.0823294299033 0.990153324217729 -39.0823294299033 0.116217157286488 49.5994524313257 
! Gamma         0                0                0                0                
! Port Impedance         50               0                50               0                
93.7                           0.116295815343352 49.6297092781954 0.990141626226702 -39.1238649907979 0.990141626226703 -39.1238649907979 0.116299023390957 49.5588243071681 
! Gamma         0                0                0                0                
! Port Impedance         50               0                50               0                
93.8                           0.11637754990502 49.5891775754291 0.990129933736242 -39.1654007024008 0.990129933736243 -39.1654007024009 0.116380761363016 49.518198822911  
! Gamma         0                0                0                0                
! Port Impedance         50               0                50               0                
93.9                           0.11645915625293 49.5486486096579 0.990118246775099 -39.2069365680072 0.990118246775101 -39.2069365680073 0.116462371093381 49.4775760101996 
! Gamma         0                0                0                0                
! Port Impedance         50               0                50               0                
94                             0.116540634278409 49.5081224126919 0.99010656537196 -39.2484725909201 0.990106565371961 -39.2484725909202 0.116543852473094 49.436955900763  
! Gamma         0                0                0                0                
! Port Impedance         50               0                50               0                
94.1                           0.116621983873115 49.4675990164245 0.990094889555442 -39.2900087744509 0.990094889555444 -39.290008774451 0.116625205393523 49.3963385264144 
! Gamma         0                0                0                0                
! Port Impedance         50               0                50               0                
94.2                           0.116703204929035 49.4270784528325 0.990083219354098 -39.3315451219191 0.9900832193541  -39.3315451219191 0.116706429746365 49.3557239190502 
! Gamma         0                0                0                0                
! Port Impedance         50               0                50               0                
94.3                           0.116784297338486 49.3865607539752 0.990071554796414 -39.3730816366522 0.990071554796415 -39.3730816366523 0.116787525423651 49.3151121106504 
! Gamma         0                0                0                0                
! Port Impedance         50               0                50               0                
94.4                           0.116865260994124 49.3460459519948 0.990059895910805 -39.414618321986 0.990059895910806 -39.4146183219861 0.116868492317741 49.2745031332776 
! Gamma         0                0                0                0                
! Port Impedance         50               0                50               0                
94.5                           0.116946095788936 49.3055340791155 0.990048242725622 -39.4561551812644 0.990048242725623 -39.4561551812645 0.116949330321333 49.2338970190769 
! Gamma         0                0                0                0                
! Port Impedance         50               0                50               0                
94.6                           0.11702680161625 49.2650251676433 0.990036595269147 -39.4976922178395 0.990036595269148 -39.4976922178396 0.117030039327459 49.1932938002761 
! Gamma         0                0                0                0                
! Port Impedance         50               0                50               0                
94.7                           0.117107378369732 49.2245192499659 0.990024953569593 -39.5392294350714 0.990024953569594 -39.5392294350715 0.117110619229493 49.1526935091843 
! Gamma         0                0                0                0                
! Port Impedance         50               0                50               0                
94.8                           0.11718782594339 49.1840163585523 0.990013317655104 -39.5807668363285 0.990013317655106 -39.5807668363286 0.117191069921145 49.1120961781928 
! Gamma         0                0                0                0                
! Port Impedance         50               0                50               0                
94.9                           0.117268144231575 49.1435165259523 0.990001687553757 -39.6223044249872 0.990001687553757 -39.6223044249873 0.11727139129647 49.0715018397739 
! Gamma         0                0                0                0                
! Port Impedance         50               0                50               0                
95                             0.117348333128983 49.1030197847965 0.989990063293555 -39.6638422044321 0.989990063293556 -39.6638422044322 0.117351583249867 49.030910526481  
! Gamma         0                0                0                0                
! Port Impedance         50               0                50               0                
95.1                           0.117428392530658 49.0625261677955 0.989978444902436 -39.7053801780559 0.989978444902437 -39.705380178056 0.11743164567608 48.990322270948  
! Gamma         0                0                0                0                
! Port Impedance         50               0                50               0                
95.2                           0.117508322331991 49.0220357077402 0.989966832408267 -39.7469183492597 0.989966832408268 -39.7469183492597 0.117511578470199 48.9497371058895 
! Gamma         0                0                0                0                
! Port Impedance         50               0                50               0                
95.3                           0.117588122428724 48.9815484375008 0.989955225838841 -39.7884567214522 0.989955225838842 -39.7884567214523 0.117591381527667 48.9091550640996 
! Gamma         0                0                0                0                
! Port Impedance         50               0                50               0                
95.4                           0.117667792716952 48.941064390027  0.989943625221885 -39.8299952980508 0.989943625221886 -39.8299952980509 0.117671054744275 48.8685761784526 
! Gamma         0                0                0                0                
! Port Impedance         50               0                50               0                
95.5                           0.117747333093124 48.9005835983474 0.989932030585051 -39.8715340824807 0.989932030585052 -39.8715340824807 0.117750598016168 48.8280004819017 
! Gamma         0                0                0                0                
! Port Impedance         50               0                50               0                
95.6                           0.117826743454044 48.8601060955694 0.989920441955923 -39.9130730781753 0.989920441955924 -39.9130730781754 0.117830011239847 48.7874280074794 
! Gamma         0                0                0                0                
! Port Impedance         50               0                50               0                
95.7                           0.117906023696874 48.8196319148784 0.98990885936201 -39.9546122885762 0.989908859362011 -39.9546122885763 0.117909294312168 48.7468587882969 
! Gamma         0                0                0                0                
! Port Impedance         50               0                50               0                
95.8                           0.117985173719137 48.779161089538  0.989897282830751 -39.9961517171331 0.989897282830752 -39.9961517171332 0.117988447130347 48.7062928575435 
! Gamma         0                0                0                0                
! Port Impedance         50               0                50               0                
95.9                           0.118064193418714 48.7386936528893 0.989885712389513 -40.0376913673039 0.989885712389514 -40.0376913673039 0.118067469591958 48.6657302484869 
! Gamma         0                0                0                0                
! Port Impedance         50               0                50               0                
96                             0.118143082693852 48.6982296383509 0.989874148065587 -40.0792312425544 0.989874148065588 -40.0792312425544 0.118146361594938 48.6251709944721 
! Gamma         0                0                0                0                
! Port Impedance         50               0                50               0                
96.1                           0.118221841443162 48.6577690794181 0.989862589886195 -40.1207713463587 0.989862589886196 -40.1207713463588 0.118225123037589 48.5846151289217 
! Gamma         0                0                0                0                
! Port Impedance         50               0                50               0                
96.2                           0.11830046956562 48.6173120096629 0.989851037878483 -40.1623116821992 0.989851037878484 -40.1623116821993 0.118303753818576 48.5440626853352 
! Gamma         0                0                0                0                
! Port Impedance         50               0                50               0                
96.3                           0.118378966960573 48.5768584627336 0.989839492069524 -40.2038522535661 0.989839492069525 -40.2038522535662 0.118382253836934 48.5035136972888 
! Gamma         0                0                0                0                
! Port Impedance         50               0                50               0                
96.4                           0.118457333527736 48.5364084723545 0.989827952486317 -40.2453930639579 0.989827952486318 -40.245393063958 0.118460622992066 48.4629681984351 
! Gamma         0                0                0                0                
! Port Impedance         50               0                50               0                
96.5                           0.118535569167197 48.4959620723253 0.989816419155786 -40.2869341168813 0.989816419155787 -40.2869341168813 0.118538861183743 48.4224262225024 
! Gamma         0                0                0                0                
! Port Impedance         50               0                50               0                
96.6                           0.118613673779416 48.4555192965211 0.989804892104781 -40.3284754158508 0.989804892104782 -40.3284754158509 0.118616968312114 48.381887803295  
! Gamma         0                0                0                0                
! Port Impedance         50               0                50               0                
96.7                           0.118691647265231 48.4150801788917 0.989793371360076 -40.3700169643894 0.989793371360077 -40.3700169643895 0.118694944277697 48.3413529746921 
! Gamma         0                0                0                0                
! Port Impedance         50               0                50               0                
96.8                           0.118769489525854 48.3746447534617 0.989781856948371 -40.4115587660281 0.989781856948372 -40.4115587660282 0.11877278898139 48.3008217706482 
! Gamma         0                0                0                0                
! Port Impedance         50               0                50               0                
96.9                           0.118847200462878 48.3342130543295 0.98977034889629 -40.4531008243059 0.98977034889629 -40.453100824306 0.118850502324466 48.2602942251921 
! Gamma         0                0                0                0                
! Port Impedance         50               0                50               0                
97                             0.118924779978276 48.2937851156676 0.989758847230379 -40.4946431427701 0.989758847230379 -40.4946431427701 0.118928084208579 48.2197703724271 
! Gamma         0                0                0                0                
! Port Impedance         50               0                50               0                
97.1                           0.119002227974403 48.253360971722  0.989747351977108 -40.5361857249759 0.989747351977109 -40.536185724976 0.119005534535764 48.17925024653   
! Gamma         0                0                0                0                
! Port Impedance         50               0                50               0                
97.2                           0.119079544353997 48.2129406568117 0.989735863162874 -40.5777285744868 0.989735863162875 -40.5777285744869 0.119082853208438 48.1387338817515 
! Gamma         0                0                0                0                
! Port Impedance         50               0                50               0                
97.3                           0.119156729020184 48.1725242053285 0.989724380813993 -40.6192716948745 0.989724380813993 -40.6192716948745 0.119160040129404 48.0982213124153 
! Gamma         0                0                0                0                
! Port Impedance         50               0                50               0                
97.4                           0.119233781876475 48.1321116517365 0.989712904956703 -40.6608150897184 0.989712904956704 -40.6608150897185 0.119237095201851 48.057712572918  
! Gamma         0                0                0                0                
! Port Impedance         50               0                50               0                
97.5                           0.119310702826771 48.091703030572  0.989701435617169 -40.7023587626065 0.98970143561717 -40.7023587626066 0.119314018329356 48.0172076977284 
! Gamma         0                0                0                0                
! Port Impedance         50               0                50               0                
97.6                           0.119387491775364 48.051298376443  0.989689972821473 -40.7439027171346 0.989689972821474 -40.7439027171347 0.119390809415885 47.9767067213877 
! Gamma         0                0                0                0                
! Port Impedance         50               0                50               0                
97.7                           0.11946414862694 48.0108977240286 0.989678516595621 -40.7854469569068 0.989678516595622 -40.7854469569068 0.119467468365796 47.9362096785088 
! Gamma         0                0                0                0                
! Port Impedance         50               0                50               0                
97.8                           0.119540673286575 47.970501108079  0.989667066965541 -40.826991485535 0.989667066965541 -40.8269914855351 0.119543995083842 47.8957166037757 
! Gamma         0                0                0                0                
! Port Impedance         50               0                50               0                
97.9                           0.119617065659745 47.9301085634151 0.989655623957078 -40.8685363066396 0.989655623957079 -40.8685363066397 0.119620389475167 47.8552275319437 
! Gamma         0                0                0                0                
! Port Impedance         50               0                50               0                
98                             0.119693325652321 47.8897201249278 0.989644187596004 -40.9100814238489 0.989644187596004 -40.9100814238489 0.119696651445315 47.8147424978386 
! Gamma         0                0                0                0                
! Port Impedance         50               0                50               0                
98.1                           0.119769453170575 47.849335827578  0.989632757908005 -40.9516268407993 0.989632757908005 -40.9516268407993 0.119772780900226 47.7742615363566 
! Gamma         0                0                0                0                
! Port Impedance         50               0                50               0                
98.2                           0.119845448121178 47.808955706396  0.989621334918691 -40.9931725611352 0.989621334918691 -40.9931725611353 0.119848777746243 47.7337846824636 
! Gamma         0                0                0                0                
! Port Impedance         50               0                50               0                
98.3                           0.119921310411204 47.7685797964814 0.98960991865359 -41.0347185885094 0.98960991865359 -41.0347185885094 0.119924641890105 47.6933119711952 
! Gamma         0                0                0                0                
! Port Impedance         50               0                50               0                
98.4                           0.119997039948133 47.7282081330023 0.98959850913815 -41.0762649265825 0.98959850913815 -41.0762649265826 0.120000373238961 47.6528434376562 
! Gamma         0                0                0                0                
! Port Impedance         50               0                50               0                
98.5                           0.120072636639847 47.6878407511953 0.989587106397737 -41.1178115790234 0.989587106397737 -41.1178115790234 0.120075971700359 47.61237911702   
! Gamma         0                0                0                0                
! Port Impedance         50               0                50               0                
98.6                           0.12014810039464 47.647477686365  0.989575710457637 -41.1593585495089 0.989575710457637 -41.159358549509 0.120151437182256 47.5719190445288 
! Gamma         0                0                0                0                
! Port Impedance         50               0                50               0                
98.7                           0.120223431121211 47.6071189738837 0.989564321343054 -41.2009058417241 0.989564321343054 -41.2009058417241 0.120226769593018 47.5314632554923 
! Gamma         0                0                0                0                
! Port Impedance         50               0                50               0                
98.8                           0.120298628728672 47.5667646491908 0.989552939079109 -41.242453459362 0.989552939079109 -41.242453459362 0.12030196884142 47.4910117852885 
! Gamma         0                0                0                0                
! Port Impedance         50               0                50               0                
98.9                           0.120373693126548 47.5264147477927 0.989541563690841 -41.2840014061237 0.98954156369084 -41.2840014061238 0.120377034836647 47.4505646693623 
! Gamma         0                0                0                0                
! Port Impedance         50               0                50               0                
99                             0.120448624224775 47.4860693052621 0.989530195203207 -41.3255496857187 0.989530195203207 -41.3255496857187 0.120451967488299 47.4101219432255 
! Gamma         0                0                0                0                
! Port Impedance         50               0                50               0                
99.1                           0.120523421933708 47.4457283572382 0.98951883364108 -41.3670983018641 0.98951883364108 -41.3670983018641 0.120526766706389 47.3696836424568 
! Gamma         0                0                0                0                
! Port Impedance         50               0                50               0                
99.2                           0.120598086164116 47.4053919394255 0.989507479029252 -41.4086472582853 0.989507479029252 -41.4086472582854 0.120601432401349 47.3292498027007 
! Gamma         0                0                0                0                
! Port Impedance         50               0                50               0                
99.3                           0.120672616827188 47.3650600875942 0.989496131392429 -41.450196558716 0.989496131392429 -41.450196558716 0.120675964484024 47.2888204596676 
! Gamma         0                0                0                0                
! Port Impedance         50               0                50               0                
99.4                           0.120747013834535 47.3247328375792 0.989484790755233 -41.4917462068977 0.989484790755233 -41.4917462068977 0.120750362865684 47.2483956491336 
! Gamma         0                0                0                0                
! Port Impedance         50               0                50               0                
99.5                           0.120821277098187 47.2844102252802 0.989473457142203 -41.5332962065799 0.989473457142203 -41.5332962065799 0.120824627458017 47.2079754069393 
! Gamma         0                0                0                0                
! Port Impedance         50               0                50               0                
99.6                           0.1208954065306  47.244092286661  0.989462130577794 -41.5748465615205 0.989462130577793 -41.5748465615205 0.120898758173132 47.1675597689904 
! Gamma         0                0                0                0                
! Port Impedance         50               0                50               0                
99.7                           0.120969402044654 47.2037790577492 0.989450811086372 -41.6163972754851 0.989450811086372 -41.6163972754852 0.120972754923567 47.1271487712566 
! Gamma         0                0                0                0                
! Port Impedance         50               0                50               0                
99.8                           0.121043263553654 47.163470574636  0.989439498692223 -41.6579483522478 0.989439498692223 -41.6579483522478 0.121046617622281 47.0867424497715 
! Gamma         0                0                0                0                
! Port Impedance         50               0                50               0                
99.9                           0.121116990971338 47.1231668734753 0.989428193419545 -41.6994997955903 0.989428193419545 -41.6994997955903 0.121120346182663 47.0463408406324 
! Gamma         0                0                0                0                
! Port Impedance         50               0                50               0                
100                            0.121190584211867 47.0828679904841 0.989416895292449 -41.7410516093027 0.989416895292449 -41.7410516093027 0.121193940518531 47.0059439799994 
! Gamma         -0               -0               -0               -0               
! Port Impedance         50               0                50               0                
