! Touchstone file exported from HFSS 2026.1.0
!        File:           C:/ffzhzh/LocalFiles/Ansys_Project_Files/temp_train_TSV_176_1783507024_44152.aedt
!        Generated:      06:38:19 PM Jul  8, 2026
!        Design:         TSV
!        Project:        temp_train_TSV_176_1783507024_44152
!
! Variables:
!        h_bsmrdl = 2um
!        h_ox = 20um
!        h_rdl = 5um
!        h_sub = 58.22um
!        h_tmrdl = 5um
!        h_tsv = 58.22um
!        h_via = 3um
!        l_bsmrdl = 300um
!        l_sub = 410.22um
!        l_tmrdl = 200um
!        m_sub = 200um
!        pitch = 53.75um
!        r_tsv = 5.11um
!        s_tmrdl = 10um
!        w_bsmrdl = 18um
!        w_sub = 500um
!        w_tmrdl = 12um
!        x_tsv_center1 = 206um
!        x_tsv_center2 = 524um
!        x_tsv_center3 = 736um
!        x_tsv_center4 = 1054um
!        x_tsv_center5 = 1266um
!        x_tsv_center6 = 1584um
!
# GHz S MA R 50.000000
! Terminal data exported
! Port[1] = TSV1_1_T1
! Port[2] = TSV1_1_T2
0.1                            0.000523122310111566 56.4930891055184 0.999711443481034 -0.0422295773241811 0.999711443481034 -0.0422295773241811 0.000523122368860341 56.4930763719857 
! Gamma         0                0                0                0                
! Port Impedance         50               0                50               0                
0.2                            0.000912393765299993 70.712045900379  0.999699451873222 -0.0838355835388732 0.999699451873222 -0.0838355835388707 0.000912393747161414 70.7120138659104 
! Gamma         0                0                0                0                
! Port Impedance         50               0                50               0                
0.3                            0.00131885627637593 76.3492961296568 0.999690426870767 -0.12516805417876 0.999690426870767 -0.125168054178757 0.00131885625204781 76.3492522429688 
! Gamma         0                0                0                0                
! Port Impedance         50               0                50               0                
0.4                            0.0017311006805833 79.3582339371467 0.999683334208843 -0.166452910245902 0.999683334208843 -0.166452910245902 0.00173110073135715 79.3581756177417 
! Gamma         0                0                0                0                
! Port Impedance         50               0                50               0                
0.5                            0.00214635445283702 81.2083688196558 0.999676797516841 -0.207740542421992 0.999676797516841 -0.207740542421995 0.00214635460929239 81.2082943714001 
! Gamma         0                0                0                0                
! Port Impedance         50               0                50               0                
0.6                            0.00256329071375189 82.4439488440911 0.999670105866818 -0.249033588069954 0.999670105866818 -0.249033588069959 0.00256329098428556 82.4438575785489 
! Gamma         0                0                0                0                
! Port Impedance         50               0                50               0                
0.7                            0.00298115753812652 83.3153114233814 0.999662928205864 -0.290325686465105 0.999662928205864 -0.290325686465112 0.0029811579237447 83.3152031088701 
! Gamma         0                0                0                0                
! Port Impedance         50               0                50               0                
0.8                            0.00339949574267193 83.953800151349  0.9996551140555  -0.331609989658026 0.999655114055501 -0.331609989658035 0.00339949624237406 83.9536747393381 
! Gamma         0                0                0                0                
! Port Impedance         50               0                50               0                
0.9                            0.00381800767775126 84.4348735943319 0.999646600611806 -0.372880701101288 0.999646600611806 -0.372880701101299 0.00381800829037353 84.4347311058854 
! Gamma         0                0                0                0                
! Port Impedance         50               0                50               0                
1                              0.00423649026857739 84.804913633845  0.999637370299349 -0.414133139729743 0.999637370299349 -0.414133139729755 0.00423649099339618 84.8047541135492 
! Gamma         0                0                0                0                
! Port Impedance         50               0                50               0                
1.1                            0.0046547990304724 85.0939710984852 0.999627430410975 -0.455363550906802 0.999627430410975 -0.455363550906815 0.00465479986737442 85.093794595821  
! Gamma         0                0                0                0                
! Port Impedance         50               0                50               0                
1.2                            0.00507282782460302 85.322357176071  0.999616802674904 -0.496568921694797 0.999616802674904 -0.49656892169481 0.00507282877410581 85.3221637380829 
! Gamma         0                0                0                0                
! Port Impedance         50               0                50               0                
1.3                            0.00549049695949609 85.5042849778703 0.999605517515581 -0.537746840555309 0.999605517515581 -0.537746840555322 0.00549049802272 85.5040746465533 
! Gamma         0                0                0                0                
! Port Impedance         50               0                50               0                
1.4                            0.00590774589347668 85.6499923136549 0.99959361066112 -0.578895396000298 0.999593610661119 -0.578895396000311 0.00590774707210424 85.6497651253133 
! Gamma         0                0                0                0                
! Port Impedance         50               0                50               0                
1.5                            0.00632452856526481 85.7670356215671 0.999581120992778 -0.620013102674492 0.999581120992778 -0.620013102674505 0.00632452986149937 85.7667916069714 
! Gamma         0                0                0                0                
! Port Impedance         50               0                50               0                
1.6                            0.00674081027467119 85.8611090946251 0.99956808909176 -0.66109884546593 0.99956808909176 -0.661098845465942 0.00674081169119804 85.8608482794616 
! Gamma         0                0                0                0                
! Port Impedance         50               0                50               0                
1.7                            0.00715656550450927 85.9365803903406 0.999554556202813 -0.702151835180134 0.999554556202813 -0.702151835180146 0.00715656704445943 85.9363027957361 
! Gamma         0                0                0                0                
! Port Impedance         50               0                50               0                
1.8                            0.0075717763298195 85.996851065807  0.999540563464125 -0.743171571611191 0.999540563464125 -0.743171571611202 0.00757177799673546 85.9965567088408 
! Gamma         0                0                0                0                
! Port Impedance         50               0                50               0                
1.9                            0.00798643120366855 86.0446052211682 0.999526151319436 -0.784157811416452 0.999526151319436 -0.784157811416462 0.00798643300147109 86.0442941153395 
! Gamma         0                0                0                0                
! Port Impedance         50               0                50               0                
2                              0.00840052399153361 86.081984878842  0.999511359063248 -0.825110539227291 0.999511359063248 -0.825110539227299 0.00840052592448923 86.0816570344851 
! Gamma         0                0                0                0                
! Port Impedance         50               0                50               0                
2.1                            0.00881405317531132 86.1107161753911 0.99949622448893 -0.8660299410809 0.99949622448893 -0.866029941080907 0.00881405524799977 86.1103716000419 
! Gamma         0                0                0                0                
! Port Impedance         50               0                50               0                
2.2                            0.00922702117763652 86.1322018085188 0.999480783619963 -0.906916379665623 0.999480783619963 -0.906916379665628 0.00922702339491834 86.1318405072377 
! Gamma         0                0                0                0                
! Port Impedance         50               0                50               0                
2.3                            0.00963943377540071 86.1475898764922 0.999465070510387 -0.94777037112071 0.999465070510386 -0.947770371120714 0.00963943614238482 86.1472118521504 
! Gamma         0                0                0                0                
! Port Impedance         50               0                50               0                
2.4                            0.0100512995826531 86.1578259053289 0.99944911710395 -0.988592563277253 0.99944911710395 -0.988592563277255 0.0100513021046644 86.1574311588647 
! Gamma         0                0                0                0                
! Port Impedance         50               0                50               0                
2.5                            0.0104626295901035 86.1636927060523 0.999432953143411 -1.02938371530685 0.999432953143411 -1.02938371530685 0.0104626322726512 86.1632812367011 
! Gamma         0                0                0                0                
! Port Impedance         50               0                50               0                
2.6                            0.0108734367528245 86.1658412888037 0.999416606122726 -1.07014467878263 0.999416606122726 -1.07014467878263 0.0108734396015705 86.1654130943066 
! Gamma         0                0                0                0                
! Port Impedance         50               0                50               0                
2.7                            0.0112837356204485 86.1648151126568 0.999400101275703 -1.11087638016933 0.999400101275703 -1.11087638016933 0.011283738641177 86.1643701894507 
! Gamma         0                0                0                0                
! Port Impedance         50               0                50               0                
2.8                            0.0116935420057935 86.1610693043663 0.999383461595339 -1.15157980475563 0.999383461595339 -1.15157980475562 0.0116935452043818 86.1606076477575 
! Gamma         0                0                0                0                
! Port Impedance         50               0                50               0                
2.9                            0.0121028726888198 86.1549860327282 0.999366707878611 -1.19225598203025 0.999366707878612 -1.19225598203024 0.0121028760712104 86.1545076370508 
! Gamma         0                0                0                0                
! Port Impedance         50               0                50               0                
3                              0.0125117451533701 86.1468869119129 0.99934985879197 -1.23290597248762 0.99934985879197 -1.23290597248761 0.0125117487255442 86.1463917706751 
! Gamma         0                0                0                0                
! Port Impedance         50               0                50               0                
3.1                            0.0129201773544421 86.1370430843653 0.999332930953242 -1.27353085583225 0.999332930953242 -1.27353085583224 0.0129201811223954 86.1365311903825 
! Gamma         0                0                0                0                
! Port Impedance         50               0                50               0                
3.2                            0.0133281875138957 86.1256834734984 0.999315939026127 -1.31413172053554 0.999315939026128 -1.31413172053554 0.0133281914836154 86.1251548190153 
! Gamma         0                0                0                0                
! Port Impedance         50               0                50               0                
3.3                            0.0137357939425662 86.1130015796052 0.999298895823897 -1.35470965468513 0.999298895823897 -1.35470965468512 0.0137357981200101 86.1124561564069 
! Gamma         0                0                0                0                
! Port Impedance         50               0                50               0                
3.4                            0.0141430148867916 86.0991611063967 0.999281812419319 -1.39526573805594 0.999281812419319 -1.39526573805593 0.01414301927787 86.0985989059097 
! Gamma         0                0                0                0                
! Port Impedance         50               0                50               0                
3.5                            0.0145498683973879 86.0843006415516 0.999264698258271 -1.43580103532404 0.999264698258271 -1.43580103532403 0.0145498730079463 86.0837216549356 
! Gamma         0                0                0                0                
! Port Impedance         50               0                50               0                
3.6                            0.0149563722191361 86.0685375665325 0.999247561274852 -1.47631659033862 0.999247561274852 -1.47631659033861 0.0149563770549406 86.0679417847626 
! Gamma         0                0                0                0                
! Port Impedance         50               0                50               0                
3.7                            0.0153625436988874 86.0519713343807 0.999230408006181 -1.51681342136463 0.999230408006181 -1.51681342136462 0.0153625487656121 86.0513587483212 
! Gamma         0                0                0                0                
! Port Impedance         50               0                50               0                
3.8                            0.0157683997104538 86.0346862261971 0.99921324370539 -1.55729251720768 0.99921324370539 -1.55729251720767 0.0157684050136699 86.0340568266674 
! Gamma         0                0                0                0                
! Port Impedance         50               0                50               0                
3.9                            0.0161739565945215 86.0167536753613 0.999196072451607 -1.5977548341336 0.999196072451608 -1.59775483413359 0.0161739621396881 86.016107453194  
! Gamma         0                0                0                0                
! Port Impedance         50               0                50               0                
4                              0.0165792301119146 85.9982342316432 0.999178897256002 -1.63820129349775 0.999178897256003 -1.63820129349774 0.0165792359043711 85.997571177735  
! Gamma         0                0                0                0                
! Port Impedance         50               0                50               0                
4.1                            0.0169842354086326 85.9791792240687 0.999161720163168 -1.67863278000265 0.999161720163169 -1.67863278000264 0.0169842414535929 85.9784993294252 
! Gamma         0                0                0                0                
! Port Impedance         50               0                50               0                
4.2                            0.017388986991192 85.959632170856  0.999144542347351 -1.71905014050691 0.999144542347352 -1.7190501405069 0.0173889932937401 85.95893542663   
! Gamma         0                0                0                0                
! Port Impedance         50               0                50               0                
4.3                            0.0177934987109116 85.93962997631   0.999127364203173 -1.75945418331363 0.999127364203174 -1.75945418331362 0.0177935052759985 85.9389163738344 
! Gamma         0                0                0                0                
! Port Impedance         50               0                50               0                
4.4                            0.0181977837558952 85.9192039477745 0.999110185430664 -1.79984567787188 0.999110185430665 -1.79984567787187 0.0181977905883368 85.9184734785899 
! Gamma         0                0                0                0                
! Port Impedance         50               0                50               0                
4.5                            0.0186018546495744 85.8983806602373 0.999093005114519 -1.84022535483023 0.99909300511452 -1.84022535483022 0.0186018617540508 85.8976333161147 
! Gamma         0                0                0                0                
! Port Impedance         50               0                50               0                
4.6                            0.0190057232547874 85.8771826916888 0.999075821797608 -1.8805939063872 0.999075821797609 -1.8805939063872 0.0190057306358428 85.8764184646491 
! Gamma         0                0                0                0                
! Port Impedance         50               0                50               0                
4.7                            0.019409400782473 85.8556292486503 0.999058633548839 -1.92095198688885 0.99905863354884 -1.92095198688884 0.0194094084445168 85.8548481309786 
! Gamma         0                0                0                0                
! Port Impedance         50               0                50               0                
4.8                            0.0198128978041597 85.8337366982337 0.999041438025527 -1.96130021362896 0.999041438025528 -1.96130021362895 0.019812905751468 85.8329386824909 
! Gamma         0                0                0                0                
! Port Impedance         50               0                50               0                
4.9                            0.0202162242675255 85.8115190205736 0.99902423253049 -2.00163916781259 0.999024232530491 -2.00163916781258 0.0202162325042436 85.8107040996051 
! Gamma         0                0                0                0                
! Port Impedance         50               0                50               0                
5                              0.0206193895143899 85.788988193358  0.999007014064099 -2.04196939564801 0.9990070140641  -2.04196939564801 0.0206193980445349 85.7881563602991 
! Gamma         0                0                0                0                
! Port Impedance         50               0                50               0                
5.1                            0.0210224023005833 85.7661545184216 0.998989779371559 -2.082291409537  0.99898977937156 -2.08229140953699 0.0210224111280478 85.7653057667012 
! Gamma         0                0                0                0                
! Port Impedance         50               0                50               0                
5.2                            0.0214252708172098 85.7430268988793 0.998972524985692 -2.12260568933688 0.998972524985693 -2.12260568933688 0.021425279945765 85.7421612222206 
! Gamma         0                0                0                0                
! Port Impedance         50               0                50               0                
5.3                            0.0218280027128893 85.7196130740264 0.998955247265514 -2.16291268367197 0.998955247265515 -2.16291268367197 0.0218280121461896 85.7187304664472 
! Gamma         0                0                0                0                
! Port Impedance         50               0                50               0                
5.4                            0.0222306051166244 85.6959198181744 0.998937942430893 -2.20321281127479 0.998937942430894 -2.20321281127479 0.0222306148582112 85.6950202739841 
! Gamma         0                0                0                0                
! Port Impedance         50               0                50               0                
5.5                            0.0226330846609903 85.6719531086898 0.998920606593566 -2.24350646234086 0.998920606593567 -2.24350646234087 0.0226330947142967 85.6710366224864 
! Gamma         0                0                0                0                
! Port Impedance         50               0                50               0                
5.6                            0.0230354475053977 85.6477182677439 0.998903235784809 -2.28379399988332 0.99890323578481 -2.28379399988333 0.0230354578737526 85.6467848344094 
! Gamma         0                0                0                0                
! Port Impedance         50               0                50               0                
5.7                            0.0234376993592157 85.6232200816287 0.998885825980013 -2.32407576107584 0.998885825980015 -2.32407576107585 0.0234377100458493 85.6222696963233 
! Gamma         0                0                0                0                
! Port Impedance         50               0                50               0                
5.8                            0.0238398455045865 85.5984629009409 0.998868373120437 -2.36435205857468 0.998868373120438 -2.36435205857469 0.023839856512634 85.5974955590967 
! Gamma         0                0                0                0                
! Port Impedance         50               0                50               0                
5.9                            0.0242418908187877 85.5734507244604 0.998850873132361 -2.40462318181218 0.998850873132362 -2.40462318181219 0.0242419021512946 85.5724664217749 
! Gamma         0                0                0                0                
! Port Impedance         50               0                50               0                
6                              0.0246438397960346 85.5481872691471 0.998833321943904 -2.44488939825583 0.998833321943905 -2.44488939825584 0.0246438514559615 85.547186001575  
! Gamma         0                0                0                0                
! Port Impedance         50               0                50               0                
6.1                            0.0250456965686345 85.522676028329  0.998815715499688 -2.48515095462822 0.99881571549969 -2.48515095462824 0.0250457085588611 85.5216577920749 
! Gamma         0                0                0                0                
! Port Impedance         50               0                50               0                
6.2                            0.025447464927426 85.4969203198609 0.998798049773576 -2.52540807808448 0.998798049773577 -2.52540807808449 0.0254474772507564 85.495885111371  
! Gamma         0                0                0                0                
! Port Impedance         50               0                50               0                
6.3                            0.0258491483414589 85.4709233257752 0.99878032077965 -2.56566097734456 0.998780320779651 -2.56566097734458 0.0258491610006257 85.4698711417288 
! Gamma         0                0                0                0                
! Port Impedance         50               0                50               0                
6.4                            0.0262507499768785 85.4446881247279 0.998762524581627 -2.60590984377903 0.998762524581629 -2.60590984377905 0.0262507629745473 85.4436189620292 
! Gamma         0                0                0                0                
! Port Impedance         50               0                50               0                
6.5                            0.0266522727149985 85.4182177183566 0.998744657300853 -2.64615485244713 0.998744657300855 -2.64615485244715 0.0266522860537722 85.4171315741261 
! Gamma         0                0                0                0                
! Port Impedance         50               0                50               0                
6.6                            0.0270537191695506 85.3915150525038 0.99872671512303 -2.68639616308693 0.998726715123031 -2.68639616308695 0.0270537328519736 85.3904119240696 
! Gamma         0                0                0                0                
! Port Impedance         50               0                50               0                
6.7                            0.0274550917031133 85.3645830341212 0.998708694303808 -2.72663392105775 0.99870869430381 -2.72663392105777 0.0274551057316755 85.3634629190108 
! Gamma         0                0                0                0                
! Port Impedance         50               0                50               0                
6.8                            0.0278563924427257 85.3374245445528 0.998690591173377 -2.76686825823526 0.998690591173379 -2.76686825823528 0.0278564068198666 85.3362874404848 
! Gamma         0                0                0                0                
! Port Impedance         50               0                50               0                
6.9                            0.0282576232947005 85.3100424497895 0.998672402140149 -2.80709929386022 0.998672402140151 -2.80709929386024 0.0282576380228127 85.3088883546653 
! Gamma         0                0                0                0                
! Port Impedance         50               0                50               0                
7                              0.0286587859586538 85.282439608204  0.998654123693656 -2.84732713534199 0.998654123693657 -2.84732713534201 0.0286588010400869 85.2812685200995 
! Gamma         0                0                0                0                
! Port Impedance         50               0                50               0                
7.1                            0.0290598819407735 85.2546188761957 0.998635752406733 -2.88755187901804 0.998635752406734 -2.88755187901807 0.0290598973778375 85.2534307933541 
! Gamma         0                0                0                0                
! Port Impedance         50               0                50               0                
7.2                            0.0294609125663509 85.2265831121139 0.998617284937094 -2.92777361087102 0.998617284937096 -2.92777361087105 0.0294609283613196 85.2253780329373 
! Gamma         0                0                0                0                
! Port Impedance         50               0                50               0                
7.3                            0.0298618789916014 85.1983351787693 0.99859871802836 -2.96799240720486 0.998598718028361 -2.96799240720489 0.0298618951467156 85.1971131018118 
! Gamma         0                0                0                0                
! Port Impedance         50               0                50               0                
7.4                            0.0302627822148031 85.1698779447986 0.998580048510605 -3.0082083352817 0.998580048510606 -3.00820833528173 0.0302627987322737 85.1686388687586 
! Gamma         0                0                0                0                
! Port Impedance         50               0                50               0                
7.5                            0.0306636230867816 85.1412142851044 0.998561273300497 -3.04842145392114 0.998561273300498 -3.04842145392117 0.0306636399687926 85.1399582088182 
! Gamma         0                0                0                0                
! Port Impedance         50               0                50               0                
7.6                            0.0310644023207705 85.1123470805597 0.998542389401074 -3.08863181406371 0.998542389401075 -3.08863181406374 0.0310644195694818 85.1110740029945 
! Gamma         0                0                0                0                
! Port Impedance         50               0                50               0                
7.7                            0.0314651205016771 85.0832792171339 0.998523393901212 -3.12883945930018 0.998523393901214 -3.12883945930021 0.0314651381192273 85.0819891373811 
! Gamma         0                0                0                0                
! Port Impedance         50               0                50               0                
7.8                            0.0318657780947823 85.0540135845734 0.998504283974828 -3.16904442636841 0.998504283974829 -3.16904442636845 0.0318657960832912 85.0527065018427 
! Gamma         0                0                0                0                
! Port Impedance         50               0                50               0                
7.9                            0.0322663754539043 85.0245530747488 0.99848505687985 -3.20924674561945 0.998485056879851 -3.20924674561949 0.0322663938154753 85.0232289883622 
! Gamma         0                0                0                0                
! Port Impedance         50               0                50               0                
8                              0.0326669128290533 84.9949005797591 0.998465709957004 -3.24944644145448 0.998465709957005 -3.24944644145452 0.0326669315657756 84.9935594891451 
! Gamma         0                0                0                0                
! Port Impedance         50               0                50               0                
8.1                            0.0330673903736052 84.9650589898712 0.998446240628435 -3.28964353273425 0.998446240628436 -3.28964353273428 0.0330674094875565 84.963700894559  
! Gamma         0                0                0                0                
! Port Impedance         50               0                50               0                
8.2                            0.033467808151022 84.9350311913561 0.998426646396195 -3.32983803316244 0.998426646396196 -3.32983803316247 0.0334678276442701 84.9336560909709 
! Gamma         0                0                0                0                
! Port Impedance         50               0                50               0                
8.3                            0.0338681661411424 84.9048200642743 0.998406924840621 -3.3700299516446 0.998406924840623 -3.37002995164463 0.0338681860157475 84.9034279585319 
! Gamma         0                0                0                0                
! Port Impedance         50               0                50               0                
8.4                            0.0342684642460691 84.8744284802519 0.998387073618634 -3.41021929262387 0.998387073618636 -3.41021929262391 0.0342684845040858 84.8730193689539 
! Gamma         0                0                0                0                
! Port Impedance         50               0                50               0                
8.5                            0.0346687022956766 84.8438593002805 0.998367090461958 -3.45040605639508 0.998367090461959 -3.45040605639511 0.0346687229391552 84.84243318331   
! Gamma         0                0                0                0                
! Port Impedance         50               0                50               0                
8.6                            0.0350688800527601 84.8131153725685 0.998346973175297 -3.49059023939827 0.998346973175298 -3.4905902393983 0.0350689010837488 84.8116722498853 
! Gamma         0                0                0                0                
! Port Impedance         50               0                50               0                
8.7                            0.0354689972178495 84.7821995304633 0.998326719634468 -3.53077183449314 0.998326719634468 -3.53077183449317 0.035469018638396 84.7807394021001 
! Gamma         0                0                0                0                
! Port Impedance         50               0                50               0                
8.8                            0.0358690534337078 84.7511145904614 0.998306327784519 -3.57095083121541 0.99830632778452 -3.57095083121544 0.0358690752458605 84.7496374565198 
! Gamma         0                0                0                0                
! Port Impedance         50               0                50               0                
8.9                            0.0362690482895328 84.7198633503175 0.998285795637828 -3.61112721601625 0.998285795637828 -3.61112721601628 0.0362690704953426 84.7183692109642 
! Gamma         0                0                0                0                
! Port Impedance         50               0                50               0                
9                              0.0366689813248818 84.6884485872615 0.998265121272195 -3.65130097248589 0.998265121272196 -3.65130097248592 0.0366690039264033 84.6869374427246 
! Gamma         0                0                0                0                
! Port Impedance         50               0                50               0                
9.1                            0.037068852033336 84.6568730563281 0.998244302828949 -3.69147208156238 0.99824430282895 -3.6914720815624 0.037068875032629 84.6553449068938 
! Gamma         0                0                0                0                
! Port Impedance         50               0                50               0                
9.2                            0.0374686598659211 84.6251394888031 0.998223338511062 -3.73164052172638 0.998223338511063 -3.7316405217264 0.0374686832650515 84.6235943348124 
! Gamma         0                0                0                0                
! Port Impedance         50               0                50               0                
9.3                            0.0378684042342994 84.5932505907872 0.998202226581281 -3.77180626918299 0.998202226581281 -3.77180626918301 0.0378684280353407 84.5916884326331 
! Gamma         0                0                0                0                
! Port Impedance         50               0                50               0                
9.4                            0.0382680845137488 84.5612090418773 0.998180965360282 -3.81196929803134 0.998180965360282 -3.81196929803136 0.038268108718783 84.5596298800016 
! Gamma         0                0                0                0                
! Port Impedance         50               0                50               0                
9.5                            0.0386677000459416 84.5290174939637 0.99815955322486 -3.85212958042278 0.99815955322486 -3.8521295804228 0.0386677246570604 84.5274213288543 
! Gamma         0                0                0                0                
! Port Impedance         50               0                50               0                
9.6                            0.0390672501415362 84.4966785701405 0.998137988606142 -3.89228708670847 0.998137988606142 -3.89228708670848 0.0390672751608419 84.4950654023287 
! Gamma         0                0                0                0                
! Port Impedance         50               0                50               0                
9.7                            0.0394667340825947 84.4641948637262 0.998116269987836 -3.93244178557688 0.998116269987836 -3.93244178557689 0.0394667595122013 84.4625646937846 
! Gamma         0                0                0                0                
! Port Impedance         50               0                50               0                
9.8                            0.0398661511248364 84.431568937391  0.998094395904523 -3.97259364418208 0.998094395904523 -3.97259364418209 0.0398661769668702 84.429921765931  
! Gamma         0                0                0                0                
! Port Impedance         50               0                50               0                
9.9                            0.0402655004997392 84.3988033223862 0.998072364939981 -4.0127426282633 0.998072364939981 -4.01274262826331 0.0402655267563399 84.3971391500553 
! Gamma         0                0                0                0                
! Port Impedance         50               0                50               0                
10                             0.0406647814164979 84.3659005178704 0.998050175725556 -4.05288870225631 0.998050175725556 -4.05288870225631 0.0406648080898191 84.3642193453506 
! Gamma         0                0                0                0                
! Port Impedance         50               0                50               0                
10.1                           0.0410641917309049 84.332477516015  0.998027907606614 -4.09302134892252 0.998027907606614 -4.09302134892252 0.0410642195189173 84.330778841792  
! Gamma         0                0                0                0                
! Port Impedance         50               0                50               0                
10.2                           0.0414635091712833 84.2989860308614 0.99800552750246 -4.1331504764652 0.99800552750246 -4.1331504764652 0.0414635380519815 84.297269847162  
! Gamma         0                0                0                0                
! Port Impedance         50               0                50               0                
10.3                           0.0418627348265786 84.2654278341587 0.997983034685419 -4.17327613448281 0.997983034685419 -4.17327613448281 0.041862764778117 84.2636941347406 
! Gamma         0                0                0                0                
! Port Impedance         50               0                50               0                
10.4                           0.0422618697479362 84.2318045984554 0.997960428432963 -4.21339836993154 0.997960428432963 -4.21339836993154 0.0422619007486572 84.2300533785085 
! Gamma         0                0                0                0                
! Port Impedance         50               0                50               0                
10.5                           0.0426609149491807 84.1981179038929 0.997937708028603 -4.25351722722135 0.997937708028603 -4.25351722722135 0.0426609469776406 84.1963491599451 
! Gamma         0                0                0                0                
! Port Impedance         50               0                50               0                
10.6                           0.043059871407324 84.164369244532  0.997914872762708 -4.29363274830969 0.997914872762708 -4.29363274830969 0.0430599044423169 84.1625829743591 
! Gamma         0                0                0                0                
! Port Impedance         50               0                50               0                
10.7                           0.0434587400630993 84.1305600342421 0.997891921933245 -4.3337449727927 0.997891921933245 -4.3337449727927 0.0434587740836799 84.128756236783  
! Gamma         0                0                0                0                
! Port Impedance         50               0                50               0                
10.8                           0.0438575218215179 84.0966916121866 0.997868854846449 -4.37385393799407 0.997868854846449 -4.37385393799407 0.043857556807022 84.0948702874613 
! Gamma         0                0                0                0                
! Port Impedance         50               0                50               0                
10.9                           0.0442562175524465 84.0627652479296 0.997845670817429 -4.41395967905135 0.997845670817429 -4.41395967905135 0.0442562534825102 84.0609263969622 
! Gamma         0                0                0                0                
! Port Impedance         50               0                50               0                
11                             0.0446548280912007 84.0287821461918 0.997822369170709 -4.4540622289999 0.997822369170709 -4.4540622289999 0.0446548649457783 84.0269257709369 
! Gamma         0                0                0                0                
! Port Impedance         50               0                50               0                
11.1                           0.0450533542391545 83.9947434512788 0.997798949240714 -4.49416161885432 0.997798949240714 -4.49416161885432 0.0450533919985344 83.9928695545516 
! Gamma         0                0                0                0                
! Port Impedance         50               0                50               0                
11.2                           0.0454517967643617 83.9606502512048 0.997775410372196 -4.53425787768747 0.997775410372196 -4.53425787768747 0.0454518354091812 83.9587588366146 
! Gamma         0                0                0                0                
! Port Impedance         50               0                50               0                
11.3                           0.0458501564021878 83.9265035815322 0.997751751920621 -4.57435103270709 0.997751751920621 -4.57435103270709 0.0458501959134468 83.9245946534194 
! Gamma         0                0                0                0                
! Port Impedance         50               0                50               0                
11.4                           0.0462484338559503 83.8923044289466 0.997727973252495 -4.61444110933   0.997727973252495 -4.61444110933   0.0462484742150233 83.8903779923231 
! Gamma         0                0                0                0                
! Port Impedance         50               0                50               0                
11.5                           0.0466466297975652 83.8580537345855 0.997704073745658 -4.65452813125396 0.997704073745658 -4.65452813125396 0.0466466709862121 83.856109795078  
! Gamma         0                0                0                0                
! Port Impedance         50               0                50               0                
11.6                           0.0470447448681989 83.8237523971378 0.997680052789526 -4.69461212052724 0.997680052789526 -4.69461212052724 0.0470447868685751 83.8217909609336 
! Gamma         0                0                0                0                
! Port Impedance         50               0                50               0                
11.7                           0.0474427796789225 83.789401275728  0.997655909785308 -4.7346930976158 0.997655909785308 -4.7346930976158 0.0474428224735874 83.787422349525  
! Gamma         0                0                0                0                
! Port Impedance         50               0                50               0                
11.8                           0.0478407348113683 83.7550011926029 0.997631644146175 -4.77477108146834 0.997631644146175 -4.77477108146834 0.047840778383293 83.7530047835608 
! Gamma         0                0                0                0                
! Port Impedance         50               0                50               0                
11.9                           0.0482386108183867 83.7205529356306 0.997607255297407 -4.81484608957909 0.997607255297407 -4.81484608957909 0.0482386551509604 83.7185390513256 
! Gamma         0                0                0                0                
! Port Impedance         50               0                50               0                
12                             0.0486364082247016 83.6860572606278 0.997582742676497 -4.85491813804844 0.997582742676497 -4.85491813804844 0.0486364533017374 83.6840259090098 
! Gamma         0                0                0                0                
! Port Impedance         50               0                50               0                
12.1                           0.0490341275275643 83.651514893525  0.997558105733245 -4.89498724164152 0.997558105733245 -4.89498724164152 0.0490341733333043 83.6494660828766 
! Gamma         0                0                0                0                
! Port Impedance         50               0                50               0                
12.2                           0.0494317691974042 83.6169265323813 0.997533343929807 -4.93505341384459 0.997533343929807 -4.93505341384458 0.049431815716523 83.6148602712795 
! Gamma         0                0                0                0                
! Port Impedance         50               0                50               0                
12.3                           0.0498293336784755 83.5822928492591 0.997508456740731 -4.97511666691959 0.997508456740731 -4.97511666691959 0.0498293808960834 83.5802091465394 
! Gamma         0                0                0                0                
! Port Impedance         50               0                50               0                
12.4                           0.0502268213894985 83.5476144919682 0.997483443652973 -5.01517701195663 0.997483443652973 -5.01517701195663 0.0502268692911441 83.5455133566903 
! Gamma         0                0                0                0                
! Port Impedance         50               0                50               0                
12.5                           0.0506242327242959 83.5128920856882 0.997458304165884 -5.05523445892456 0.997458304165884 -5.05523445892456 0.0506242812959675 83.5107735271039 
! Gamma         0                0                0                0                
! Port Impedance         50               0                50               0                
12.6                           0.0510215680524223 83.4781262344772 0.997433037791183 -5.09528901671976 0.997433037791183 -5.09528901671976 0.051021617280549 83.4759902620002 
! Gamma         0                0                0                0                
! Port Impedance         50               0                50               0                
12.7                           0.0514188277197868 83.4433175226745 0.997407644052915 -5.13534069321303 0.997407644052915 -5.13534069321303 0.0514188775912386 83.4411641458521 
! Gamma         0                0                0                0                
! Port Impedance         50               0                50               0                
12.8                           0.0518160120492675 83.4084665162059 0.997382122487392 -5.17538949529486 0.997382122487392 -5.17538949529486 0.0518160625513557 83.4062957446922 
! Gamma         0                0                0                0                
! Port Impedance         50               0                50               0                
12.9                           0.0522131213413192 83.3735737637953 0.997356472643115 -5.21543542891885 0.997356472643115 -5.21543542891885 0.0522131724617946 83.3713856073262 
! Gamma         0                0                0                0                
! Port Impedance         50               0                50               0                
13                             0.0526101558745707 83.3386397980926 0.997330694080692 -5.25547849914361 0.997330694080692 -5.25547849914361 0.0526102076016231 83.3364342664624 
! Gamma         0                0                0                0                
! Port Impedance         50               0                50               0                
13.1                           0.0530071159064145 83.3036651367206 0.997304786372735 -5.29551871017298 0.997304786372735 -5.29551871017298 0.0530071682286706 83.3014422397598 
! Gamma         0                0                0                0                
! Port Impedance         50               0                50               0                
13.2                           0.0534040016735872 83.2686502832478 0.997278749103755 -5.3355560653947 0.997278749103755 -5.3355560653947 0.0534040545801082 83.266410030803  
! Gamma         0                0                0                0                
! Port Impedance         50               0                50               0                
13.3                           0.0538008133927392 83.2335957280929 0.997252581870039 -5.37559056741771 0.997252581870039 -5.37559056741771 0.0538008668730181 83.2313381300068 
! Gamma         0                0                0                0                
! Port Impedance         50               0                50               0                
13.4                           0.0541975512609956 83.1985019493633 0.997226284279526 -5.41562221810777 0.997226284279526 -5.41562221810777 0.0541976053049542 83.1962270154576 
! Gamma         0                0                0                0                
! Port Impedance         50               0                50               0                
13.5                           0.0545942154565068 83.1633694136353 0.997199855951671 -5.45565101862192 0.997199855951671 -5.45565101862192 0.0545942700544923 83.1610771536932 
! Gamma         0                0                0                0                
! Port Impedance         50               0                50               0                
13.6                           0.0549908061389886 83.1281985766764 0.9971732965173  -5.49567696944142 0.9971732965173  -5.49567696944142 0.0549908612817697 83.1258890004278 
! Gamma         0                0                0                0                
! Port Impedance         50               0                50               0                
13.7                           0.0553873234502523 83.0929898841176 0.997146605618467 -5.53570007040341 0.997146605618467 -5.53570007040341 0.0553873791290148 83.0906630012242 
! Gamma         0                0                0                0                
! Port Impedance         50               0                50               0                
13.8                           0.0557837675147239 83.0577437720759 0.997119782908296 -5.57572032073139 0.997119782908296 -5.57572032073139 0.0557838237210667 83.0553995921176 
! Gamma         0                0                0                0                
! Port Impedance         50               0                50               0                
13.9                           0.0561801384399532 83.0224606677317 0.997092828050825 -5.61573771906439 0.997092828050825 -5.61573771906439 0.0561801951658832 83.0200992001946 
! Gamma         0                0                0                0                
! Port Impedance         50               0                50               0                
14                             0.0565764363171118 82.9871409898648 0.997065740720844 -5.65575226348494 0.997065740720844 -5.65575226348494 0.0565764935550396 82.9847622441295 
! Gamma         0                0                0                0                
! Port Impedance         50               0                50               0                
14.1                           0.0569726612214813 82.9517851493511 0.997038520603729 -5.69576395154605 0.997038520603729 -5.69576395154605 0.0569727189642152 82.9493891346821 
! Gamma         0                0                0                0                
! Port Impedance         50               0                50               0                
14.2                           0.0573688132129297 82.9163935496228 0.997011167395272 -5.73577278029689 0.997011167395272 -5.73577278029689 0.057368871453671 82.9139802751585 
! Gamma         0                0                0                0                
! Port Impedance         50               0                50               0                
14.3                           0.0577648923363782 82.8809665870943 0.996983680801511 -5.77577874630759 0.996983680801512 -5.77577874630759 0.0577649510687152 82.8785360618386 
! Gamma         0                0                0                0                
! Port Impedance         50               0                50               0                
14.4                           0.0581608986222569 82.8455046515582 0.996956060538561 -5.81578184569292 0.996956060538561 -5.81578184569292 0.0581609578401597 82.8430568843716 
! Gamma         0                0                0                0                
! Port Impedance         50               0                50               0                
14.5                           0.0585568320869504 82.8100081265498 0.99692830633243 -5.855782074135  0.99692830633243 -5.855782074135  0.0585568917847643 82.8075431261426 
! Gamma         0                0                0                0                
! Port Impedance         50               0                50               0                
14.6                           0.0589526927332322 82.7744773896864 0.996900417918854 -5.89577942690511 0.996900417918854 -5.89577942690511 0.0589527529056724 82.7719951646113 
! Gamma         0                0                0                0                
! Port Impedance         50               0                50               0                
14.7                           0.0593484805506895 82.7389128129804 0.996872395043114 -5.93577389888456 0.996872395043114 -5.93577389888456 0.0593485411928345 82.7364133716266 
! Gamma         0                0                0                0                
! Port Impedance         50               0                50               0                
14.8                           0.0597441955161377 82.7033147631285 0.99684423745986 -5.97576548458464 0.99684423745986 -5.97576548458464 0.0597442566234233 82.7007981137162 
! Gamma         0                0                0                0                
! Port Impedance         50               0                50               0                
14.9                           0.0601398375940238 82.6676836017802 0.996815944932939 -6.01575417816581 0.996815944932939 -6.01575417816581 0.0601398991622367 82.6651497523552 
! Gamma         0                0                0                0                
! Port Impedance         50               0                50               0                
15                             0.0605354067368213 82.632019685785  0.99678751723521 -6.05573997345605 0.99678751723521 -6.05573997345605 0.0605354687620926 82.6294686442146 
! Gamma         0                0                0                0                
! Port Impedance         50               0                50               0                
15.1                           0.0609309028854136 82.5963233674213 0.996758954148376 -6.09572286396834 0.996758954148376 -6.09572286396834 0.0609309653642126 82.5937551413904 
! Gamma         0                0                0                0                
! Port Impedance         50               0                50               0                
15.2                           0.0613263259694687 82.5605949946079 0.996730255462803 -6.13570284291756 0.996730255462803 -6.13570284291756 0.0613263888985962 82.558009591615  
! Gamma         0                0                0                0                
! Port Impedance         50               0                50               0                
15.3                           0.0617216759078041 82.5248349110988 0.996701420977346 -6.1756799032365 0.996701420977346 -6.1756799032365 0.0617217392843858 82.5222323384534 
! Gamma         0                0                0                0                
! Port Impedance         50               0                50               0                
15.4                           0.0621169526087419 82.4890434566634 0.99667245049918 -6.21565403759128 0.99667245049918 -6.21565403759128 0.0621170164302216 82.4864237214834 
! Gamma         0                0                0                0                
! Port Impedance         50               0                50               0                
15.5                           0.0625121559704542 82.4532209672527 0.99664334384362 -6.25562523839604 0.99664334384362 -6.25562523839604 0.0625122202345878 82.450584076462  
! Gamma         0                0                0                0                
! Port Impedance         50               0                50               0                
15.6                           0.0629072858813009 82.4173677751527 0.996614100833957 -6.29559349782709 0.996614100833957 -6.29559349782709 0.0629073505861491 82.4147137354793 
! Gamma         0                0                0                0                
! Port Impedance         50               0                50               0                
15.7                           0.0633023422201566 82.3814842091251 0.996584721301285 -6.33555880783624 0.996584721301285 -6.33555880783624 0.0633024073640785 82.3788130270999 
! Gamma         0                0                0                0                
! Port Impedance         50               0                50               0                
15.8                           0.0636973248567298 82.3455705945381 0.996555205084333 -6.37552116016381 0.996555205084333 -6.37552116016381 0.0636973904383762 82.3428822764933 
! Gamma         0                0                0                0                
! Port Impedance         50               0                50               0                
15.9                           0.0640922336518729 82.3096272534859 0.996525552029301 -6.41548054635081 0.996525552029301 -6.41548054635081 0.0640922996701799 82.3069218055546 
! Gamma         0                0                0                0                
! Port Impedance         50               0                50               0                
16                             0.0644870684578844 82.2736545048992 0.996495761989698 -6.45543695775076 0.996495761989698 -6.45543695775076 0.0644871349120663 82.2709319330146 
! Gamma         0                0                0                0                
! Port Impedance         50               0                50               0                
16.1                           0.0648818291188017 82.237652664647  0.996465834826175 -6.49539038554091 0.996465834826175 -6.49539038554091 0.0648818960083448 82.234912974542  
! Gamma         0                0                0                0                
! Port Impedance         50               0                50               0                
16.2                           0.0652765154706869 82.2016220456298 0.996435770406367 -6.53534082073291 0.996435770406367 -6.53534082073291 0.0652765827953426 82.1988652428374 
! Gamma         0                0                0                0                
! Port Impedance         50               0                50               0                
16.3                           0.0656711273419034 82.1655629578661 0.99640556860474 -6.5752882541831 0.99640556860474 -6.5752882541831 0.0656711951016819 82.162789047719  
! Gamma         0                0                0                0                
! Port Impedance         50               0                50               0                
16.4                           0.0660656645533859 82.1294757085711 0.99637522930243 -6.61523267660227 0.99637522930243 -6.61523267660227 0.0660657327485495 82.1266846962026 
! Gamma         0                0                0                0                
! Port Impedance         50               0                50               0                
16.5                           0.0664601269189017 82.0933606022295 0.996344752387092 -6.65517407856497 0.996344752387092 -6.65517407856497 0.0664601955499583 82.0905524925739 
! Gamma         0                0                0                0                
! Port Impedance         50               0                50               0                
16.6                           0.0668545142453053 82.0572179406625 0.99631413775275 -6.6951124505184 0.99631413775275 -6.69511245051841 0.0668545833130021 82.054392738456  
! Gamma         0                0                0                0                
! Port Impedance         50               0                50               0                
16.7                           0.0672488263327854 82.0210480230891 0.99628338529965 -6.73504778279094 0.99628338529965 -6.73504778279094 0.0672488958381025 82.0182057328706 
! Gamma         0                0                0                0                
! Port Impedance         50               0                50               0                
16.8                           0.0676430629751045 81.9848511461823 0.996252494934111 -6.7749800656002 0.996252494934111 -6.7749800656002 0.0676431329192484 81.981991772295  
! Gamma         0                0                0                0                
! Port Impedance         50               0                50               0                
16.9                           0.0680372239598323 81.9486276041216 0.996221466568383 -6.81490928906073 0.996221466568383 -6.81490928906073 0.0680372943442297 81.9457511507138 
! Gamma         0                0                0                0                
! Port Impedance         50               0                50               0                
17                             0.0684313090685712 81.9123776886398 0.996190300120508 -6.85483544319142 0.996190300120508 -6.85483544319142 0.0684313798948628 81.9094841596667 
! Gamma         0                0                0                0                
! Port Impedance         50               0                50               0                
17.1                           0.0688253180771763 81.8761016890672 0.996158995514179 -6.89475851792244 0.996158995514179 -6.89475851792244 0.0688253893472107 81.8731910882922 
! Gamma         0                0                0                0                
! Port Impedance         50               0                50               0                
17.2                           0.0692192507559681 81.8397998923715 0.996127552678606 -6.93467850310198 0.996127552678606 -6.93467850310198 0.0692193224717956 81.8368722233684 
! Gamma         0                0                0                0                
! Port Impedance         50               0                50               0                
17.3                           0.0696131068699395 81.8034725831951 0.996095971548381 -6.97459538850253 0.996095971548381 -6.97459538850253 0.0696131790338061 81.8005278493493 
! Gamma         0                0                0                0                
! Port Impedance         50               0                50               0                
17.4                           0.0700068861789561 81.7671200438884 0.99606425206335 -7.01450916382696 0.99606425206335 -7.01450916382696 0.0700069587932976 81.7641582483993 
! Gamma         0                0                0                0                
! Port Impedance         50               0                50               0                
17.5                           0.0704005884379511 81.7307425545416 0.996032394168481 -7.05441981871429 0.996032394168481 -7.05441981871429 0.0704006615053872 81.7277637004244 
! Gamma         0                0                0                0                
! Port Impedance         50               0                50               0                
17.6                           0.0707942133971136 81.6943403930129 0.99600039781374 -7.0943273427451 0.99600039781374 -7.0943273427451 0.0707942869204421 81.6913444831007 
! Gamma         0                0                0                0                
! Port Impedance         50               0                50               0                
17.7                           0.0711877608020724 81.6579138349552 0.995968262953971 -7.13423172544677 0.995968262953971 -7.13423172544677 0.0711878347842632 81.6549008719012 
! Gamma         0                0                0                0                
! Port Impedance         50               0                50               0                
17.8                           0.0715812303940726 81.6214631538405 0.995935989548766 -7.17413295629844 0.995935989548766 -7.17413295629844 0.0715813048382625 81.6184331401202 
! Gamma         0                0                0                0                
! Port Impedance         50               0                50               0                
17.9                           0.0719746219101488 81.5849886209818 0.995903577562358 -7.21403102473563 0.995903577562358 -7.21403102473563 0.0719746968196355 81.5819415588956 
! Gamma         0                0                0                0                
! Port Impedance         50               0                50               0                
18                             0.0723679350832911 81.5484905055547 0.995871026963497 -7.25392592015476 0.995871026963497 -7.25392592015476 0.0723680104615279 81.5454263972296 
! Gamma         0                0                0                0                
! Port Impedance         50               0                50               0                
18.1                           0.0727611696426076 81.5119690746156 0.995838337725339 -7.29381763191735 0.995838337725339 -7.29381763191735 0.072761245493198 81.5088879220085 
! Gamma         0                0                0                0                
! Port Impedance         50               0                50               0                
18.2                           0.0731543253134806 81.4754245931204 0.995805509825335 -7.33370614935403 0.995805509825335 -7.33370614935403 0.0731544016401729 81.4723263980197 
! Gamma         0                0                0                0                
! Port Impedance         50               0                50               0                
18.3                           0.0735474018177194 81.4388573239404 0.995772543245124 -7.37359146176833 0.995772543245124 -7.37359146176833 0.0735474786244014 81.4357420879691 
! Gamma         0                0                0                0                
! Port Impedance         50               0                50               0                
18.4                           0.0739403988737071 81.4022675278778 0.995739437970422 -7.41347355844032 0.995739437970422 -7.41347355844032 0.0739404761644008 81.3991352524959 
! Gamma         0                0                0                0                
! Port Impedance         50               0                50               0                
18.5                           0.0743333161965434 81.3656554636803 0.995706193990923 -7.45335242862997 0.995706193990923 -7.45335242862998 0.0743333939754003 81.362506150187  
! Gamma         0                0                0                0                
! Port Impedance         50               0                50               0                
18.6                           0.0747261534981832 81.3290213880542 0.995672811300195 -7.49322806158042 0.995672811300195 -7.49322806158042 0.0747262317694788 81.325855037591  
! Gamma         0                0                0                0                
! Port Impedance         50               0                50               0                
18.7                           0.0751189104875705 81.2923655556771 0.995639289895579 -7.53310044652099 0.995639289895579 -7.53310044652099 0.0751189892556996 81.2891821692301 
! Gamma         0                0                0                0                
! Port Impedance         50               0                50               0                
18.8                           0.075511586870768 81.25568821921   0.995605629778096 -7.5729695726701 0.995605629778096 -7.5729695726701 0.0755116661402399 81.2524877976126 
! Gamma         0                0                0                0                
! Port Impedance         50               0                50               0                
18.9                           0.0759041823510832 81.2189896293082 0.995571830952347 -7.61283542923798 0.995571830952347 -7.61283542923798 0.0759042621265167 81.2157721732438 
! Gamma         0                0                0                0                
! Port Impedance         50               0                50               0                
19                             0.0762966966291902 81.1822700346323 0.995537893426426 -7.65269800542925 0.995537893426426 -7.65269800542925 0.076296776915309 81.1790355446366 
! Gamma         0                0                0                0                
! Port Impedance         50               0                50               0                
19.1                           0.0766891294032471 81.1455296818579 0.995503817211822 -7.69255729044532 0.995503817211822 -7.69255729044532 0.0766892102048755 81.1422781583222 
! Gamma         0                0                0                0                
! Port Impedance         50               0                50               0                
19.2                           0.0770814803690109 81.108768815686  0.995469602323338 -7.7324132734867 0.995469602323338 -7.7324132734867 0.0770815616910688 81.1055002588592 
! Gamma         0                0                0                0                
! Port Impedance         50               0                50               0                
19.3                           0.0774737492199479 81.0719876788517 0.995435248778999 -7.77226594375514 0.995435248778999 -7.77226594375515 0.0774738310674464 81.0687020888434 
! Gamma         0                0                0                0                
! Port Impedance         50               0                50               0                
19.4                           0.0778659356473403 81.0351865121338 0.99540075659997 -7.81211529045567 0.995400756599971 -7.81211529045567 0.0778660180253779 81.0318838889167 
! Gamma         0                0                0                0                
! Port Impedance         50               0                50               0                
19.5                           0.0782580393403907 80.9983655543632 0.995366125810476 -7.85196130279845 0.995366125810476 -7.85196130279845 0.0782581222541482 80.9950458977757 
! Gamma         0                0                0                0                
! Port Impedance         50               0                50               0                
19.6                           0.0786500599863214 80.9615250424314 0.995331356437714 -7.89180397000063 0.995331356437714 -7.89180397000063 0.0786501434410583 80.9581883521805 
! Gamma         0                0                0                0                
! Port Impedance         50               0                50               0                
19.7                           0.0790419972704726 80.9246652112992 0.995296448511783 -7.93164328128794 0.995296448511783 -7.93164328128794 0.0790420812715226 80.9213114869631 
! Gamma         0                0                0                0                
! Port Impedance         50               0                50               0                
19.8                           0.0794338508763953 80.8877862940047 0.995261402065602 -7.97147922589633 0.995261402065602 -7.97147922589633 0.0794339354291625 80.884415535035  
! Gamma         0                0                0                0                
! Port Impedance         50               0                50               0                
19.9                           0.079825620485943 80.8508885216712 0.99522621713484 -8.01131179307338 0.99522621713484 -8.01131179307338 0.0798257055958979 80.8475007273962 
! Gamma         0                0                0                0                
! Port Impedance         50               0                50               0                
20                             0.0802173057793593 80.8139721235157 0.995190893757837 -8.05114097207967 0.995190893757837 -8.05114097207967 0.0802173914520349 80.8105672931421 
! Gamma         0                0                0                0                
! Port Impedance         50               0                50               0                
20.1                           0.0806089064353632 80.7770373268563 0.995155431975539 -8.0909667521901 0.995155431975539 -8.0909667521901 0.0806089926763509 80.7736154594726 
! Gamma         0                0                0                0                
! Port Impedance         50               0                50               0                
20.2                           0.0810004221312312 80.7400843571203 0.995119831831424 -8.13078912269502 0.995119831831424 -8.13078912269502 0.0810005089461776 80.736645451699  
! Gamma         0                0                0                0                
! Port Impedance         50               0                50               0                
20.3                           0.0813918525428775 80.7031134378522 0.995084093371439 -8.17060807290138 0.995084093371439 -8.17060807290138 0.0813919399374801 80.6996574932522 
! Gamma         0                0                0                0                
! Port Impedance         50               0                50               0                
20.4                           0.08178319734493 80.6661247907216 0.995048216643929 -8.21042359213369 0.995048216643929 -8.21042359213369 0.0817832853249344 80.6626518056909 
! Gamma         0                0                0                0                
! Port Impedance         50               0                50               0                
20.5                           0.082174456210806 80.6291186355308 0.995012201699578 -8.25023566973501 0.995012201699578 -8.25023566973501 0.0821745447820016 80.625628608709  
! Gamma         0                0                0                0                
! Port Impedance         50               0                50               0                
20.6                           0.0825656288127835 80.5920951902231 0.994976048591344 -8.29004429506782 0.994976048591344 -8.29004429506782 0.0825657179810005 80.5885881201438 
! Gamma         0                0                0                0                
! Port Impedance         50               0                50               0                
20.7                           0.0829567148220707 80.5550546708906 0.994939757374398 -8.32984945751481 0.994939757374398 -8.32984945751481 0.0829568045931769 80.5515305559837 
! Gamma         0                0                0                0                
! Port Impedance         50               0                50               0                
20.8                           0.083347713908874 80.5179972917824 0.994903328106064 -8.36965114647959 0.994903328106064 -8.36965114647959 0.0833478042887712 80.5144561303769 
! Gamma         0                0                0                0                
! Port Impedance         50               0                50               0                
20.9                           0.0837386257424627 80.4809232653127 0.994866760845764 -8.40944935138742 0.994866760845764 -8.40944935138742 0.0837387167370833 80.4773650556385 
! Gamma         0                0                0                0                
! Port Impedance         50               0                50               0                
21                             0.0841294499912317 80.4438328020688 0.99483005565496 -8.44924406168575 0.99483005565496 -8.44924406168575 0.0841295416065361 80.4402575422598 
! Gamma         0                0                0                0                
! Port Impedance         50               0                50               0                
21.1                           0.0845201863227628 80.4067261108197 0.994793212597099 -8.48903526684485 0.994793212597099 -8.48903526684485 0.0845202785647359 80.4031337989155 
! Gamma         0                0                0                0                
! Port Impedance         50               0                50               0                
21.2                           0.0849108344038829 80.3696033985245 0.994756231737559 -8.52882295635824 0.994756231737559 -8.52882295635824 0.0849109272785314 80.365994032473  
! Gamma         0                0                0                0                
! Port Impedance         50               0                50               0                
21.3                           0.0853013939007214 80.3324648703406 0.9947191131436  -8.56860711974319 0.9947191131436  -8.5686071197432 0.0853014874140704 80.3288384480003 
! Gamma         0                0                0                0                
! Port Impedance         50               0                50               0                
21.4                           0.0856918644787642 80.2953107296326 0.994681856884309 -8.60838774654112 0.994681856884309 -8.60838774654112 0.085691958636855 80.2916672487747 
! Gamma         0                0                0                0                
! Port Impedance         50               0                50               0                
21.5                           0.0860822458029075 80.2581411779808 0.994644463030556 -8.64816482631787 0.994644463030556 -8.64816482631787 0.0860823406117942 80.2544806362916 
! Gamma         0                0                0                0                
! Port Impedance         50               0                50               0                
21.6                           0.0864725375375084 80.2209564151902 0.994606931654944 -8.68793834866414 0.994606931654944 -8.68793834866414 0.0864726330032556 80.2172788102731 
! Gamma         0                0                0                0                
! Port Impedance         50               0                50               0                
21.7                           0.0868627393464347 80.1837566392995 0.994569262831758 -8.72770830319566 0.994569262831758 -8.72770830319566 0.0868628354751145 80.1800619686772 
! Gamma         0                0                0                0                
! Port Impedance         50               0                50               0                
21.8                           0.0872528508931122 80.1465420465896 0.994531456636928 -8.76747467955345 0.994531456636928 -8.76747467955345 0.0872529476908017 80.1428303077065 
! Gamma         0                0                0                0                
! Port Impedance         50               0                50               0                
21.9                           0.0876428718405711 80.1093128315936 0.994493513147978 -8.80723746740402 0.994493513147978 -8.80723746740402 0.0876429693133499 80.1055840218176 
! Gamma         0                0                0                0                
! Port Impedance         50               0                50               0                
22                             0.0880328018514901 80.0720691871053 0.994455432443988 -8.84699665643949 0.994455432443988 -8.84699665643949 0.0880329000054379 80.0683233037298 
! Gamma         0                0                0                0                
! Port Impedance         50               0                50               0                
22.1                           0.0884226405882398 80.0348113041891 0.994417214605549 -8.88675223637775 0.994417214605549 -8.88675223637776 0.0884227394294338 80.0310483444354 
! Gamma         0                0                0                0                
! Port Impedance         50               0                50               0                
22.2                           0.0888123877129236 79.997539372189  0.994378859714723 -8.92650419696254 0.994378859714723 -8.92650419696254 0.0888124872474363 79.9937593332081 
! Gamma         0                0                0                0                
! Port Impedance         50               0                50               0                
22.3                           0.089202042887418 79.9602535787389 0.994340367855006 -8.96625252796347 0.994340367855006 -8.96625252796347 0.0892021431213146 79.9564564576133 
! Gamma         0                0                0                0                
! Port Impedance         50               0                50               0                
22.4                           0.0895916057734107 79.9229541097716 0.994301739111287 -9.00599721917611 0.994301739111287 -9.00599721917611 0.0895917067127474 79.9191399035176 
! Gamma         0                0                0                0                
! Port Impedance         50               0                50               0                
22.5                           0.0899810760324384 79.8856411495288 0.994262973569813 -9.04573826042194 0.994262973569813 -9.04573826042194 0.0899811776832598 79.8818098550982 
! Gamma         0                0                0                0                
! Port Impedance         50               0                50               0                
22.6                           0.0903704533259222 79.8483148805714 0.994224071318149 -9.08547564154837 0.994224071318149 -9.08547564154837 0.0903705556942593 79.8444664948534 
! Gamma         0                0                0                0                
! Port Impedance         50               0                50               0                
22.7                           0.0907597373152022 79.8109754837889 0.99418503244515 -9.12520935242868 0.99418503244515 -9.12520935242868 0.0907598404070701 79.8071100036121 
! Gamma         0                0                0                0                
! Port Impedance         50               0                50               0                
22.8                           0.0911489276615707 79.7736231384101 0.994145857040919 -9.16493938296194 0.994145857040919 -9.16493938296194 0.0911490314829673 79.7697405605441 
! Gamma         0                0                0                0                
! Port Impedance         50               0                50               0                
22.9                           0.0915380240263048 79.7362580220127 0.994106545196778 -9.20466572307291 0.994106545196778 -9.20466572307291 0.0915381285832079 79.73235834317   
! Gamma         0                0                0                0                
! Port Impedance         50               0                50               0                
23                             0.0919270260706968 79.6988803105341 0.994067097005237 -9.244388362712  0.994067097005237 -9.244388362712  0.0919271313690628 79.6949635273719 
! Gamma         0                0                0                0                
! Port Impedance         50               0                50               0                
23.1                           0.0923159334560842 79.6614901782814 0.994027512559959 -9.28410729185504 0.994027512559959 -9.28410729185504 0.0923160395018463 79.6575562874033 
! Gamma         0                0                0                0                
! Port Impedance         50               0                50               0                
23.2                           0.0927047458438784 79.6240877979419 0.993987791955733 -9.32382250050325 0.993987791955733 -9.32382250050325 0.0927048526429445 79.6201367958997 
! Gamma         0                0                0                0                
! Port Impedance         50               0                50               0                
23.3                           0.0930934628955927 79.5866733405941 0.993947935288442 -9.36353397868295 0.993947935288442 -9.36353397868295 0.0930935704538436 79.5827052238891 
! Gamma         0                0                0                0                
! Port Impedance         50               0                50               0                
23.4                           0.093482084272868 79.5492469757174 0.993907942655037 -9.40324171644552 0.993907942655037 -9.40324171644552 0.0934821925961562 79.5452617408026 
! Gamma         0                0                0                0                
! Port Impedance         50               0                50               0                
23.5                           0.0938706096374993 79.5118088712036 0.993867814153507 -9.4429457038671 0.993867814153507 -9.4429457038671 0.0938707187316468 79.507806514485  
! Gamma         0                0                0                0                
! Port Impedance         50               0                50               0                
23.6                           0.09425903865146 79.4743591933673 0.993827549882852 -9.48264593104846 0.993827549882852 -9.48264593104846 0.0942591485222571 79.4703397112053 
! Gamma         0                0                0                0                
! Port Impedance         50               0                50               0                
23.7                           0.0946473709769258 79.4368981069564 0.99378714994306 -9.52234238811475 0.99378714994306 -9.52234238811475 0.0946474816301292 79.4328614956678 
! Gamma         0                0                0                0                
! Port Impedance         50               0                50               0                
23.8                           0.0950356062762969 79.3994257751637 0.993746614435079 -9.56203506521527 0.993746614435079 -9.56203506521527 0.0950357177176287 79.3953720310228 
! Gamma         0                0                0                0                
! Port Impedance         50               0                50               0                
23.9                           0.0954237442122209 79.361942359637  0.993705943460792 -9.60172395252325 0.993705943460792 -9.60172395252325 0.0954238564473665 79.3578714788774 
! Gamma         0                0                0                0                
! Port Impedance         50               0                50               0                
24                             0.0958117844476129 79.3244480204905 0.993665137122994 -9.64140904023563 0.993665137122994 -9.64140904023563 0.0958118974822203 79.3203599993064 
! Gamma         0                0                0                0                
! Port Impedance         50               0                50               0                
24.1                           0.0961997266456764 79.2869429163158 0.99362419552537 -9.68109031857274 0.99362419552537 -9.68109031857274 0.0961998404853544 79.2828377508636 
! Gamma         0                0                0                0                
! Port Impedance         50               0                50               0                
24.2                           0.0965875704699226 79.2494272041928 0.993583118772472 -9.72076777777808 0.993583118772472 -9.72076777777808 0.0965876851202394 79.2453048905922 
! Gamma         0                0                0                0                
! Port Impedance         50               0                50               0                
24.3                           0.0969753155841889 79.2119010397007 0.993541906969696 -9.76044140811807 0.993541906969696 -9.76044140811807 0.0969754310506713 79.2077615740365 
! Gamma         0                0                0                0                
! Port Impedance         50               0                50               0                
24.4                           0.0973629616526569 79.1743645769295 0.993500560223262 -9.80011119988173 0.993500560223262 -9.80011119988173 0.0973630779407885 79.1702079552527 
! Gamma         0                0                0                0                
! Port Impedance         50               0                50               0                
24.5                           0.0977505083398697 79.1368179684907 0.993459078640194 -9.83977714338041 0.993459078640194 -9.83977714338041 0.0977506254550903 79.1326441868198 
! Gamma         0                0                0                0                
! Port Impedance         50               0                50               0                
24.6                           0.0981379553107485 79.0992613655286 0.993417462328299 -9.87943922894752 0.993417462328299 -9.87943922894752 0.0981380732584524 79.0950704198511 
! Gamma         0                0                0                0                
! Port Impedance         50               0                50               0                
24.7                           0.098525302230608 79.0616949177318 0.99337571139615 -9.91909744693825 0.99337571139615 -9.91909744693825 0.0985254210161433 79.0574868040053 
! Gamma         0                0                0                0                
! Port Impedance         50               0                50               0                
24.8                           0.0989125487651718 79.024118773344  0.993333825953066 -9.9587517877292 0.993333825953066 -9.9587517877292 0.0989126683938392 79.0198934874975 
! Gamma         0                0                0                0                
! Port Impedance         50               0                50               0                
24.9                           0.0992996945805873 78.9865330791754 0.993291806109093 -9.99840224171819 0.993291806109093 -9.99840224171819 0.0992998150576391 78.9822906171104 
! Gamma         0                0                0                0                
! Port Impedance         50               0                50               0                
25                             0.0996867393434389 78.9489379806139 0.993249651974989 -10.0380487993239 0.993249651974989 -10.0380487993239 0.099686860674078 78.944678338206  
! Gamma         0                0                0                0                
! Port Impedance         50               0                50               0                
25.1                           0.100073682720762 78.9113336216365 0.993207363662206 -10.0776914509855 0.993207363662206 -10.0776914509855 0.100073804910141 78.9070567947361 
! Gamma         0                0                0                0                
! Port Impedance         50               0                50               0                
25.2                           0.100460524380054 78.8737201448202 0.993164941282874 -10.1173301871624 0.993164941282874 -10.1173301871624 0.100460647433274 78.8694261292539 
! Gamma         0                0                0                0                
! Port Impedance         50               0                50               0                
25.3                           0.100847263989291 78.8360976913537 0.993122384949784 -10.1569649983341 0.993122384949784 -10.1569649983341 0.100847387911401 78.8317864829255 
! Gamma         0                0                0                0                
! Port Impedance         50               0                50               0                
25.4                           0.101233901216932 78.7984664010483 0.993079694776376 -10.1965958749996 0.993079694776376 -10.1965958749996 0.101234026012929 78.7941379955405 
! Gamma         0                0                0                0                
! Port Impedance         50               0                50               0                
25.5                           0.101620435731938 78.7608264123494 0.993036870876722 -10.2362228076773 0.993036870876722 -10.2362228076773 0.101620561406764 78.7564808055238 
! Gamma         0                0                0                0                
! Port Impedance         50               0                50               0                
25.6                           0.102006867203777 78.7231778623476 0.992993913365509 -10.2758457869044 0.992993913365509 -10.2758457869044 0.10200699376232 78.7188150499464 
! Gamma         0                0                0                0                
! Port Impedance         50               0                50               0                
25.7                           0.102393195302436 78.6855208867898 0.992950822358033 -10.3154648032371 0.992950822358033 -10.3154648032371 0.102393322749529 78.6811408645368 
! Gamma         0                0                0                0                
! Port Impedance         50               0                50               0                
25.8                           0.10277941969843 78.6478556200908 0.992907597970178 -10.3550798472498 0.992907597970178 -10.3550798472498 0.10277954803885 78.6434583836925 
! Gamma         0                0                0                0                
! Port Impedance         50               0                50               0                
25.9                           0.103165540062815 78.6101821953442 0.992864240318407 -10.3946909095349 0.992864240318407 -10.3946909095349 0.103165669301281 78.6057677404904 
! Gamma         0                0                0                0                
! Port Impedance         50               0                50               0                
26                             0.103551556067188 78.5725007443335 0.992820749519749 -10.4342979807029 0.992820749519749 -10.4342979807029 0.103551686208365 78.5680690666986 
! Gamma         0                0                0                0                
! Port Impedance         50               0                50               0                
26.1                           0.103937467383706 78.5348113975437 0.992777125691786 -10.4739010513813 0.992777125691786 -10.4739010513813 0.103937598432198 78.5303624927876 
! Gamma         0                0                0                0                
! Port Impedance         50               0                50               0                
26.2                           0.104323273685085 78.4971142841719 0.992733368952645 -10.5135001122151 0.992733368952645 -10.5135001122151 0.10432340564544 78.4926481479407 
! Gamma         0                0                0                0                
! Port Impedance         50               0                50               0                
26.3                           0.104708974644613 78.4594095321389 0.99268947942098 -10.553095153866 0.99268947942098 -10.553095153866 0.104709107521318 78.4549261600662 
! Gamma         0                0                0                0                
! Port Impedance         50               0                50               0                
26.4                           0.105094569936154 78.4216972680998 0.99264545721597 -10.5926861670122 0.99264545721597 -10.5926861670122 0.105094703733638 78.4171966558071 
! Gamma         0                0                0                0                
! Port Impedance         50               0                50               0                
26.5                           0.105480059234156 78.3839776174557 0.9926013024573  -10.6322731423482 0.9926013024573  -10.6322731423482 0.105480193956789 78.3794597605536 
! Gamma         0                0                0                0                
! Port Impedance         50               0                50               0                
26.6                           0.105865442213658 78.3462507043639 0.992557015265159 -10.6718560705845 0.992557015265159 -10.6718560705845 0.105865577865747 78.3417155984528 
! Gamma         0                0                0                0                
! Port Impedance         50               0                50               0                
26.7                           0.106250718550294 78.3085166517496 0.992512595760223 -10.711434942447 0.992512595760223 -10.711434942447 0.106250855136088 78.3039642924204 
! Gamma         0                0                0                0                
! Port Impedance         50               0                50               0                
26.8                           0.1066358879203  78.2707755813165 0.992468044063651 -10.7510097486772 0.992468044063651 -10.7510097486772 0.106636025443985 78.2662059641518 
! Gamma         0                0                0                0                
! Port Impedance         50               0                50               0                
26.9                           0.107020950000519 78.2330276135577 0.992423360297073 -10.7905804800316 0.992423360297073 -10.7905804800316 0.107021088466221 78.2284407341321 
! Gamma         0                0                0                0                
! Port Impedance         50               0                50               0                
27                             0.107405904468408 78.1952728677667 0.992378544582585 -10.8301471272813 0.992378544582585 -10.8301471272813 0.10740604388019 78.1906687216478 
! Gamma         0                0                0                0                
! Port Impedance         50               0                50               0                
27.1                           0.107790751002036 78.1575114620482 0.992333597042735 -10.869709681212 0.992333597042735 -10.869709681212 0.1077908913639  78.1528900447973 
! Gamma         0                0                0                0                
! Port Impedance         50               0                50               0                
27.2                           0.108175489280098 78.1197435133288 0.992288517800519 -10.9092681326237 0.992288517800519 -10.9092681326237 0.108175630595983 78.1151048205017 
! Gamma         0                0                0                0                
! Port Impedance         50               0                50               0                
27.3                           0.108560118981912 78.0819691373678 0.992243306979375 -10.94882247233  0.992243306979375 -10.94882247233  0.108560261255694 78.0773131645154 
! Gamma         0                0                0                0                
! Port Impedance         50               0                50               0                
27.4                           0.108944639787424 78.044188448768  0.992197964703171 -10.9883726911586 0.992197964703171 -10.9883726911586 0.108944783022917 78.0395151914369 
! Gamma         0                0                0                0                
! Port Impedance         50               0                50               0                
27.5                           0.109329051377214 78.006401560986  0.9921524910962  -11.0279187799501 0.9921524910962  -11.0279187799501 0.109329195578169 78.0017110147193 
! Gamma         0                0                0                0                
! Port Impedance         50               0                50               0                
27.6                           0.109713353432497 77.9686085863432 0.992106886283173 -11.0674607295586 0.992106886283173 -11.0674607295586 0.109713498602601 77.9639007466811 
! Gamma         0                0                0                0                
! Port Impedance         50               0                50               0                
27.7                           0.110097545635127 77.9308096360359 0.992061150389214 -11.1069985308506 0.992061150389214 -11.1069985308506 0.110097691778004 77.9260844985164 
! Gamma         0                0                0                0                
! Port Impedance         50               0                50               0                
27.8                           0.110481627667599 77.8930048201463 0.992015283539851 -11.1465321747057 0.992015283539851 -11.1465321747057 0.11048177478681 77.8882623803058 
! Gamma         0                0                0                0                
! Port Impedance         50               0                50               0                
27.9                           0.110865599213054 77.8551942476525 0.991969285861012 -11.1860616520154 0.991969285861012 -11.1860616520154 0.110865747312095 77.8504345010262 
! Gamma         0                0                0                0                
! Port Impedance         50               0                50               0                
28                             0.111249459955276 77.817378026439  0.991923157479017 -11.2255869536835 0.991923157479017 -11.2255869536835 0.111249609037581 77.8126009685617 
! Gamma         0                0                0                0                
! Port Impedance         50               0                50               0                
28.1                           0.111633209578701 77.7795562633072 0.991876898520576 -11.2651080706255 0.991876898520576 -11.2651080706255 0.111633359647639 77.7747618897138 
! Gamma         0                0                0                0                
! Port Impedance         50               0                50               0                
28.2                           0.112016847768412 77.7417290639853 0.991830509112779 -11.3046249937686 0.991830509112779 -11.3046249937686 0.11201699882729 77.7369173702114 
! Gamma         0                0                0                0                
! Port Impedance         50               0                50               0                
28.3                           0.112400374210148 77.7038965331388 0.991783989383095 -11.3441377140512 0.991783989383095 -11.3441377140512 0.112400526262208 77.6990675147212 
! Gamma         0                0                0                0                
! Port Impedance         50               0                50               0                
28.4                           0.112783788590298 77.6660587743806 0.991737339459365 -11.383646222423 0.991737339459365 -11.383646222423 0.112783941638717 77.6612124268576 
! Gamma         0                0                0                0                
! Port Impedance         50               0                50               0                
28.5                           0.113167090595908 77.628215890281  0.991690559469798 -11.4231505098443 0.991690559469798 -11.4231505098443 0.113167244643801 77.6233522091932 
! Gamma         0                0                0                0                
! Port Impedance         50               0                50               0                
28.6                           0.113550279914678 77.5903679823776 0.991643649542964 -11.4626505672864 0.991643649542964 -11.4626505672864 0.113550434965096 77.5854869632684 
! Gamma         0                0                0                0                
! Port Impedance         50               0                50               0                
28.7                           0.113933356234967 77.5525151511855 0.991596609807794 -11.5021463857308 0.991596609807794 -11.5021463857308 0.113933512290897 77.5476167896014 
! Gamma         0                0                0                0                
! Port Impedance         50               0                50               0                
28.8                           0.114316319245791 77.5146574962072 0.991549440393575 -11.5416379561692 0.991549440393575 -11.5416379561692 0.114316476310155 77.5097417876982 
! Gamma         0                0                0                0                
! Port Impedance         50               0                50               0                
28.9                           0.114699168636823 77.4767951159422 0.991502141429941 -11.5811252696035 0.991502141429941 -11.5811252696035 0.114699326712482 77.4718620560624 
! Gamma         0                0                0                0                
! Port Impedance         50               0                50               0                
29                             0.115081904098396 77.4389281078968 0.991454713046877 -11.6206083170452 0.991454713046877 -11.6206083170452 0.115082063188147 77.4339776922049 
! Gamma         0                0                0                0                
! Port Impedance         50               0                50               0                
29.1                           0.115464525321501 77.4010565685941 0.991407155374708 -11.6600870895155 0.991407155374708 -11.6600870895155 0.115464685428077 77.3960887926535 
! Gamma         0                0                0                0                
! Port Impedance         50               0                50               0                
29.2                           0.115847031997789 77.3631805935831 0.991359468544102 -11.6995615780449 0.991359468544102 -11.6995615780449 0.11584719312386 77.3581954529629 
! Gamma         0                0                0                0                
! Port Impedance         50               0                50               0                
29.3                           0.116229423819571 77.3253002774489 0.991311652686061 -11.7390317736733 0.991311652686061 -11.7390317736733 0.116229585967743 77.3202977677235 
! Gamma         0                0                0                0                
! Port Impedance         50               0                50               0                
29.4                           0.116611700479814 77.2874157138219 0.991263707931923 -11.7784976674494 0.991263707931923 -11.7784976674494 0.116611863652632 77.2823958305719 
! Gamma         0                0                0                0                
! Port Impedance         50               0                50               0                
29.5                           0.116993861672145 77.2495269953868 0.991215634413355 -11.8179592504308 0.991215634413355 -11.8179592504308 0.116994025872093 77.2444897341994 
! Gamma         0                0                0                0                
! Port Impedance         50               0                50               0                
29.6                           0.117375907090852 77.2116342138929 0.991167432262355 -11.8574165136839 0.991167432262355 -11.8574165136839 0.117376072320347 77.2065795703619 
! Gamma         0                0                0                0                
! Port Impedance         50               0                50               0                
29.7                           0.117757836430877 77.1737374601625 0.991119101611241 -11.8968694482834 0.991119101611241 -11.8968694482834 0.117758002692277 77.1686654298889 
! Gamma         0                0                0                0                
! Port Impedance         50               0                50               0                
29.8                           0.11813964938782 77.1358368241008 0.99107064259266 -11.9363180453122 0.99107064259266 -11.9363180453122 0.118139816683421 77.1307474026932 
! Gamma         0                0                0                0                
! Port Impedance         50               0                50               0                
29.9                           0.118521345657939 77.0979323947046 0.991022055339574 -11.9757622958617 0.991022055339574 -11.9757622958617 0.118521513989975 77.0928255777793 
! Gamma         0                0                0                0                
! Port Impedance         50               0                50               0                
30                             0.118902924938147 77.0600242600717 0.990973339985265 -12.015202191031 0.990973339985265 -12.015202191031 0.11890309430879 77.054900043253  
! Gamma         0                0                0                0                
! Port Impedance         50               0                50               0                
30.1                           0.119284386926009 77.0221125074097 0.990924496663333 -12.0546377219271 0.990924496663333 -12.0546377219271 0.119284557337371 77.0169708863304 
! Gamma         0                0                0                0                
! Port Impedance         50               0                50               0                
30.2                           0.119665731319748 76.9841972230451 0.99087552550769 -12.0940688796647 0.99087552550769 -12.0940688796647 0.11966590277388 76.9790381933467 
! Gamma         0                0                0                0                
! Port Impedance         50               0                50               0                
30.3                           0.120046957818236 76.9462784924322 0.990826426652559 -12.1334956553659 0.990826426652559 -12.1334956553659 0.120047130317128 76.941102049765  
! Gamma         0                0                0                0                
! Port Impedance         50               0                50               0                
30.4                           0.120428066120998 76.9083564001617 0.990777200232474 -12.1729180401603 0.990777200232474 -12.1729180401603 0.12042823966658 76.9031625401854 
! Gamma         0                0                0                0                
! Port Impedance         50               0                50               0                
30.5                           0.120809055928206 76.8704310299698 0.99072784638228 -12.2123360251847 0.99072784638228 -12.2123360251847 0.120809230522349 76.8652197483534 
! Gamma         0                0                0                0                
! Port Impedance         50               0                50               0                
30.6                           0.121189926940684 76.8325024647467 0.990678365237125 -12.2517496015831 0.990678365237125 -12.2517496015831 0.121190102585199 76.827273757169  
! Gamma         0                0                0                0                
! Port Impedance         50               0                50               0                
30.7                           0.1215706788599  76.7945707865451 0.990628756932465 -12.2911587605063 0.990628756932465 -12.2911587605063 0.121570855556539 76.7893246486946 
! Gamma         0                0                0                0                
! Port Impedance         50               0                50               0                
30.8                           0.121951311387969 76.7566360765887 0.990579021604059 -12.330563493112 0.990579021604059 -12.330563493112 0.121951489138426 76.7513725041645 
! Gamma         0                0                0                0                
! Port Impedance         50               0                50               0                
30.9                           0.122331824227649 76.7186984152812 0.990529159387969 -12.3699637905647 0.990529159387969 -12.3699637905647 0.122332003033559 76.7134174039923 
! Gamma         0                0                0                0                
! Port Impedance         50               0                50               0                
31                             0.122712217082341 76.6807578822139 0.990479170420559 -12.4093596440355 0.990479170420559 -12.4093596440355 0.12271239694528 76.6754594277802 
! Gamma         0                0                0                0                
! Port Impedance         50               0                50               0                
31.1                           0.123092489656083 76.6428145561748 0.990429054838493 -12.448751044702 0.990429054838493 -12.448751044702 0.123092670577572 76.6374986543267 
! Gamma         0                0                0                0                
! Port Impedance         50               0                50               0                
31.2                           0.123472641653554 76.6048685151563 0.990378812778734 -12.488137983748 0.990378812778734 -12.488137983748 0.123472823635057 76.5995351616354 
! Gamma         0                0                0                0                
! Port Impedance         50               0                50               0                
31.3                           0.123852672780069 76.5669198363637 0.990328444378543 -12.5275204523638 0.990328444378543 -12.5275204523638 0.123852855822991 76.5615690269224 
! Gamma         0                0                0                0                
! Port Impedance         50               0                50               0                
31.4                           0.124232582741578 76.5289685962231 0.99027794977548 -12.5668984417459 0.99027794977548 -12.5668984417459 0.124232766847268 76.5236003266253 
! Gamma         0                0                0                0                
! Port Impedance         50               0                50               0                
31.5                           0.124612371244661 76.4910148703896 0.9902273291074  -12.6062719430968 0.9902273291074  -12.6062719430968 0.124612556414414 76.4856291364107 
! Gamma         0                0                0                0                
! Port Impedance         50               0                50               0                
31.6                           0.124992037996529 76.4530587337555 0.990176582512454 -12.6456409476249 0.990176582512454 -12.6456409476249 0.124992224231586 76.4476555311822 
! Gamma         0                0                0                0                
! Port Impedance         50               0                50               0                
31.7                           0.125371582705024 76.4151002604577 0.990125710129091 -12.6850054465446 0.990125710129091 -12.6850054465446 0.125371770006567 76.4096795850887 
! Gamma         0                0                0                0                
! Port Impedance         50               0                50               0                
31.8                           0.125751005078609 76.377139523886  0.990074712096049 -12.7243654310761 0.990074712096049 -12.7243654310761 0.125751193447769 76.3717013715316 
! Gamma         0                0                0                0                
! Port Impedance         50               0                50               0                
31.9                           0.126130304826376 76.3391765966905 0.990023588552366 -12.7637208924455 0.990023588552366 -12.7637208924455 0.126130494264228 76.3337209631732 
! Gamma         0                0                0                0                
! Port Impedance         50               0                50               0                
32                             0.126509481658033 76.3012115507898 0.98997233963737 -12.8030718218843 0.98997233963737 -12.8030718218843 0.126509672165601 76.2957384319441 
! Gamma         0                0                0                0                
! Port Impedance         50               0                50               0                
32.1                           0.126888535283912 76.2632444573781 0.989920965490682 -12.8424182106297 0.989920965490682 -12.8424182106297 0.126888726862166 76.2577538490507 
! Gamma         0                0                0                0                
! Port Impedance         50               0                50               0                
32.2                           0.127267465414958 76.2252753869333 0.989869466252217 -12.8817600499244 0.989869466252217 -12.8817600499244 0.127267658064815 76.2197672849832 
! Gamma         0                0                0                0                
! Port Impedance         50               0                50               0                
32.3                           0.127646271762733 76.187304409224  0.989817842062181 -12.9210973310167 0.989817842062181 -12.9210973310167 0.127646465485059 76.1817788095226 
! Gamma         0                0                0                0                
! Port Impedance         50               0                50               0                
32.4                           0.128024954039409 76.1493315933173 0.989766093061073 -12.9604300451601 0.989766093061073 -12.9604300451601 0.128025148835019 76.1437884917484 
! Gamma         0                0                0                0                
! Port Impedance         50               0                50               0                
32.5                           0.128403511957768 76.111357007586  0.989714219389685 -12.9997581836134 0.989714219389685 -12.9997581836134 0.128403707827426 76.1057964000462 
! Gamma         0                0                0                0                
! Port Impedance         50               0                50               0                
32.6                           0.1287819452312  76.0733807197162 0.989662221189096 -13.0390817376408 0.989662221189096 -13.0390817376408 0.128782142175619 76.0678026021144 
! Gamma         0                0                0                0                
! Port Impedance         50               0                50               0                
32.7                           0.129160253573698 76.0354027967139 0.989610098600681 -13.0784006985118 0.989610098600681 -13.0784006985118 0.129160451593542 76.029807164972  
! Gamma         0                0                0                0                
! Port Impedance         50               0                50               0                
32.8                           0.129538436699858 75.9974233049129 0.989557851766104 -13.1177150575009 0.989557851766104 -13.1177150575009 0.129538635795742 75.9918101549653 
! Gamma         0                0                0                0                
! Port Impedance         50               0                50               0                
32.9                           0.129916494324874 75.9594423099815 0.989505480827321 -13.1570248058878 0.989505480827321 -13.1570248058878 0.129916694497365 75.9538116377756 
! Gamma         0                0                0                0                
! Port Impedance         50               0                50               0                
33                             0.130294426164538 75.9214598769295 0.989452985926578 -13.1963299349573 0.989452985926578 -13.1963299349573 0.130294627414154 75.9158116784255 
! Gamma         0                0                0                0                
! Port Impedance         50               0                50               0                
33.1                           0.130672231935235 75.8834760701156 0.989400367206414 -13.2356304359993 0.989400367206414 -13.2356304359993 0.130672434262448 75.8778103412865 
! Gamma         0                0                0                0                
! Port Impedance         50               0                50               0                
33.2                           0.131049911353943 75.8454909532538 0.989347624809657 -13.2749263003085 0.989347624809657 -13.2749263003085 0.131050114759176 75.8398076900855 
! Gamma         0                0                0                0                
! Port Impedance         50               0                50               0                
33.3                           0.131427464138227 75.8075045894204 0.989294758879427 -13.314217519185 0.989294758879427 -13.314217519185 0.131427668621858 75.8018037879119 
! Gamma         0                0                0                0                
! Port Impedance         50               0                50               0                
33.4                           0.131804890006239 75.769517041061  0.989241769559135 -13.3535040839333 0.989241769559135 -13.3535040839333 0.1318050955686  75.7637986972242 
! Gamma         0                0                0                0                
! Port Impedance         50               0                50               0                
33.5                           0.132182188676715 75.7315283699971 0.989188656992485 -13.3927859858634 0.989188656992484 -13.3927859858634 0.132182395318093 75.7257924798568 
! Gamma         0                0                0                0                
! Port Impedance         50               0                50               0                
33.6                           0.132559359868969 75.6935386374326 0.989135421323469 -13.4320632162897 0.989135421323469 -13.4320632162897 0.132559567589608 75.6877851970268 
! Gamma         0                0                0                0                
! Port Impedance         50               0                50               0                
33.7                           0.132936403302897 75.6555479039607 0.989082062696374 -13.471335766532 0.989082062696375 -13.471335766532 0.132936612102994 75.6497769093401 
! Gamma         0                0                0                0                
! Port Impedance         50               0                50               0                
33.8                           0.133313318698968 75.61755622957   0.989028581255777 -13.5106036279144 0.989028581255777 -13.5106036279144 0.133313528578679 75.6117676767985 
! Gamma         0                0                0                0                
! Port Impedance         50               0                50               0                
33.9                           0.133690105778223 75.5795636736514 0.988974977146548 -13.5498667917664 0.988974977146548 -13.5498667917664 0.133690316737661 75.5737575588059 
! Gamma         0                0                0                0                
! Port Impedance         50               0                50               0                
34                             0.134066764262274 75.5415702950042 0.988921250513848 -13.5891252494221 0.988921250513848 -13.5891252494221 0.134066976301509 75.5357466141746 
! Gamma         0                0                0                0                
! Port Impedance         50               0                50               0                
34.1                           0.134443293873299 75.5035761518429 0.988867401503131 -13.6283789922203 0.988867401503131 -13.6283789922203 0.13444350699236 75.4977349011319 
! Gamma         0                0                0                0                
! Port Impedance         50               0                50               0                
34.2                           0.134819694334041 75.4655813018027 0.988813430260143 -13.6676280115049 0.988813430260143 -13.6676280115049 0.134819908532917 75.4597224773261 
! Gamma         0                0                0                0                
! Port Impedance         50               0                50               0                
34.3                           0.135195965367804 75.4275858019466 0.988759336930925 -13.7068722986244 0.988759336930925 -13.7068722986244 0.135196180646442 75.4217093998329 
! Gamma         0                0                0                0                
! Port Impedance         50               0                50               0                
34.4                           0.13557210669845 75.3895897087707 0.988705121661809 -13.7461118449323 0.988705121661809 -13.7461118449323 0.13557232305676 75.3836957251616 
! Gamma         0                0                0                0                
! Port Impedance         50               0                50               0                
34.5                           0.1359481180504  75.3515930782112 0.988650784599422 -13.785346641787 0.988650784599422 -13.785346641787 0.135948335488251 75.345681509261  
! Gamma         0                0                0                0                
! Port Impedance         50               0                50               0                
34.6                           0.136323999148624 75.3135959656498 0.988596325890683 -13.8245766805515 0.988596325890683 -13.8245766805515 0.136324217665846 75.3076668075256 
! Gamma         0                0                0                0                
! Port Impedance         50               0                50               0                
34.7                           0.136699749718644 75.2755984259197 0.988541745682808 -13.8638019525937 0.988541745682808 -13.8638019525937 0.136699969315032 75.2696516748016 
! Gamma         0                0                0                0                
! Port Impedance         50               0                50               0                
34.8                           0.137075369486531 75.2376005133119 0.988487044123305 -13.9030224492865 0.988487044123305 -13.9030224492865 0.13707559016184 75.2316361653926 
! Gamma         0                0                0                0                
! Port Impedance         50               0                50               0                
34.9                           0.137450858178899 75.199602281581  0.988432221359977 -13.9422381620076 0.988432221359977 -13.9422381620076 0.137451079932848 75.1936203330657 
! Gamma         0                0                0                0                
! Port Impedance         50               0                50               0                
35                             0.137826215522904 75.1616037839506 0.988377277540925 -13.9814490821396 0.988377277540925 -13.9814490821396 0.137826438355178 75.1556042310573 
! Gamma         0                0                0                0                
! Port Impedance         50               0                50               0                
35.1                           0.138201441246242 75.1236050731195 0.988322212814541 -14.0206552010699 0.988322212814541 -14.0206552010699 0.138201665156489 75.1175879120786 
! Gamma         0                0                0                0                
! Port Impedance         50               0                50               0                
35.2                           0.138576535077145 75.0856062012671 0.988267027329517 -14.059856510191 0.988267027329517 -14.059856510191 0.13857676006498 75.0795714283217 
! Gamma         0                0                0                0                
! Port Impedance         50               0                50               0                
35.3                           0.138951496744378 75.0476072200594 0.988211721234838 -14.0990530009001 0.988211721234838 -14.0990530009001 0.138951722809381 75.0415548314647 
! Gamma         0                0                0                0                
! Port Impedance         50               0                50               0                
35.4                           0.139326325977239 75.0096081806541 0.988156294679789 -14.1382446645996 0.988156294679789 -14.1382446645996 0.139326553118957 75.0035381726779 
! Gamma         0                0                0                0                
! Port Impedance         50               0                50               0                
35.5                           0.139701022505551 74.9716091337066 0.988100747813949 -14.1774314926967 0.988100747813949 -14.1774314926967 0.139701250723498 74.9655215026288 
! Gamma         0                0                0                0                
! Port Impedance         50               0                50               0                
35.6                           0.140075586059666 74.933610129375  0.988045080787196 -14.2166134766038 0.988045080787196 -14.2166134766038 0.140075815353324 74.9275048714878 
! Gamma         0                0                0                0                
! Port Impedance         50               0                50               0                
35.7                           0.140450016370455 74.895611217326  0.987989293749704 -14.2557906077382 0.987989293749704 -14.2557906077382 0.140450246739275 74.8894883289337 
! Gamma         0                0                0                0                
! Port Impedance         50               0                50               0                
35.8                           0.140824313169312 74.85761244674   0.987933386851949 -14.2949628775223 0.987933386851949 -14.2949628775223 0.140824544612714 74.8514719241587 
! Gamma         0                0                0                0                
! Port Impedance         50               0                50               0                
35.9                           0.141198476188145 74.8196138663163 0.9878773602447  -14.3341302773838 0.9878773602447  -14.3341302773838 0.141198708705519 74.8134557058744 
! Gamma         0                0                0                0                
! Port Impedance         50               0                50               0                
36                             0.141572505159379 74.7816155242786 0.98782121407903 -14.3732927987553 0.98782121407903 -14.3732927987553 0.141572738750085 74.7754397223161 
! Gamma         0                0                0                0                
! Port Impedance         50               0                50               0                
36.1                           0.141946399815949 74.7436174683802 0.987764948506307 -14.4124504330747 0.987764948506307 -14.4124504330747 0.14194663447932 74.7374240212488 
! Gamma         0                0                0                0                
! Port Impedance         50               0                50               0                
36.2                           0.142320159891301 74.7056197459089 0.987708563678203 -14.451603171785 0.987708563678203 -14.451603171785 0.14232039562664 74.699408649972  
! Gamma         0                0                0                0                
! Port Impedance         50               0                50               0                
36.3                           0.142693785119384 74.6676224036923 0.987652059746685 -14.4907510063348 0.987652059746685 -14.4907510063348 0.142694021925968 74.6613936553249 
! Gamma         0                0                0                0                
! Port Impedance         50               0                50               0                
36.4                           0.143067275234655 74.6296254881028 0.987595436864025 -14.5298939281777 0.987595436864025 -14.5298939281777 0.143067513111732 74.6233790836912 
! Gamma         0                0                0                0                
! Port Impedance         50               0                50               0                
36.5                           0.143440629972067 74.5916290450627 0.987538695182793 -14.5690319287727 0.987538695182793 -14.5690319287727 0.143440868918862 74.5853649810047 
! Gamma         0                0                0                0                
! Port Impedance         50               0                50               0                
36.6                           0.143813849067076 74.5536331200488 0.987481834855861 -14.6081649995842 0.987481834855861 -14.6081649995842 0.143814089082784 74.5473513927533 
! Gamma         0                0                0                0                
! Port Impedance         50               0                50               0                
36.7                           0.144186932255629 74.5156377580977 0.987424856036402 -14.6472931320823 0.987424856036402 -14.6472931320823 0.144187173339424 74.5093383639848 
! Gamma         0                0                0                0                
! Port Impedance         50               0                50               0                
36.8                           0.14455987927417 74.4776430038105 0.987367758877891 -14.6864163177421 0.987367758877891 -14.6864163177421 0.1445601214252  74.4713259393112 
! Gamma         0                0                0                0                
! Port Impedance         50               0                50               0                
36.9                           0.144932689859631 74.4396489013576 0.987310543534105 -14.7255345480449 0.987310543534105 -14.7255345480448 0.144932933077021 74.4333141629137 
! Gamma         0                0                0                0                
! Port Impedance         50               0                50               0                
37                             0.145305363749433 74.4016554944832 0.987253210159125 -14.7646478144769 0.987253210159125 -14.7646478144769 0.145305608032284 74.3953030785474 
! Gamma         0                0                0                0                
! Port Impedance         50               0                50               0                
37.1                           0.145677900681481 74.3636628265103 0.987195758907332 -14.8037561085305 0.987195758907332 -14.8037561085305 0.145678146028872 74.357292729546  
! Gamma         0                0                0                0                
! Port Impedance         50               0                50               0                
37.2                           0.146050300394163 74.3256709403454 0.987138189933412 -14.8428594217035 0.987138189933412 -14.8428594217035 0.146050546805151 74.3192831588264 
! Gamma         0                0                0                0                
! Port Impedance         50               0                50               0                
37.3                           0.146422562626347 74.2876798784829 0.987080503392355 -14.8819577454996 0.987080503392355 -14.8819577454996 0.146422810099969 74.2812744088934 
! Gamma         0                0                0                0                
! Port Impedance         50               0                50               0                
37.4                           0.146794687117379 74.2496896830097 0.987022699439453 -14.9210510714284 0.987022699439453 -14.9210510714284 0.14679493565265 74.2432665218441 
! Gamma         0                0                0                0                
! Port Impedance         50               0                50               0                
37.5                           0.147166673607079 74.2117003956096 0.986964778230303 -14.9601393910051 0.986964778230303 -14.9601393910051 0.147166923202996 74.2052595393726 
! Gamma         0                0                0                0                
! Port Impedance         50               0                50               0                
37.6                           0.14753852183574 74.173712057568  0.986906739920806 -14.9992226957511 0.986906739920806 -14.9992226957511 0.147538772491279 74.1672535027741 
! Gamma         0                0                0                0                
! Port Impedance         50               0                50               0                
37.7                           0.147910231544125 74.1357247097762 0.986848584667168 -15.0383009771938 0.986848584667168 -15.0383009771938 0.147910483258245 74.1292484529499 
! Gamma         0                0                0                0                
! Port Impedance         50               0                50               0                
37.8                           0.148281802473465 74.0977383927358 0.986790312625901 -15.0773742268665 0.986790312625901 -15.0773742268665 0.148282055245104 74.0912444304111 
! Gamma         0                0                0                0                
! Port Impedance         50               0                50               0                
37.9                           0.148653234365454 74.0597531465627 0.986731923953819 -15.1164424363087 0.986731923953819 -15.1164424363087 0.148653488193536 74.0532414752836 
! Gamma         0                0                0                0                
! Port Impedance         50               0                50               0                
38                             0.149024526962249 74.021769010992  0.986673418808045 -15.1555055970662 0.986673418808045 -15.1555055970662 0.149024781845681 74.0152396273116 
! Gamma         0                0                0                0                
! Port Impedance         50               0                50               0                
38.1                           0.14939568000647 73.9837860253818 0.986614797346006 -15.194563700691 0.986614797346006 -15.194563700691 0.14939593594414 73.9772389258626 
! Gamma         0                0                0                0                
! Port Impedance         50               0                50               0                
38.2                           0.149766693241191 73.9458042287173 0.986556059725434 -15.2336167387413 0.986556059725434 -15.2336167387413 0.149766950231973 73.9392394099311 
! Gamma         0                0                0                0                
! Port Impedance         50               0                50               0                
38.3                           0.150137566409942 73.9078236596154 0.986497206104369 -15.2726647027819 0.986497206104369 -15.2726647027819 0.150137824452697 73.9012411181428 
! Gamma         0                0                0                0                
! Port Impedance         50               0                50               0                
38.4                           0.150508299256708 73.8698443563281 0.986438236641156 -15.3117075843839 0.986438236641156 -15.3117075843839 0.150508558350281 73.8632440887588 
! Gamma         0                0                0                0                
! Port Impedance         50               0                50               0                
38.5                           0.150878891525922 73.8318663567475 0.986379151494448 -15.3507453751251 0.986379151494448 -15.3507453751251 0.150879151669144 73.8252483596798 
! Gamma         0                0                0                0                
! Port Impedance         50               0                50               0                
38.6                           0.151249342962467 73.7938896984089 0.986319950823202 -15.3897780665899 0.986319950823202 -15.3897780665899 0.151249604154156 73.7872539684497 
! Gamma         0                0                0                0                
! Port Impedance         50               0                50               0                
38.7                           0.151619653311671 73.7559144184955 0.986260634786686 -15.4288056503691 0.986260634786686 -15.4288056503691 0.151619915550633 73.7492609522601 
! Gamma         0                0                0                0                
! Port Impedance         50               0                50               0                
38.8                           0.151989822319305 73.7179405538415 0.98620120354447 -15.4678281180606 0.98620120354447 -15.4678281180606 0.151990085604334 73.7112693479537 
! Gamma         0                0                0                0                
! Port Impedance         50               0                50               0                
38.9                           0.152359849731583 73.679968140937  0.986141657256436 -15.5068454612689 0.986141657256436 -15.5068454612689 0.152360114061462 73.6732791920284 
! Gamma         0                0                0                0                
! Port Impedance         50               0                50               0                
39                             0.152729735295157 73.641997215931  0.98608199608277 -15.5458576716056 0.98608199608277 -15.5458576716056 0.152730000668657 73.6352905206415 
! Gamma         0                0                0                0                
! Port Impedance         50               0                50               0                
39.1                           0.153099478757114 73.6040278146358 0.986022220183968 -15.5848647406892 0.986022220183968 -15.5848647406892 0.153099745172998 73.597303369613  
! Gamma         0                0                0                0                
! Port Impedance         50               0                50               0                
39.2                           0.15346907986498 73.5660599725304 0.985962329720831 -15.623866660145 0.985962329720831 -15.623866660145 0.153469347322   73.5593177744294 
! Gamma         0                0                0                0                
! Port Impedance         50               0                50               0                
39.3                           0.153838538366709 73.5280937247642 0.985902324854471 -15.6628634216059 0.985902324854471 -15.6628634216059 0.153838806863608 73.5213337702479 
! Gamma         0                0                0                0                
! Port Impedance         50               0                50               0                
39.4                           0.154207854010687 73.490129106161  0.985842205746304 -15.7018550167116 0.985842205746304 -15.7018550167116 0.1542081235462  73.4833513918996 
! Gamma         0                0                0                0                
! Port Impedance         50               0                50               0                
39.5                           0.154577026545728 73.4521661512226 0.985781972558057 -15.7408414371093 0.985781972558057 -15.7408414371093 0.154577297118583 73.4453706738932 
! Gamma         0                0                0                0                
! Port Impedance         50               0                50               0                
39.6                           0.154946055721072 73.4142048941319 0.985721625451763 -15.7798226744535 0.985721625451763 -15.7798226744535 0.154946327329989 73.4073916504191 
! Gamma         0                0                0                0                
! Port Impedance         50               0                50               0                
39.7                           0.155314941286383 73.3762453687572 0.985661164589764 -15.8187987204062 0.985661164589764 -15.8187987204062 0.155315213930075 73.3694143553522 
! Gamma         0                0                0                0                
! Port Impedance         50               0                50               0                
39.8                           0.155683682991745 73.3382876086553 0.985600590134711 -15.8577695666369 0.985600590134711 -15.8577695666369 0.155683956668919 73.3314388222561 
! Gamma         0                0                0                0                
! Port Impedance         50               0                50               0                
39.9                           0.156052280587663 73.3003316470752 0.985539902249559 -15.8967352048226 0.985539902249559 -15.8967352048226 0.156052555297021 73.2934650843863 
! Gamma         0                0                0                0                
! Port Impedance         50               0                50               0                
40                             0.156420733825059 73.2623775169611 0.985479101097576 -15.9356956266481 0.985479101097576 -15.9356956266481 0.156421009565298 73.2554931746936 
! Gamma         0                0                0                0                
! Port Impedance         50               0                50               0                
40.1                           0.156789042455272 73.2244252509567 0.985418186842335 -15.974650823806 0.985418186842335 -15.974650823806 0.156789319225084 73.2175231258277 
! Gamma         0                0                0                0                
! Port Impedance         50               0                50               0                
40.2                           0.157157206230051 73.1864748814076 0.985357159647718 -16.0136007879967 0.985357159647718 -16.0136007879967 0.157157484028125 73.1795549701405 
! Gamma         0                0                0                0                
! Port Impedance         50               0                50               0                
40.3                           0.15752522490156 73.1485264403654 0.985296019677915 -16.0525455109285 0.985296019677915 -16.0525455109285 0.15752550372658 73.1415887396893 
! Gamma         0                0                0                0                
! Port Impedance         50               0                50               0                
40.4                           0.157893098222369 73.1105799595907 0.985234767097425 -16.0914849843177 0.985234767097425 -16.0914849843177 0.157893378073019 73.1036244662406 
! Gamma         0                0                0                0                
! Port Impedance         50               0                50               0                
40.5                           0.15826082594546 73.0726354705562 0.985173402071052 -16.1304191998889 0.985173402071052 -16.1304191998889 0.158261106820418 73.0656621812727 
! Gamma         0                0                0                0                
! Port Impedance         50               0                50               0                
40.6                           0.158628407824216 73.0346930044505 0.985111924763911 -16.1693481493745 0.985111924763911 -16.1693481493745 0.158628689722162 73.0277019159795 
! Gamma         0                0                0                0                
! Port Impedance         50               0                50               0                
40.7                           0.158995843612427 72.9967525921806 0.985050335341422 -16.2082718245156 0.985050335341422 -16.2082718245156 0.158996126532038 72.9897437012734 
! Gamma         0                0                0                0                
! Port Impedance         50               0                50               0                
40.8                           0.159363133064282 72.9588142643757 0.984988633969316 -16.2471902170614 0.984988633969316 -16.2471902170614 0.159363417004234 72.9517875677886 
! Gamma         0                0                0                0                
! Port Impedance         50               0                50               0                
40.9                           0.159730275934373 72.92087805139   0.984926820813628 -16.2861033187696 0.984926820813628 -16.2861033187696 0.159730560893342 72.9138335458842 
! Gamma         0                0                0                0                
! Port Impedance         50               0                50               0                
41                             0.160097271977686 72.8829439833058 0.984864896040703 -16.3250111214064 0.984864896040703 -16.3250111214064 0.160097557954349 72.8758816656474 
! Gamma         0                0                0                0                
! Port Impedance         50               0                50               0                
41.1                           0.160464120949608 72.8450120899367 0.984802859817191 -16.3639136167467 0.984802859817191 -16.3639136167467 0.160464407942642 72.8379319568963 
! Gamma         0                0                0                0                
! Port Impedance         50               0                50               0                
41.2                           0.160830822605916 72.8070824008308 0.984740712310052 -16.4028107965739 0.984740712310052 -16.4028107965739 0.160831110614   72.7999844491835 
! Gamma         0                0                0                0                
! Port Impedance         50               0                50               0                
41.3                           0.161197376702782 72.7691549452732 0.984678453686551 -16.4417026526805 0.984678453686551 -16.4417026526805 0.161197665724597 72.7620391717983 
! Gamma         0                0                0                0                
! Port Impedance         50               0                50               0                
41.4                           0.161563782996768 72.7312297522894 0.984616084114259 -16.4805891768675 0.984616084114259 -16.4805891768675 0.161564073030997 72.7240961537704 
! Gamma         0                0                0                0                
! Port Impedance         50               0                50               0                
41.5                           0.161930041244825 72.6933068506483 0.984553603761056 -16.5194703609452 0.984553603761056 -16.5194703609451 0.161930332290154 72.6861554238724 
! Gamma         0                0                0                0                
! Port Impedance         50               0                50               0                
41.6                           0.162296151204293 72.6553862688646 0.984491012795127 -16.5583461967326 0.984491012795127 -16.5583461967326 0.162296443259411 72.648217010623  
! Gamma         0                0                0                0                
! Port Impedance         50               0                50               0                
41.7                           0.162662112632896 72.6174680352023 0.984428311384962 -16.5972166760582 0.984428311384962 -16.5972166760582 0.162662405696495 72.6102809422898 
! Gamma         0                0                0                0                
! Port Impedance         50               0                50               0                
41.8                           0.163027925288741 72.579552177677  0.98436549969936 -16.6360817907595 0.98436549969936 -16.6360817907595 0.16302821935952 72.5723472468918 
! Gamma         0                0                0                0                
! Port Impedance         50               0                50               0                
41.9                           0.16339358893032 72.5416387240594 0.984302577907423 -16.6749415326833 0.984302577907423 -16.6749415326833 0.16339388400698 72.5344159522028 
! Gamma         0                0                0                0                
! Port Impedance         50               0                50               0                
42                             0.163759103316503 72.5037277018772 0.984239546178558 -16.7137958936858 0.984239546178558 -16.7137958936858 0.163759399397752 72.4964870857539 
! Gamma         0                0                0                0                
! Port Impedance         50               0                50               0                
42.1                           0.164124468206541 72.4658191384186 0.984176404682481 -16.7526448656329 0.984176404682481 -16.7526448656329 0.164124765291091 72.458560674836  
! Gamma         0                0                0                0                
! Port Impedance         50               0                50               0                
42.2                           0.164489683360061 72.4279130607348 0.984113153589207 -16.7914884403997 0.984113153589207 -16.7914884403997 0.164489981446632 72.420636746503  
! Gamma         0                0                0                0                
! Port Impedance         50               0                50               0                
42.3                           0.164854748537068 72.3900094956423 0.984049793069062 -16.8303266098712 0.984049793069062 -16.8303266098712 0.164855047624384 72.3827153275743 
! Gamma         0                0                0                0                
! Port Impedance         50               0                50               0                
42.4                           0.165219663497938 72.3521084697263 0.983986323292671 -16.8691593659421 0.983986323292671 -16.8691593659421 0.165219963584733 72.3447964446375 
! Gamma         0                0                0                0                
! Port Impedance         50               0                50               0                
42.5                           0.165584428003423 72.3142100093428 0.983922744430965 -16.907986700517 0.983922744430965 -16.907986700517 0.165584729088436 72.3068801240506 
! Gamma         0                0                0                0                
! Port Impedance         50               0                50               0                
42.6                           0.165949041814643 72.2763141406213 0.983859056655179 -16.9468086055104 0.983859056655179 -16.9468086055104 0.165949343896623 72.2689663919455 
! Gamma         0                0                0                0                
! Port Impedance         50               0                50               0                
42.7                           0.16631350469309 72.2384208894676 0.983795260136849 -16.9856250728466 0.983795260136849 -16.9856250728466 0.166313807770794 72.2310552742298 
! Gamma         0                0                0                0                
! Port Impedance         50               0                50               0                
42.8                           0.166677816400625 72.2005302815662 0.983731355047818 -17.0244360944603 0.983731355047818 -17.0244360944603 0.166678120472816 72.1931467965897 
! Gamma         0                0                0                0                
! Port Impedance         50               0                50               0                
42.9                           0.167041976699474 72.1626423423827 0.983667341560227 -17.0632416622962 0.983667341560227 -17.0632416622962 0.167042281764927 72.1552409844925 
! Gamma         0                0                0                0                
! Port Impedance         50               0                50               0                
43                             0.167405985352227 72.1247570971663 0.983603219846521 -17.1020417683094 0.983603219846521 -17.1020417683094 0.167406291409726 72.1173378631891 
! Gamma         0                0                0                0                
! Port Impedance         50               0                50               0                
43.1                           0.167769842121842 72.0868745709529 0.983538990079447 -17.1408364044653 0.983538990079447 -17.1408364044653 0.167770149170181 72.0794374577162 
! Gamma         0                0                0                0                
! Port Impedance         50               0                50               0                
43.2                           0.168133546771636 72.0489947885665 0.983474652432053 -17.1796255627397 0.983474652432053 -17.1796255627397 0.168133854809618 72.0415397928992 
! Gamma         0                0                0                0                
! Port Impedance         50               0                50               0                
43.3                           0.168497099065288 72.0111177746224 0.983410207077687 -17.2184092351191 0.983410207077687 -17.2184092351191 0.16849740809173 72.0036448933544 
! Gamma         0                0                0                0                
! Port Impedance         50               0                50               0                
43.4                           0.168860498766839 71.9732435535294 0.983345654189997 -17.2571874136004 0.983345654189997 -17.2571874136004 0.168860808780565 71.9657527834914 
! Gamma         0                0                0                0                
! Port Impedance         50               0                50               0                
43.5                           0.169223745640685 71.935372149492  0.983280993942934 -17.2959600901915 0.983280993942934 -17.2959600901915 0.169224056640534 71.9278634875151 
! Gamma         0                0                0                0                
! Port Impedance         50               0                50               0                
43.6                           0.169586839451582 71.8975035865128 0.983216226510744 -17.334727256911 0.983216226510744 -17.334727256911 0.169587151436403 71.8899770294289 
! Gamma         0                0                0                0                
! Port Impedance         50               0                50               0                
43.7                           0.169949779964639 71.8596378883952 0.983151352067975 -17.3734889057882 0.983151352067975 -17.3734889057882 0.169950092933294 71.8520934330362 
! Gamma         0                0                0                0                
! Port Impedance         50               0                50               0                
43.8                           0.170312566945323 71.8217750787448 0.983086370789473 -17.4122450288636 0.983086370789473 -17.4122450288636 0.170312880896687 71.8142127219431 
! Gamma         0                0                0                0                
! Port Impedance         50               0                50               0                
43.9                           0.170675200159451 71.7839151809727 0.98302128285038 -17.4509956181887 0.98302128285038 -17.4509956181887 0.170675515092412 71.7763349195603 
! Gamma         0                0                0                0                
! Port Impedance         50               0                50               0                
44                             0.171037679373194 71.7460582182971 0.982956088426138 -17.4897406658263 0.982956088426138 -17.4897406658263 0.171037995286653 71.7384600491061 
! Gamma         0                0                0                0                
! Port Impedance         50               0                50               0                
44.1                           0.171400004353074 71.7082042137455 0.982890787692485 -17.5284801638503 0.982890787692485 -17.5284801638503 0.171400321245945 71.7005881336076 
! Gamma         0                0                0                0                
! Port Impedance         50               0                50               0                
44.2                           0.171762174865961 71.6703531901572 0.982825380825454 -17.5672141043459 0.982825380825454 -17.5672141043459 0.171762492737174 71.6627191959036 
! Gamma         0                0                0                0                
! Port Impedance         50               0                50               0                
44.3                           0.172124190679075 71.6325051701853 0.982759868001376 -17.6059424794098 0.982759868001376 -17.6059424794098 0.172124509527573 71.6248532586467 
! Gamma         0                0                0                0                
! Port Impedance         50               0                50               0                
44.4                           0.172486051559983 71.5946601762989 0.982694249396874 -17.6446652811502 0.982694249396874 -17.6446652811502 0.172486371384725 71.5869903443049 
! Gamma         0                0                0                0                
! Port Impedance         50               0                50               0                
44.5                           0.172847757276597 71.5568182307851 0.982628525188871 -17.683382501687 0.982628525188871 -17.683382501687 0.172848078076556 71.5491304751646 
! Gamma         0                0                0                0                
! Port Impedance         50               0                50               0                
44.6                           0.173209307597175 71.5189793557511 0.982562695554577 -17.7220941331515 0.982562695554577 -17.7220941331515 0.17320962937134 71.5112736733318 
! Gamma         0                0                0                0                
! Port Impedance         50               0                50               0                
44.7                           0.17357070229032 71.4811435731264 0.982496760671502 -17.7608001676871 0.982496760671502 -17.7608001676871 0.173571025037695 71.4734199607348 
! Gamma         0                0                0                0                
! Port Impedance         50               0                50               0                
44.8                           0.173931941124975 71.443310904665  0.982430720717445 -17.7995005974489 0.982430720717445 -17.7995005974489 0.173932264844582 71.435569359126  
! Gamma         0                0                0                0                
! Port Impedance         50               0                50               0                
44.9                           0.174293023870427 71.4054813719467 0.982364575870498 -17.8381954146039 0.982364575870498 -17.8381954146039 0.174293348561302 71.3977218900839 
! Gamma         0                0                0                0                
! Port Impedance         50               0                50               0                
45                             0.174653950296303 71.3676549963802 0.982298326309044 -17.8768846113312 0.982298326309044 -17.8768846113312 0.174654275957501 71.3598775750151 
! Gamma         0                0                0                0                
! Port Impedance         50               0                50               0                
45.1                           0.17501472017257 71.329831799204  0.98223197221176 -17.915568179822 0.98223197221176 -17.915568179822 0.175015046803162 71.3220364351565 
! Gamma         0                0                0                0                
! Port Impedance         50               0                50               0                
45.2                           0.175375333269533 71.292011801489  0.982165513757609 -17.9542461122798 0.982165513757609 -17.9542461122798 0.175375660868607 71.284198491577  
! Gamma         0                0                0                0                
! Port Impedance         50               0                50               0                
45.3                           0.175735789357835 71.2541950241404 0.982098951125847 -17.9929184009202 0.982098951125847 -17.9929184009202 0.175736117924496 71.2463637651795 
! Gamma         0                0                0                0                
! Port Impedance         50               0                50               0                
45.4                           0.176096088208456 71.2163814878995 0.982032284496016 -18.0315850379713 0.982032284496017 -18.0315850379713 0.176096417741829 71.2085322767029 
! Gamma         0                0                0                0                
! Port Impedance         50               0                50               0                
45.5                           0.176456229592711 71.1785712133453 0.98196551404795 -18.0702460156736 0.98196551404795 -18.0702460156736 0.176456560091937 71.1707040467238 
! Gamma         0                0                0                0                
! Port Impedance         50               0                50               0                
45.6                           0.17681621328225 71.1407642208969 0.981898639961766 -18.1089013262802 0.981898639961766 -18.1089013262802 0.176816544746489 71.1328790956587 
! Gamma         0                0                0                0                
! Port Impedance         50               0                50               0                
45.7                           0.177176039049057 71.1029605308151 0.981831662417871 -18.1475509620568 0.981831662417871 -18.1475509620568 0.177176371477489 71.0950574437656 
! Gamma         0                0                0                0                
! Port Impedance         50               0                50               0                
45.8                           0.177535706665449 71.0651601632041 0.981764581596958 -18.1861949152817 0.981764581596958 -18.1861949152817 0.177536040057272 71.0572391111458 
! Gamma         0                0                0                0                
! Port Impedance         50               0                50               0                
45.9                           0.177895215904075 71.0273631380137 0.981697397680004 -18.2248331782463 0.981697397680004 -18.2248331782463 0.177895550258506 71.019424117746  
! Gamma         0                0                0                0                
! Port Impedance         50               0                50               0                
46                             0.178254566537914 70.9895694750406 0.981630110848272 -18.2634657432546 0.981630110848272 -18.2634657432546 0.17825490185419 70.9816124833596 
! Gamma         0                0                0                0                
! Port Impedance         50               0                50               0                
46.1                           0.178613758340278 70.9517791939305 0.981562721283308 -18.3020926026236 0.981562721283308 -18.3020926026236 0.178614094617655 70.943804227629  
! Gamma         0                0                0                0                
! Port Impedance         50               0                50               0                
46.2                           0.178972791084806 70.9139923141798 0.981495229166941 -18.3407137486834 0.981495229166941 -18.3407137486834 0.17897312832256 70.9059993700471 
! Gamma         0                0                0                0                
! Port Impedance         50               0                50               0                
46.3                           0.179331664545467 70.8762088551371 0.981427634681283 -18.3793291737773 0.981427634681283 -18.3793291737773 0.179332002742895 70.8681979299589 
! Gamma         0                0                0                0                
! Port Impedance         50               0                50               0                
46.4                           0.179690378496556 70.8384288360054 0.981359938008727 -18.4179388702617 0.981359938008727 -18.4179388702617 0.179690717652974 70.8303999265636 
! Gamma         0                0                0                0                
! Port Impedance         50               0                50               0                
46.5                           0.180048932712698 70.8006522758433 0.981292139331949 -18.4565428305062 0.981292139331949 -18.4565428305062 0.180049272827444 70.7926053789157 
! Gamma         0                0                0                0                
! Port Impedance         50               0                50               0                
46.6                           0.18040732696884 70.7628791935668 0.981224238833901 -18.4951410468941 0.981224238833901 -18.4951410468941 0.180407668041273 70.7548143059275 
! Gamma         0                0                0                0                
! Port Impedance         50               0                50               0                
46.7                           0.18076556104026 70.7251096079512 0.981156236697818 -18.5337335118219 0.981156236697818 -18.5337335118219 0.180765903069759 70.7170267263697 
! Gamma         0                0                0                0                
! Port Impedance         50               0                50               0                
46.8                           0.181123634702556 70.6873435376325 0.981088133107211 -18.5723202176996 0.981088133107211 -18.5723202176996 0.181123977688521 70.6792426588741 
! Gamma         0                0                0                0                
! Port Impedance         50               0                50               0                
46.9                           0.181481547731652 70.649581001109  0.98101992824587 -18.610901156951 0.98101992824587 -18.610901156951 0.181481891673506 70.6414621219346 
! Gamma         0                0                0                0                
! Port Impedance         50               0                50               0                
47                             0.181839299903796 70.6118220167429 0.980951622297861 -18.6494763220135 0.980951622297861 -18.6494763220135 0.181839644800982 70.6036851339087 
! Gamma         0                0                0                0                
! Port Impedance         50               0                50               0                
47.1                           0.182196890995556 70.5740666027623 0.980883215447527 -18.6880457053383 0.980883215447527 -18.6880457053383 0.18219723684754 70.5659117130197 
! Gamma         0                0                0                0                
! Port Impedance         50               0                50               0                
47.2                           0.182554320783826 70.536314777262  0.980814707879485 -18.7266092993905 0.980814707879484 -18.7266092993905 0.182554667590096 70.5281418773576 
! Gamma         0                0                0                0                
! Port Impedance         50               0                50               0                
47.3                           0.182911589045818 70.4985665582056 0.980746099778625 -18.765167096649 0.980746099778625 -18.765167096649 0.182911936805882 70.4903756448811 
! Gamma         0                0                0                0                
! Port Impedance         50               0                50               0                
47.4                           0.183268695559065 70.4608219634271 0.980677391330113 -18.8037190896068 0.980677391330113 -18.8037190896068 0.183269044272457 70.4526130334187 
! Gamma         0                0                0                0                
! Port Impedance         50               0                50               0                
47.5                           0.183625640101421 70.4230810106319 0.980608582719386 -18.8422652707711 0.980608582719386 -18.8422652707711 0.183625989767695 70.4148540606707 
! Gamma         0                0                0                0                
! Port Impedance         50               0                50               0                
47.6                           0.183982422451059 70.3853437173987 0.980539674132153 -18.8808056326632 0.980539674132153 -18.8808056326632 0.183982773069793 70.3770987442105 
! Gamma         0                0                0                0                
! Port Impedance         50               0                50               0                
47.7                           0.184339042386472 70.3476101011809 0.980470665754394 -18.9193401678185 0.980470665754394 -18.9193401678185 0.184339393957266 70.3393471014858 
! Gamma         0                0                0                0                
! Port Impedance         50               0                50               0                
47.8                           0.184695499686468 70.309880179308  0.980401557772358 -18.957868868787 0.980401557772358 -18.957868868787 0.184695852208945 70.3015991498205 
! Gamma         0                0                0                0                
! Port Impedance         50               0                50               0                
47.9                           0.185051794130176 70.2721539689871 0.980332350372562 -18.9963917281329 0.980332350372562 -18.9963917281329 0.185052147603983 70.2638549064159 
! Gamma         0                0                0                0                
! Port Impedance         50               0                50               0                
48                             0.18540792549704 70.2344314873043 0.980263043741795 -19.0349087384351 0.980263043741795 -19.0349087384351 0.185408279921846 70.226114388352  
! Gamma         0                0                0                0                
! Port Impedance         50               0                50               0                
48.1                           0.185763893566821 70.196712751226  0.980193638067108 -19.0734198922868 0.980193638067108 -19.0734198922868 0.18576424894232 70.1883776125894 
! Gamma         0                0                0                0                
! Port Impedance         50               0                50               0                
48.2                           0.186119698119597 70.1589977776005 0.980124133535822 -19.1119251822959 0.980124133535822 -19.1119251822959 0.186120054445505 70.1506445959701 
! Gamma         0                0                0                0                
! Port Impedance         50               0                50               0                
48.3                           0.18647533893576 70.1212865831594 0.980054530335521 -19.1504246010853 0.980054530335521 -19.1504246010853 0.186475696211818 70.1129153552193 
! Gamma         0                0                0                0                
! Port Impedance         50               0                50               0                
48.4                           0.186830815796018 70.0835791845185 0.979984828654053 -19.1889181412923 0.979984828654053 -19.1889181412923 0.18683117402199 70.0751899069466 
! Gamma         0                0                0                0                
! Port Impedance         50               0                50               0                
48.5                           0.187186128481393 70.0458755981799 0.979915028679532 -19.2274057955693 0.979915028679532 -19.2274057955693 0.187186487657066 70.0374682676474 
! Gamma         0                0                0                0                
! Port Impedance         50               0                50               0                
48.6                           0.187541276773221 70.0081758405326 0.979845130600332 -19.2658875565836 0.979845130600332 -19.2658875565836 0.187541636898408 69.9997504537041 
! Gamma         0                0                0                0                
! Port Impedance         50               0                50               0                
48.7                           0.187896260453152 69.9704799278543 0.979775134605089 -19.3043634170175 0.979775134605089 -19.3043634170175 0.187896621527689 69.9620364813877 
! Gamma         0                0                0                0                
! Port Impedance         50               0                50               0                
48.8                           0.188251079303148 69.9327878763126 0.979705040882699 -19.3428333695682 0.979705040882699 -19.3428333695682 0.188251441326895 69.9243263668588 
! Gamma         0                0                0                0                
! Port Impedance         50               0                50               0                
48.9                           0.188605733105484 69.8950997019662 0.979634849622319 -19.3812974069485 0.979634849622319 -19.3812974069485 0.188606096078328 69.8866201261689 
! Gamma         0                0                0                0                
! Port Impedance         50               0                50               0                
49                             0.188960221642749 69.857415420766  0.979564561013362 -19.4197555218861 0.979564561013362 -19.4197555218861 0.188960585564597 69.8489177752621 
! Gamma         0                0                0                0                
! Port Impedance         50               0                50               0                
49.1                           0.189314544697843 69.8197350485569 0.979494175245501 -19.458207707124 0.979494175245501 -19.458207707124 0.189314909568628 69.8112193299758 
! Gamma         0                0                0                0                
! Port Impedance         50               0                50               0                
49.2                           0.189668702053974 69.7820586010784 0.979423692508663 -19.4966539554207 0.979423692508663 -19.4966539554207 0.189669067873657 69.7735248060423 
! Gamma         0                0                0                0                
! Port Impedance         50               0                50               0                
49.3                           0.190022693494667 69.7443860939663 0.979353112993034 -19.5350942595502 0.979353112993034 -19.5350942595502 0.190023060263229 69.7358342190899 
! Gamma         0                0                0                0                
! Port Impedance         50               0                50               0                
49.4                           0.190376518803754 69.7067175427538 0.97928243688905 -19.5735286123018 0.97928243688905 -19.5735286123018 0.190376886521202 69.6981475846442 
! Gamma         0                0                0                0                
! Port Impedance         50               0                50               0                
49.5                           0.190730177765377 69.6690529628725 0.979211664387403 -19.6119570064807 0.979211664387403 -19.6119570064807 0.190730546431744 69.6604649181291 
! Gamma         0                0                0                0                
! Port Impedance         50               0                50               0                
49.6                           0.191083670163989 69.6313923696538 0.979140795679039 -19.6503794349074 0.979140795679039 -19.6503794349074 0.191084039779333 69.6227862348682 
! Gamma         0                0                0                0                
! Port Impedance         50               0                50               0                
49.7                           0.191436995784354 69.5937357783302 0.979069830955152 -19.6887958904186 0.979069830955152 -19.6887958904186 0.191437366348756 69.585111550086  
! Gamma         0                0                0                0                
! Port Impedance         50               0                50               0                
49.8                           0.191790154411544 69.556083204036  0.978998770407187 -19.7272063658663 0.978998770407187 -19.7272063658663 0.191790525925111 69.5474408789088 
! Gamma         0                0                0                0                
! Port Impedance         50               0                50               0                
49.9                           0.192143145830939 69.5184346618089 0.978927614226842 -19.7656108541188 0.978927614226842 -19.7656108541188 0.192143518293803 69.5097742363663 
! Gamma         0                0                0                0                
! Port Impedance         50               0                50               0                
50                             0.19249596982823 69.4807901665908 0.978856362606058 -19.80400934806  0.978856362606058 -19.80400934806  0.192496343240547 69.4721116373921 
! Gamma         0                0                0                0                
! Port Impedance         50               0                50               0                
50.1                           0.192848626189414 69.4431497332292 0.978785015737027 -19.8424018405901 0.978785015737027 -19.8424018405901 0.192849000551368 69.4344530968254 
! Gamma         0                0                0                0                
! Port Impedance         50               0                50               0                
50.2                           0.193201114700799 69.4055133764782 0.978713573812186 -19.8807883246252 0.978713573812186 -19.8807883246252 0.193201490012595 69.3967986294117 
! Gamma         0                0                0                0                
! Port Impedance         50               0                50               0                
50.3                           0.193553435148999 69.3678811109995 0.978642037024216 -19.9191687930977 0.978642037024216 -19.9191687930977 0.193553811410869 69.3591482498044 
! Gamma         0                0                0                0                
! Port Impedance         50               0                50               0                
50.4                           0.193905587320935 69.3302529513637 0.978570405566044 -19.957543238956 0.978570405566044 -19.957543238956 0.193905964533138 69.3215019725653 
! Gamma         0                0                0                0                
! Port Impedance         50               0                50               0                
50.5                           0.194257571003839 69.2926289120511 0.978498679630839 -19.9959116551649 0.978498679630839 -19.9959116551649 0.194257949166655 69.283859812166  
! Gamma         0                0                0                0                
! Port Impedance         50               0                50               0                
50.6                           0.194609385985245 69.2550090074529 0.978426859412012 -20.0342740347056 0.978426859412012 -20.0342740347056 0.194609765098983 69.2462217829888 
! Gamma         0                0                0                0                
! Port Impedance         50               0                50               0                
50.7                           0.194961032053   69.2173932518723 0.978354945103215 -20.0726303705758 0.978354945103215 -20.0726303705758 0.194961412117991 69.208587899328  
! Gamma         0                0                0                0                
! Port Impedance         50               0                50               0                
50.8                           0.195312508995252 69.1797816595254 0.978282936898339 -20.1109806557893 0.978282936898339 -20.1109806557893 0.195312890011855 69.1709581753908 
! Gamma         0                0                0                0                
! Port Impedance         50               0                50               0                
50.9                           0.19566381660046 69.1421742445424 0.978210834991515 -20.1493248833769 0.978210834991515 -20.1493248833769 0.195664198569057 69.133332625298  
! Gamma         0                0                0                0                
! Port Impedance         50               0                50               0                
51                             0.196014954657387 69.1045710209683 0.978138639577109 -20.1876630463858 0.978138639577109 -20.1876630463858 0.196015337578385 69.0957112630857 
! Gamma         0                0                0                0                
! Port Impedance         50               0                50               0                
51.1                           0.196365922955103 69.0669720027644 0.978066350849728 -20.2259951378797 0.978066350849728 -20.2259951378797 0.196366306828936 69.0580941027057 
! Gamma         0                0                0                0                
! Port Impedance         50               0                50               0                
51.2                           0.196716721282985 69.0293772038087 0.977993969004209 -20.2643211509395 0.977993969004209 -20.2643211509395 0.196717106110111 69.0204811580266 
! Gamma         0                0                0                0                
! Port Impedance         50               0                50               0                
51.3                           0.197067349430714 68.9917866378974 0.977921494235627 -20.3026410786624 0.977921494235627 -20.3026410786624 0.197067735211615 68.982872442835  
! Gamma         0                0                0                0                
! Port Impedance         50               0                50               0                
51.4                           0.197417807188279 68.9542003187454 0.97784892673929 -20.3409549141628 0.97784892673929 -20.3409549141628 0.197418193923463 68.9452679708364 
! Gamma         0                0                0                0                
! Port Impedance         50               0                50               0                
51.5                           0.197768094345973 68.9166182599875 0.977776266710735 -20.379262650572 0.977776266710735 -20.379262650572 0.197768482035974 68.9076677556559 
! Gamma         0                0                0                0                
! Port Impedance         50               0                50               0                
51.6                           0.198118210694396 68.8790404751796 0.977703514345732 -20.4175642810381 0.977703514345732 -20.4175642810381 0.19811859933977 68.8700718108395 
! Gamma         0                0                0                0                
! Port Impedance         50               0                50               0                
51.7                           0.198468156024451 68.841466977799  0.977630669840282 -20.4558597987265 0.977630669840282 -20.4558597987265 0.198468545625783 68.8324801498547 
! Gamma         0                0                0                0                
! Port Impedance         50               0                50               0                
51.8                           0.19881793012735 68.8038977812458 0.977557733390612 -20.4941491968194 0.977557733390612 -20.4941491968194 0.198818320685246 68.7948927860918 
! Gamma         0                0                0                0                
! Port Impedance         50               0                50               0                
51.9                           0.199167532794607 68.7663328988437 0.977484705193179 -20.5324324685166 0.977484705193179 -20.5324324685166 0.1991679243097  68.7573097328643 
! Gamma         0                0                0                0                
! Port Impedance         50               0                50               0                
52                             0.199516963818044 68.7287723438408 0.977411585444664 -20.5707096070348 0.977411585444664 -20.5707096070348 0.199517356290991 68.7197310034103 
! Gamma         0                0                0                0                
! Port Impedance         50               0                50               0                
52.1                           0.199866222989786 68.6912161294107 0.977338374341974 -20.608980605608 0.977338374341974 -20.608980605608 0.199866616421268 68.6821566108932 
! Gamma         0                0                0                0                
! Port Impedance         50               0                50               0                
52.2                           0.200215310102263 68.653664268653  0.977265072082241 -20.6472454574878 0.977265072082241 -20.6472454574878 0.200215704492987 68.6445865684024 
! Gamma         0                0                0                0                
! Port Impedance         50               0                50               0                
52.3                           0.200564224948211 68.6161167745947 0.97719167886282 -20.6855041559431 0.97719167886282 -20.6855041559431 0.200564620298909 68.6070208889543 
! Gamma         0                0                0                0                
! Port Impedance         50               0                50               0                
52.4                           0.200912967320672 68.5785736601905 0.977118194881286 -20.7237566942602 0.977118194881286 -20.7237566942602 0.200913363632098 68.5694595854934 
! Gamma         0                0                0                0                
! Port Impedance         50               0                50               0                
52.5                           0.201261537012991 68.541034938324  0.977044620335436 -20.7620030657429 0.977044620335436 -20.7620030657429 0.201261934285925 68.5319026708927 
! Gamma         0                0                0                0                
! Port Impedance         50               0                50               0                
52.6                           0.201609933818818 68.5035006218085 0.976970955423287 -20.8002432637128 0.976970955423287 -20.8002432637128 0.201610332054064 68.4943501579549 
! Gamma         0                0                0                0                
! Port Impedance         50               0                50               0                
52.7                           0.201958157532109 68.4659707233876 0.976897200343072 -20.838477281509 0.976897200343072 -20.838477281509 0.201958556730496 68.4568020594131 
! Gamma         0                0                0                0                
! Port Impedance         50               0                50               0                
52.8                           0.202306207947125 68.4284452557363 0.976823355293244 -20.8767051124884 0.976823355293244 -20.8767051124884 0.202306608109505 68.4192583879315 
! Gamma         0                0                0                0                
! Port Impedance         50               0                50               0                
52.9                           0.20265408485843 68.3909242314618 0.976749420472469 -20.9149267500255 0.976749420472469 -20.9149267500255 0.202654485985679 68.3817191561064 
! Gamma         0                0                0                0                
! Port Impedance         50               0                50               0                
53                             0.203001788060896 68.3534076631039 0.976675396079631 -20.9531421875127 0.976675396079631 -20.9531421875127 0.203002190153915 68.3441843764668 
! Gamma         0                0                0                0                
! Port Impedance         50               0                50               0                
53.1                           0.203349317349697 68.3158955631364 0.976601282313826 -20.9913514183604 0.976601282313826 -20.9913514183604 0.203349720409409 68.3066540614755 
! Gamma         0                0                0                0                
! Port Impedance         50               0                50               0                
53.2                           0.203696672520313 68.2783879439672 0.97652707937436 -21.0295544359968 0.976527079374361 -21.0295544359968 0.203697076547667 68.2691282235295 
! Gamma         0                0                0                0                
! Port Impedance         50               0                50               0                
53.3                           0.20404385336853 68.2408848179399 0.976452787460756 -21.0677512338681 0.976452787460756 -21.0677512338681 0.204044258364497 68.231606874961  
! Gamma         0                0                0                0                
! Port Impedance         50               0                50               0                
53.4                           0.204390859690437 68.2033861973335 0.976378406772742 -21.1059418054385 0.976378406772742 -21.1059418054385 0.204391265656013 68.1940900280382 
! Gamma         0                0                0                0                
! Port Impedance         50               0                50               0                
53.5                           0.20473769128243 68.1658920943642 0.976303937510256 -21.1441261441905 0.976303937510256 -21.1441261441905 0.204738098218632 68.1565776949659 
! Gamma         0                0                0                0                
! Port Impedance         50               0                50               0                
53.6                           0.205084347941209 68.1284025211854 0.976229379873446 -21.1823042436245 0.976229379873446 -21.1823042436245 0.205084755849079 68.1190698878864 
! Gamma         0                0                0                0                
! Port Impedance         50               0                50               0                
53.7                           0.205430829463779 68.090917489889  0.976154734062664 -21.2204760972593 0.976154734062664 -21.2204760972593 0.205431238344383 68.0815666188799 
! Gamma         0                0                0                0                
! Port Impedance         50               0                50               0                
53.8                           0.205777135647452 68.0534370125055 0.976080000278468 -21.2586416986317 0.976080000278468 -21.2586416986317 0.205777545501876 68.0440678999658 
! Gamma         0                0                0                0                
! Port Impedance         50               0                50               0                
53.9                           0.206123266289843 68.0159611010053 0.976005178721621 -21.2968010412972 0.976005178721621 -21.2968010412972 0.206123677119199 68.0065737431027 
! Gamma         0                0                0                0                
! Port Impedance         50               0                50               0                
54                             0.206469221188874 67.978489767299  0.975930269593088 -21.3349541188292 0.975930269593088 -21.3349541188292 0.206469632994294 67.96908416019   
! Gamma         0                0                0                0                
! Port Impedance         50               0                50               0                
54.1                           0.206815000142773 67.9410230232384 0.975855273094036 -21.37310092482  0.975855273094036 -21.37310092482  0.206815412925413 67.9315991630677 
! Gamma         0                0                0                0                
! Port Impedance         50               0                50               0                
54.2                           0.207160602950071 67.9035608806169 0.975780189425833 -21.4112414528799 0.975780189425833 -21.4112414528799 0.20716101671111 67.8941187635176 
! Gamma         0                0                0                0                
! Port Impedance         50               0                50               0                
54.3                           0.207506029409608 67.8661033511705 0.975705018790045 -21.4493756966381 0.975705018790045 -21.4493756966381 0.207506444150246 67.8566429732638 
! Gamma         0                0                0                0                
! Port Impedance         50               0                50               0                
54.4                           0.207851279320527 67.8286504465782 0.975629761388437 -21.487503649742 0.975629761388437 -21.487503649742 0.207851695041988 67.8191718039737 
! Gamma         0                0                0                0                
! Port Impedance         50               0                50               0                
54.5                           0.20819635248228 67.7912021784627 0.975554417422971 -21.5256253058581 0.975554417422971 -21.5256253058581 0.208196769185807 67.7817052672582 
! Gamma         0                0                0                0                
! Port Impedance         50               0                50               0                
54.6                           0.208541248694622 67.7537585583913 0.975478987095806 -21.563740658671 0.975478987095806 -21.563740658671 0.208541666381482 67.7442433746726 
! Gamma         0                0                0                0                
! Port Impedance         50               0                50               0                
54.7                           0.208885967757616 67.7163195978763 0.975403470609293 -21.6018497018845 0.975403470609293 -21.6018497018845 0.208886386429098 67.7067861377172 
! Gamma         0                0                0                0                
! Port Impedance         50               0                50               0                
54.8                           0.209230509471632 67.6788853083757 0.975327868165976 -21.6399524292208 0.975327868165976 -21.6399524292208 0.209230929129045 67.6693335678381 
! Gamma         0                0                0                0                
! Port Impedance         50               0                50               0                
54.9                           0.209574873637344 67.6414557012938 0.975252179968595 -21.6780488344212 0.975252179968595 -21.6780488344212 0.209575294282019 67.6318856764276 
! Gamma         0                0                0                0                
! Port Impedance         50               0                50               0                
55                             0.209919060055736 67.6040307879822 0.975176406220076 -21.7161389112457 0.975176406220076 -21.7161389112457 0.209919481689025 67.594442474825  
! Gamma         0                0                0                0                
! Port Impedance         50               0                50               0                
55.1                           0.210263068528097 67.5666105797397 0.975100547123539 -21.7542226534732 0.975100547123538 -21.7542226534732 0.210263491151372 67.557003974317  
! Gamma         0                0                0                0                
! Port Impedance         50               0                50               0                
55.2                           0.210606898856022 67.5291950878136 0.975024602882288 -21.7923000549017 0.975024602882288 -21.7923000549017 0.210607322470678 67.5195701861388 
! Gamma         0                0                0                0                
! Port Impedance         50               0                50               0                
55.3                           0.210950550841415 67.4917843233998 0.974948573699818 -21.8303711093481 0.974948573699818 -21.8303711093481 0.210950975448866 67.4821411214739 
! Gamma         0                0                0                0                
! Port Impedance         50               0                50               0                
55.4                           0.211294024286487 67.4543782976439 0.974872459779808 -21.8684358106483 0.974872459779808 -21.8684358106483 0.211294449888168 67.4447167914556 
! Gamma         0                0                0                0                
! Port Impedance         50               0                50               0                
55.5                           0.211637318993756 67.4169770216412 0.974796261326122 -21.9064941526573 0.974796261326122 -21.9064941526573 0.211637745591122 67.4072972071669 
! Gamma         0                0                0                0                
! Port Impedance         50               0                50               0                
55.6                           0.211980434766049 67.3795805064378 0.974719978542808 -21.9445461292494 0.974719978542808 -21.9445461292494 0.211980862360574 67.3698823796416 
! Gamma         0                0                0                0                
! Port Impedance         50               0                50               0                
55.7                           0.212323371406499 67.3421887630309 0.974643611634095 -21.982591734318 0.974643611634095 -21.982591734318 0.212323799999679 67.3324723198643 
! Gamma         0                0                0                0                
! Port Impedance         50               0                50               0                
55.8                           0.212666128718549 67.3048018023695 0.974567160804395 -22.0206309617756 0.974567160804395 -22.0206309617756 0.212666558311897 67.2950670387715 
! Gamma         0                0                0                0                
! Port Impedance         50               0                50               0                
55.9                           0.213008706505949 67.2674196353548 0.974490626258299 -22.0586638055542 0.974490626258299 -22.0586638055542 0.213009137101   67.257666547252  
! Gamma         0                0                0                0                
! Port Impedance         50               0                50               0                
56                             0.213351104572759 67.2300422728409 0.974414008200575 -22.096690259605 0.974414008200575 -22.096690259605 0.213351536171065 67.2202708561472 
! Gamma         0                0                0                0                
! Port Impedance         50               0                50               0                
56.1                           0.213693322723346 67.1926697256354 0.974337306836171 -22.1347103178985 0.974337306836171 -22.1347103178985 0.213693755326479 67.1828799762521 
! Gamma         0                0                0                0                
! Port Impedance         50               0                50               0                
56.2                           0.214035360762387 67.1553020044996 0.974260522370209 -22.1727239744248 0.974260522370209 -22.1727239744248 0.214035794371938 67.1454939183155 
! Gamma         0                0                0                0                
! Port Impedance         50               0                50               0                
56.3                           0.214377218494869 67.1179391201496 0.974183655007988 -22.2107312231933 0.974183655007988 -22.2107312231933 0.214377653112448 67.1081126930406 
! Gamma         0                0                0                0                
! Port Impedance         50               0                50               0                
56.4                           0.214718895726088 67.0805810832563 0.974106704954977 -22.2487320582329 0.974106704954977 -22.2487320582329 0.214719331353321 67.0707363110857 
! Gamma         0                0                0                0                
! Port Impedance         50               0                50               0                
56.5                           0.215060392261648 67.0432279044461 0.974029672416822 -22.2867264735921 0.974029672416822 -22.2867264735921 0.215060828900181 67.0333647830643 
! Gamma         0                0                0                0                
! Port Impedance         50               0                50               0                
56.6                           0.215401707907465 67.0058795943017 0.973952557599338 -22.3247144633389 0.973952557599337 -22.3247144633389 0.215402145558963 66.9959981195464 
! Gamma         0                0                0                0                
! Port Impedance         50               0                50               0                
56.7                           0.215742842469766 66.968536163362  0.973875360708508 -22.3626960215611 0.973875360708508 -22.3626960215611 0.215743281135908 66.958636331058  
! Gamma         0                0                0                0                
! Port Impedance         50               0                50               0                
56.8                           0.216083795755085 66.9311976221232 0.973798081950488 -22.400671142366 0.973798081950488 -22.400671142366 0.216084235437571 66.9212794280825 
! Gamma         0                0                0                0                
! Port Impedance         50               0                50               0                
56.9                           0.21642456757027 66.8938639810391 0.973720721531597 -22.4386398198805 0.973720721531597 -22.4386398198805 0.216425008270816 66.8839274210607 
! Gamma         0                0                0                0                
! Port Impedance         50               0                50               0                
57                             0.216765157722479 66.8565352505214 0.973643279658324 -22.4766020482515 0.973643279658324 -22.4766020482515 0.216765599442817 66.8465803203913 
! Gamma         0                0                0                0                
! Port Impedance         50               0                50               0                
57.1                           0.21710556601918 66.8192114409403 0.97356575653732 -22.5145578216455 0.97356575653732 -22.5145578216455 0.21710600876106 66.8092381364317 
! Gamma         0                0                0                0                
! Port Impedance         50               0                50               0                
57.2                           0.217445792268154 66.7818925626252 0.973488152375402 -22.5525071342489 0.973488152375402 -22.5525071342489 0.217446236033342 66.7719008794982 
! Gamma         0                0                0                0                
! Port Impedance         50               0                50               0                
57.3                           0.217785836277494 66.7445786258648 0.973410467379548 -22.590449980268 0.973410467379548 -22.590449980268 0.217786281067772 66.7345685598664 
! Gamma         0                0                0                0                
! Port Impedance         50               0                50               0                
57.4                           0.218125697855605 66.7072696409078 0.973332701756898 -22.6283863539289 0.973332701756898 -22.6283863539289 0.21812614367277 66.6972411877721 
! Gamma         0                0                0                0                
! Port Impedance         50               0                50               0                
57.5                           0.218465376811202 66.6699656179635 0.973254855714753 -22.6663162494776 0.973254855714753 -22.6663162494776 0.218465823657069 66.6599187734113 
! Gamma         0                0                0                0                
! Port Impedance         50               0                50               0                
57.6                           0.218804872953316 66.6326665672018 0.973176929460569 -22.7042396611802 0.973176929460569 -22.7042396611802 0.218805320829714 66.6226013269409 
! Gamma         0                0                0                0                
! Port Impedance         50               0                50               0                
57.7                           0.219144186091289 66.5953724987541 0.973098923201965 -22.7421565833229 0.973098923201965 -22.7421565833229 0.219144635000062 66.5852888584791 
! Gamma         0                0                0                0                
! Port Impedance         50               0                50               0                
57.8                           0.219483316034776 66.5580834227134 0.973020837146712 -22.7800670102117 0.973020837146712 -22.7800670102117 0.219483765977784 66.5479813781057 
! Gamma         0                0                0                0                
! Port Impedance         50               0                50               0                
57.9                           0.219822262593747 66.520799349135  0.972942671502737 -22.8179709361728 0.972942671502737 -22.8179709361728 0.219822713572865 66.510678895863  
! Gamma         0                0                0                0                
! Port Impedance         50               0                50               0                
58                             0.220161025578486 66.4835202880369 0.972864426478123 -22.8558683555525 0.972864426478123 -22.8558683555525 0.2201614775956  66.4733814217555 
! Gamma         0                0                0                0                
! Port Impedance         50               0                50               0                
58.1                           0.220499604799588 66.4462462494    0.972786102281103 -22.8937592627175 0.972786102281103 -22.8937592627175 0.220500057856603 66.436088965751  
! Gamma         0                0                0                0                
! Port Impedance         50               0                50               0                
58.2                           0.220838000067967 66.4089772431688 0.972707699120063 -22.9316436520543 0.972707699120062 -22.9316436520543 0.220838454166798 66.3988015377808 
! Gamma         0                0                0                0                
! Port Impedance         50               0                50               0                
58.3                           0.221176211194848 66.3717132792518 0.972629217203537 -22.9695215179699 0.972629217203537 -22.9695215179699 0.221176666337426 66.3615191477398 
! Gamma         0                0                0                0                
! Port Impedance         50               0                50               0                
58.4                           0.221514237991773 66.3344543675215 0.972550656740209 -23.0073928548915 0.972550656740209 -23.0073928548915 0.221514694180041 66.3242418054876 
! Gamma         0                0                0                0                
! Port Impedance         50               0                50               0                
58.5                           0.221852080270599 66.2972005178154 0.972472017938912 -23.0452576572666 0.972472017938912 -23.0452576572666 0.221852537506514 66.2869695208481 
! Gamma         0                0                0                0                
! Port Impedance         50               0                50               0                
58.6                           0.222189737843499 66.259951739936  0.972393301008625 -23.0831159195631 0.972393301008625 -23.0831159195631 0.222190196129029 66.2497023036105 
! Gamma         0                0                0                0                
! Port Impedance         50               0                50               0                
58.7                           0.222527210522961 66.2227080436514 0.972314506158469 -23.1209676362691 0.972314506158468 -23.1209676362691 0.222527669860089 66.2124401635296 
! Gamma         0                0                0                0                
! Port Impedance         50               0                50               0                
58.8                           0.222864498121791 66.1854694386955 0.972235633597711 -23.1588128018933 0.972235633597711 -23.1588128018933 0.222864958512511 66.1751831103259 
! Gamma         0                0                0                0                
! Port Impedance         50               0                50               0                
58.9                           0.223201600453111 66.1482359347687 0.972156683535763 -23.1966514109647 0.972156683535763 -23.1966514109647 0.223202061899428 66.1379311536862 
! Gamma         0                0                0                0                
! Port Impedance         50               0                50               0                
59                             0.223538517330359 66.1110075415377 0.972077656182175 -23.2344834580329 0.972077656182175 -23.2344834580329 0.223538979834292 66.1006843032641 
! Gamma         0                0                0                0                
! Port Impedance         50               0                50               0                
59.1                           0.223875248567293 66.0737842686367 0.971998551746638 -23.272308937668 0.971998551746638 -23.272308937668 0.223875712130869 66.0634425686801 
! Gamma         0                0                0                0                
! Port Impedance         50               0                50               0                
59.2                           0.224211793977985 66.0365661256671 0.971919370438982 -23.3101278444604 0.971919370438982 -23.3101278444604 0.224212258603245 66.0262059595223 
! Gamma         0                0                0                0                
! Port Impedance         50               0                50               0                
59.3                           0.224548153376829 65.999353122198  0.971840112469175 -23.3479401730213 0.971840112469175 -23.3479401730213 0.224548619065824 65.9889744853463 
! Gamma         0                0                0                0                
! Port Impedance         50               0                50               0                
59.4                           0.224884326578535 65.9621452677669 0.971760778047322 -23.3857459179826 0.971760778047322 -23.3857459179826 0.224884793333325 65.9517481556761 
! Gamma         0                0                0                0                
! Port Impedance         50               0                50               0                
59.5                           0.225220313398133 65.9249425718797 0.971681367383662 -23.4235450739965 0.971681367383662 -23.4235450739965 0.22522078122079 65.9145269800041 
! Gamma         0                0                0                0                
! Port Impedance         50               0                50               0                
59.6                           0.22555611365097 65.8877450440111 0.971601880688568 -23.4613376357361 0.971601880688568 -23.4613376357361 0.225556582543576 65.8773109677915 
! Gamma         0                0                0                0                
! Port Impedance         50               0                50               0                
59.7                           0.225891727152716 65.850552693605  0.971522318172546 -23.4991235978952 0.971522318172546 -23.4991235978952 0.225892197117361 65.840100128469  
! Gamma         0                0                0                0                
! Port Impedance         50               0                50               0                
59.8                           0.226227153719358 65.8133655300752 0.971442680046234 -23.5369029551882 0.971442680046234 -23.5369029551882 0.226227624758142 65.8028944714364 
! Gamma         0                0                0                0                
! Port Impedance         50               0                50               0                
59.9                           0.226562393167205 65.776183562805  0.971362966520399 -23.5746757023504 0.971362966520399 -23.5746757023504 0.226562865282236 65.7656940060637 
! Gamma         0                0                0                0                
! Port Impedance         50               0                50               0                
60                             0.226897445312885 65.7390068011481 0.971283177805939 -23.6124418341377 0.971283177805939 -23.6124418341377 0.226897918506281 65.7284987416911 
! Gamma         0                0                0                0                
! Port Impedance         50               0                50               0                
60.1                           0.227232309973347 65.7018352544288 0.971203314113878 -23.650201345327 0.971203314113878 -23.650201345327 0.227232784247235 65.6913086876294 
! Gamma         0                0                0                0                
! Port Impedance         50               0                50               0                
60.2                           0.227566986965864 65.6646689319423 0.971123375655367 -23.687954230716 0.971123375655367 -23.687954230716 0.227567462322376 65.6541238531602 
! Gamma         0                0                0                0                
! Port Impedance         50               0                50               0                
60.3                           0.227901476108027 65.6275078429551 0.971043362641682 -23.7257004851232 0.971043362641682 -23.7257004851232 0.227901952549306 65.6169442475362 
! Gamma         0                0                0                0                
! Port Impedance         50               0                50               0                
60.4                           0.228235777217751 65.5903519967049 0.970963275284223 -23.7634401033881 0.970963275284223 -23.7634401033881 0.228236254745946 65.579769879982  
! Gamma         0                0                0                0                
! Port Impedance         50               0                50               0                
60.5                           0.228569890113274 65.5532014024017 0.970883113794514 -23.8011730803709 0.970883113794514 -23.8011730803709 0.22857036873054 65.5426007596937 
! Gamma         0                0                0                0                
! Port Impedance         50               0                50               0                
60.6                           0.228903814613155 65.5160560692274 0.9708028783842  -23.8388994109532 0.9708028783842  -23.8388994109532 0.228904294321656 65.5054368958398 
! Gamma         0                0                0                0                
! Port Impedance         50               0                50               0                
60.7                           0.229237550536278 65.4789160063364 0.970722569265044 -23.8766190900371 0.970722569265044 -23.8766190900371 0.229238031338182 65.4682782975611 
! Gamma         0                0                0                0                
! Port Impedance         50               0                50               0                
60.8                           0.229571097701849 65.4417812228561 0.970642186648933 -23.914332112546 0.970642186648933 -23.914332112546 0.229571579599332 65.4311249739713 
! Gamma         0                0                0                0                
! Port Impedance         50               0                50               0                
60.9                           0.229904455929399 65.4046517278866 0.970561730747867 -23.9520384734243 0.970561730747867 -23.9520384734243 0.229904938924641 65.3939769341572 
! Gamma         0                0                0                0                
! Port Impedance         50               0                50               0                
61                             0.230237625038783 65.3675275305017 0.970481201773966 -23.9897381676373 0.970481201773966 -23.9897381676373 0.230238109133971 65.3568341871788 
! Gamma         0                0                0                0                
! Port Impedance         50               0                50               0                
61.1                           0.23057060485018 65.3304086397487 0.970400599939464 -24.0274311901718 0.970400599939463 -24.0274311901718 0.230571090047506 65.3196967420699 
! Gamma         0                0                0                0                
! Port Impedance         50               0                50               0                
61.2                           0.230903395184096 65.2932950646489 0.970319925456708 -24.0651175360352 0.970319925456708 -24.0651175360352 0.230903881485756 65.2825646078382 
! Gamma         0                0                0                0                
! Port Impedance         50               0                50               0                
61.3                           0.231235995861359 65.2561868141979 0.970239178538161 -24.1027972002563 0.970239178538161 -24.1027972002563 0.231236483269555 65.2454377934657 
! Gamma         0                0                0                0                
! Port Impedance         50               0                50               0                
61.4                           0.231568406703127 65.2190838973656 0.970158359396395 -24.1404701778852 0.970158359396395 -24.1404701778852 0.231568895220063 65.208316307909  
! Gamma         0                0                0                0                
! Port Impedance         50               0                50               0                
61.5                           0.231900627530882 65.181986323097  0.970077468244094 -24.1781364639929 0.970077468244094 -24.1781364639929 0.231901117158767 65.1712001600992 
! Gamma         0                0                0                0                
! Port Impedance         50               0                50               0                
61.6                           0.232232658166433 65.1448941003118 0.969996505294051 -24.2157960536719 0.969996505294051 -24.2157960536719 0.232233148907479 65.1340893589426 
! Gamma         0                0                0                0                
! Port Impedance         50               0                50               0                
61.7                           0.232564498431915 65.1078072379055 0.969915470759166 -24.2534489420357 0.969915470759166 -24.2534489420357 0.232564990288338 65.0969839133211 
! Gamma         0                0                0                0                
! Port Impedance         50               0                50               0                
61.8                           0.232896148149793 65.0707257447487 0.969834364852449 -24.2910951242192 0.969834364852449 -24.2910951242192 0.23289664112381 65.0598838320918 
! Gamma         0                0                0                0                
! Port Impedance         50               0                50               0                
61.9                           0.233227607142857 65.0336496296883 0.969753187787011 -24.3287345953786 0.969753187787011 -24.3287345953786 0.233228101236689 65.022789124088  
! Gamma         0                0                0                0                
! Port Impedance         50               0                50               0                
62                             0.233558875234226 64.9965789015469 0.969671939776071 -24.3663673506914 0.969671939776071 -24.3663673506914 0.233559370450096 64.9856997981188 
! Gamma         0                0                0                0                
! Port Impedance         50               0                50               0                
62.1                           0.23388995224735 64.9595135691239 0.96959062103295 -24.4039933853564 0.96959062103295 -24.4039933853564 0.233890448587482 64.94861586297   
! Gamma         0                0                0                0                
! Port Impedance         50               0                50               0                
62.2                           0.234220838006004 64.922453641195  0.969509231771071 -24.4416126945938 0.969509231771071 -24.4416126945938 0.234221335472624 64.9115373274039 
! Gamma         0                0                0                0                
! Port Impedance         50               0                50               0                
62.3                           0.234551532334296 64.885399126513  0.969427772203957 -24.4792252736451 0.969427772203957 -24.4792252736451 0.234552030929631 64.8744642001596 
! Gamma         0                0                0                0                
! Port Impedance         50               0                50               0                
62.4                           0.234882035056662 64.8483500338075 0.969346242545233 -24.5168311177732 0.969346242545233 -24.5168311177732 0.234882534782939 64.8373964899534 
! Gamma         0                0                0                0                
! Port Impedance         50               0                50               0                
62.5                           0.235212345997869 64.811306371786  0.969264643008619 -24.5544302222627 0.969264643008619 -24.5544302222627 0.235212846857316 64.8003342054791 
! Gamma         0                0                0                0                
! Port Impedance         50               0                50               0                
62.6                           0.235542464983012 64.774268149133  0.969182973807935 -24.5920225824194 0.969182973807935 -24.5920225824194 0.235542966977858 64.7632773554079 
! Gamma         0                0                0                0                
! Port Impedance         50               0                50               0                
62.7                           0.235872391837522 64.7372353745113 0.969101235157095 -24.6296081935704 0.969101235157095 -24.6296081935704 0.235872894969993 64.726225948389  
! Gamma         0                0                0                0                
! Port Impedance         50               0                50               0                
62.8                           0.236202126387157 64.7002080565616 0.969019427270109 -24.6671870510648 0.969019427270109 -24.6671870510648 0.236202630659481 64.6891799930496 
! Gamma         0                0                0                0                
! Port Impedance         50               0                50               0                
62.9                           0.236531668458008 64.6631862039027 0.968937550361079 -24.7047591502726 0.968937550361079 -24.7047591502726 0.236532173872411 64.6521394979953 
! Gamma         0                0                0                0                
! Port Impedance         50               0                50               0                
63                             0.2368610178765  64.6261698251323 0.968855604644201 -24.742324486586 0.968855604644201 -24.742324486586 0.236861524435207 64.6151044718101 
! Gamma         0                0                0                0                
! Port Impedance         50               0                50               0                
63.1                           0.237190174469389 64.5891589288267 0.96877359033376 -24.7798830554181 0.96877359033376 -24.7798830554181 0.237190682174621 64.5780749230568 
! Gamma         0                0                0                0                
! Port Impedance         50               0                50               0                
63.2                           0.237519138063764 64.552153523541  0.968691507644134 -24.8174348522041 0.968691507644134 -24.8174348522041 0.237519646917743 64.5410508602772 
! Gamma         0                0                0                0                
! Port Impedance         50               0                50               0                
63.3                           0.237847908487047 64.5151536178097 0.968609356789787 -24.8549798724004 0.968609356789787 -24.8549798724004 0.237848418491992 64.5040322919925 
! Gamma         0                0                0                0                
! Port Impedance         50               0                50               0                
63.4                           0.238176485566997 64.4781592201466 0.968527137985271 -24.8925181114853 0.968527137985271 -24.8925181114853 0.238176996725122 64.467019226703  
! Gamma         0                0                0                0                
! Port Impedance         50               0                50               0                
63.5                           0.238504869131703 64.4411703390451 0.968444851445225 -24.9300495649585 0.968444851445225 -24.9300495649585 0.238505381445221 64.4300116728889 
! Gamma         0                0                0                0                
! Port Impedance         50               0                50               0                
63.6                           0.238833059009591 64.4041869829786 0.968362497384373 -24.9675742283416 0.968362497384373 -24.9675742283416 0.238833572480711 64.3930096390099 
! Gamma         0                0                0                0                
! Port Impedance         50               0                50               0                
63.7                           0.239161055029422 64.3672091604002 0.968280076017522 -25.0050920971776 0.968280076017522 -25.0050920971776 0.239161569660348 64.356013133506  
! Gamma         0                0                0                0                
! Port Impedance         50               0                50               0                
63.8                           0.239488857020292 64.3302368797436 0.968197587559562 -25.0426031670315 0.968197587559562 -25.0426031670315 0.239489372813225 64.3190221647975 
! Gamma         0                0                0                0                
! Port Impedance         50               0                50               0                
63.9                           0.239816464811633 64.2932701494226 0.968115032225466 -25.0801074334896 0.968115032225466 -25.0801074334896 0.23981698176877 64.282036741285  
! Gamma         0                0                0                0                
! Port Impedance         50               0                50               0                
64                             0.240143878233214 64.2563089778318 0.968032410230285 -25.1176048921603 0.968032410230285 -25.1176048921603 0.240144396356745 64.2450568713497 
! Gamma         0                0                0                0                
! Port Impedance         50               0                50               0                
64.1                           0.240471097115139 64.2193533733466 0.967949721789151 -25.1550955386735 0.967949721789151 -25.1550955386735 0.24047161640725 64.2080825633538 
! Gamma         0                0                0                0                
! Port Impedance         50               0                50               0                
64.2                           0.240798121287852 64.1824033443235 0.967866967117272 -25.192579368681 0.967866967117272 -25.192579368681 0.240798641750722 64.1711138256405 
! Gamma         0                0                0                0                
! Port Impedance         50               0                50               0                
64.3                           0.241124950582131 64.1454588991    0.967784146429935 -25.2300563778564 0.967784146429935 -25.2300563778564 0.241125472217936 64.1341506665341 
! Gamma         0                0                0                0                
! Port Impedance         50               0                50               0                
64.4                           0.241451584829095 64.1085200459952 0.967701259942502 -25.2675265618949 0.967701259942502 -25.2675265618949 0.241452107640001 64.0971930943404 
! Gamma         0                0                0                0                
! Port Impedance         50               0                50               0                
64.5                           0.2417780238602  64.0715867933095 0.967618307870407 -25.3049899165136 0.967618307870407 -25.3049899165136 0.241778547848367 64.0602411173467 
! Gamma         0                0                0                0                
! Port Impedance         50               0                50               0                
64.6                           0.24210426750724 64.0346591493254 0.967535290429161 -25.3424464374515 0.967535290429161 -25.3424464374515 0.242104792674823 64.0232947438223 
! Gamma         0                0                0                0                
! Port Impedance         50               0                50               0                
64.7                           0.24243031560235 63.9977371223071 0.967452207834343 -25.3798961204694 0.967452207834343 -25.3798961204694 0.242430841951494 63.9863539820184 
! Gamma         0                0                0                0                
! Port Impedance         50               0                50               0                
64.8                           0.242756167978004 63.9608207205011 0.967369060301607 -25.41733896135  0.967369060301607 -25.41733896135  0.242756695510847 63.949418840168  
! Gamma         0                0                0                0                
! Port Impedance         50               0                50               0                
64.9                           0.243081824467014 63.9239099521358 0.967285848046674 -25.4547749558977 0.967285848046674 -25.4547749558977 0.243082353185686 63.9124893264868 
! Gamma         0                0                0                0                
! Port Impedance         50               0                50               0                
65                             0.243407284902536 63.8870048254226 0.967202571285333 -25.4922040999389 0.967202571285333 -25.4922040999389 0.243407814809158 63.8755654491729 
! Gamma         0                0                0                0                
! Port Impedance         50               0                50               0                
65.1                           0.243732549118063 63.850105348555  0.967119230233442 -25.529626389322 0.967119230233442 -25.529626389322 0.243733080214748 63.8386472164069 
! Gamma         0                0                0                0                
! Port Impedance         50               0                50               0                
65.2                           0.244057616947433 63.8132115297098 0.967035825106926 -25.5670418199172 0.967035825106926 -25.5670418199172 0.244058149236283 63.8017346363524 
! Gamma         0                0                0                0                
! Port Impedance         50               0                50               0                
65.3                           0.244382488224822 63.7763233770464 0.966952356121772 -25.6044503876166 0.966952356121772 -25.6044503876166 0.244383021707931 63.7648277171558 
! Gamma         0                0                0                0                
! Port Impedance         50               0                50               0                
65.4                           0.244707162784752 63.7394408987073 0.966868823494033 -25.6418520883343 0.966868823494033 -25.6418520883343 0.244707697464201 63.7279264669467 
! Gamma         0                0                0                0                
! Port Impedance         50               0                50               0                
65.5                           0.245031640462083 63.7025641028186 0.966785227439824 -25.6792469180064 0.966785227439824 -25.6792469180064 0.245032176339945 63.6910308938383 
! Gamma         0                0                0                0                
! Port Impedance         50               0                50               0                
65.6                           0.245355921092021 63.6656929974895 0.966701568175321 -25.7166348725909 0.966701568175321 -25.7166348725909 0.245356458170358 63.6541410059268 
! Gamma         0                0                0                0                
! Port Impedance         50               0                50               0                
65.7                           0.245680004510115 63.6288275908131 0.966617845916762 -25.7540159480679 0.966617845916762 -25.7540159480679 0.245680542790977 63.6172568112923 
! Gamma         0                0                0                0                
! Port Impedance         50               0                50               0                
65.8                           0.246003890552256 63.5919678908659 0.966534060880442 -25.7913901404392 0.966534060880442 -25.7913901404392 0.246004430037681 63.5803783179986 
! Gamma         0                0                0                0                
! Port Impedance         50               0                50               0                
65.9                           0.246327579054681 63.5551139057086 0.966450213282715 -25.8287574457291 0.966450213282715 -25.8287574457291 0.246328119746696 63.5435055340935 
! Gamma         0                0                0                0                
! Port Impedance         50               0                50               0                
66                             0.24665106985397 63.5182656433859 0.966366303339993 -25.8661178599834 0.966366303339993 -25.8661178599834 0.24665161175459 63.5066384676088 
! Gamma         0                0                0                0                
! Port Impedance         50               0                50               0                
66.1                           0.24697436278705 63.4814231119266 0.966282331268743 -25.9034713792704 0.966282331268743 -25.9034713792704 0.246974905898275 63.4697771265605 
! Gamma         0                0                0                0                
! Port Impedance         50               0                50               0                
66.2                           0.247297457691189 63.4445863193437 0.966198297285484 -25.9408179996801 0.966198297285484 -25.9408179996801 0.247298002015008 63.4329215189491 
! Gamma         0                0                0                0                
! Port Impedance         50               0                50               0                
66.3                           0.247620354404006 63.4077552736352 0.966114201606793 -25.9781577173247 0.966114201606793 -25.9781577173247 0.247620899942394 63.3960716527594 
! Gamma         0                0                0                0                
! Port Impedance         50               0                50               0                
66.4                           0.247943052763463 63.3709299827831 0.966030044449295 -26.0154905283386 0.966030044449295 -26.0154905283386 0.247943599518381 63.3592275359611 
! Gamma         0                0                0                0                
! Port Impedance         50               0                50               0                
66.5                           0.248265552607869 63.3341104547545 0.965945826029669 -26.052816428878 0.965945826029669 -26.052816428878 0.248266100581263 63.3223891765086 
! Gamma         0                0                0                0                
! Port Impedance         50               0                50               0                
66.6                           0.24858785377588 63.2972966975015 0.965861546564643 -26.0901354151215 0.965861546564643 -26.0901354151215 0.248588402969682 63.285556582341  
! Gamma         0                0                0                0                
! Port Impedance         50               0                50               0                
66.7                           0.248909956106499 63.2604887189609 0.965777206270994 -26.1274474832696 0.965777206270994 -26.1274474832696 0.248910506522626 63.2487297613829 
! Gamma         0                0                0                0                
! Port Impedance         50               0                50               0                
66.8                           0.249231859439077 63.2236865270549 0.965692805365546 -26.164752629545 0.965692805365546 -26.164752629545 0.249232411079432 63.2119087215438 
! Gamma         0                0                0                0                
! Port Impedance         50               0                50               0                
66.9                           0.249553563613314 63.1868901296911 0.96560834406517 -26.2020508501924 0.96560834406517 -26.2020508501924 0.249554116479782 63.1750934707185 
! Gamma         0                0                0                0                
! Port Impedance         50               0                50               0                
67                             0.249875068469258 63.1500995347622 0.965523822586783 -26.2393421414789 0.965523822586783 -26.2393421414789 0.249875622563708 63.1382840167875 
! Gamma         0                0                0                0                
! Port Impedance         50               0                50               0                
67.1                           0.250196373847304 63.1133147501466 0.965439241147346 -26.2766264996936 0.965439241147346 -26.2766264996936 0.25019692917159 63.1014803676167 
! Gamma         0                0                0                0                
! Port Impedance         50               0                50               0                
67.2                           0.250517479588199 63.0765357837086 0.965354599963861 -26.3139039211476 0.965354599963861 -26.3139039211476 0.250518036144158 63.0646825310577 
! Gamma         0                0                0                0                
! Port Impedance         50               0                50               0                
67.3                           0.250838385533038 63.039762643298  0.965269899253377 -26.3511744021745 0.965269899253377 -26.3511744021745 0.250838943322488 63.0278905149481 
! Gamma         0                0                0                0                
! Port Impedance         50               0                50               0                
67.4                           0.251159091523268 63.0029953367507 0.965185139232979 -26.3884379391298 0.965185139232979 -26.3884379391298 0.251159650548011 62.9911043271112 
! Gamma         0                0                0                0                
! Port Impedance         50               0                50               0                
67.5                           0.251479597400684 62.9662338718884 0.965100320119794 -26.4256945283913 0.965100320119793 -26.4256945283913 0.251480157662503 62.9543239753567 
! Gamma         0                0                0                0                
! Port Impedance         50               0                50               0                
67.6                           0.251799903007433 62.9294782565194 0.965015442130987 -26.462944166359 0.965015442130987 -26.462944166359 0.251800464508093 62.9175494674803 
! Gamma         0                0                0                0                
! Port Impedance         50               0                50               0                
67.7                           0.252120008186014 62.8927284984378 0.964930505483761 -26.5001868494552 0.964930505483761 -26.5001868494552 0.252120570927261 62.880780811264  
! Gamma         0                0                0                0                
! Port Impedance         50               0                50               0                
67.8                           0.252439912779277 62.8559846054245 0.964845510395356 -26.5374225741242 0.964845510395356 -26.5374225741242 0.252440476762838 62.8440180144762 
! Gamma         0                0                0                0                
! Port Impedance         50               0                50               0                
67.9                           0.252759616630424 62.8192465852466 0.964760457083046 -26.5746513368326 0.964760457083046 -26.5746513368326 0.252760181858007 62.807261084872  
! Gamma         0                0                0                0                
! Port Impedance         50               0                50               0                
68                             0.253079119583009 62.7825144456579 0.96467534576414 -26.6118731340694 0.964675345764139 -26.6118731340694 0.253079686056301 62.7705100301931 
! Gamma         0                0                0                0                
! Port Impedance         50               0                50               0                
68.1                           0.25339842148094 62.7457881943991 0.964590176655979 -26.6490879623456 0.964590176655979 -26.6490879623456 0.253398989201608 62.7337648581679 
! Gamma         0                0                0                0                
! Port Impedance         50               0                50               0                
68.2                           0.253717522168477 62.7090678391976 0.964504949975938 -26.6862958181946 0.964504949975938 -26.6862958181946 0.253718091138169 62.6970255765116 
! Gamma         0                0                0                0                
! Port Impedance         50               0                50               0                
68.3                           0.254036421490236 62.6723533877676 0.964419665941422 -26.7234966981719 0.964419665941422 -26.7234966981719 0.254036991710576 62.6602921929267 
! Gamma         0                0                0                0                
! Port Impedance         50               0                50               0                
68.4                           0.254355119291183 62.6356448478106 0.964334324769864 -26.7606905988556 0.964334324769864 -26.7606905988556 0.254355690763775 62.6235647151023 
! Gamma         0                0                0                0                
! Port Impedance         50               0                50               0                
68.5                           0.254673615416641 62.5989422270151 0.964248926678728 -26.7978775168455 0.964248926678728 -26.7978775168455 0.254674188143068 62.5868431507151 
! Gamma         0                0                0                0                
! Port Impedance         50               0                50               0                
68.6                           0.254991909712289 62.5622455330568 0.964163471885504 -26.8350574487643 0.964163471885504 -26.8350574487643 0.254992483694111 62.5501275074289 
! Gamma         0                0                0                0                
! Port Impedance         50               0                50               0                
68.7                           0.255310002024158 62.525554773599  0.96407796060771 -26.8722303912566 0.96407796060771 -26.8722303912566 0.255310577262912 62.5134177928949 
! Gamma         0                0                0                0                
! Port Impedance         50               0                50               0                
68.8                           0.255627892198636 62.4888699562922 0.963992393062888 -26.9093963409893 0.963992393062888 -26.9093963409893 0.255628468695837 62.4767140147519 
! Gamma         0                0                0                0                
! Port Impedance         50               0                50               0                
68.9                           0.255945580082468 62.4521910887744 0.963906769468605 -26.9465552946517 0.963906769468605 -26.9465552946517 0.255946157839607 62.4400161806261 
! Gamma         0                0                0                0                
! Port Impedance         50               0                50               0                
69                             0.256263065522753 62.4155181786716 0.963821090042451 -26.9837072489554 0.963821090042451 -26.9837072489554 0.256263644541298 62.4033242981314 
! Gamma         0                0                0                0                
! Port Impedance         50               0                50               0                
69.1                           0.256580348366949 62.3788512335971 0.963735355002037 -27.0208522006343 0.963735355002037 -27.0208522006343 0.256580928648343 62.3666383748697 
! Gamma         0                0                0                0                
! Port Impedance         50               0                50               0                
69.2                           0.256897428462869 62.3421902611523 0.963649564564998 -27.0579901464446 0.963649564564998 -27.0579901464446 0.256898010008531 62.3299584184306 
! Gamma         0                0                0                0                
! Port Impedance         50               0                50               0                
69.3                           0.257214305658685 62.3055352689265 0.963563718948985 -27.0951210831648 0.963563718948985 -27.0951210831648 0.257214888470009 62.2932844363916 
! Gamma         0                0                0                0                
! Port Impedance         50               0                50               0                
69.4                           0.257530979802926 62.2688862644968 0.96347781837167 -27.1322450075957 0.96347781837167 -27.1322450075957 0.257531563881281 62.2566164363183 
! Gamma         0                0                0                0                
! Port Impedance         50               0                50               0                
69.5                           0.257847450744479 62.2322432554287 0.963391863050744 -27.1693619165605 0.963391863050744 -27.1693619165605 0.257848036091208 62.2199544257645 
! Gamma         0                0                0                0                
! Port Impedance         50               0                50               0                
69.6                           0.25816371833259 62.1956062492756 0.963305853203912 -27.2064718069047 0.963305853203912 -27.2064718069047 0.25816430494901 62.1832984122722 
! Gamma         0                0                0                0                
! Port Impedance         50               0                50               0                
69.7                           0.258479782416863 62.1589752535794 0.963219789048896 -27.2435746754961 0.963219789048896 -27.2435746754961 0.258480370304266 62.1466484033716 
! Gamma         0                0                0                0                
! Port Impedance         50               0                50               0                
69.8                           0.258795642847262 62.1223502758702 0.963133670803433 -27.2806705192249 0.963133670803433 -27.2806705192249 0.258796232006913 62.1100044065814 
! Gamma         0                0                0                0                
! Port Impedance         50               0                50               0                
69.9                           0.259111299474111 62.0857313236666 0.963047498685271 -27.3177593350036 0.963047498685271 -27.3177593350036 0.259111889907246 62.0733664294089 
! Gamma         0                0                0                0                
! Port Impedance         50               0                50               0                
70                             0.259426752148094 62.0491184044756 0.962961272912174 -27.3548411197671 0.962961272912174 -27.3548411197671 0.259427343855923 62.0367344793496 
! Gamma         0                0                0                0                
! Port Impedance         50               0                50               0                
70.1                           0.259742000720254 62.012511525793  0.962874993701915 -27.3919158704725 0.962874993701915 -27.3919158704725 0.259742593703959 62.000108563888  
! Gamma         0                0                0                0                
! Port Impedance         50               0                50               0                
70.2                           0.260057045041995 61.9759106951031 0.962788661272278 -27.4289835840996 0.962788661272278 -27.4289835840996 0.26005763930273 61.9634886904971 
! Gamma         0                0                0                0                
! Port Impedance         50               0                50               0                
70.3                           0.260371884965084 61.939315919879  0.962702275841055 -27.4660442576503 0.962702275841055 -27.4660442576503 0.260372480503974 61.9268748666388 
! Gamma         0                0                0                0                
! Port Impedance         50               0                50               0                
70.4                           0.260686520341647 61.9027272075828 0.962615837626049 -27.5030978881488 0.962615837626049 -27.5030978881488 0.260687117159788 61.8902670997639 
! Gamma         0                0                0                0                
! Port Impedance         50               0                50               0                
70.5                           0.261000951024172 61.8661445656652 0.962529346845066 -27.5401444726418 0.962529346845066 -27.5401444726418 0.261001549122632 61.853665397312  
! Gamma         0                0                0                0                
! Port Impedance         50               0                50               0                
70.6                           0.261315176865512 61.8295680015661 0.962442803715921 -27.5771840081984 0.962442803715921 -27.5771840081984 0.261315776245327 61.8170697667118 
! Gamma         0                0                0                0                
! Port Impedance         50               0                50               0                
70.7                           0.261629197718879 61.7929975227143 0.962356208456433 -27.61421649191  0.962356208456433 -27.61421649191  0.261629798381056 61.7804802153811 
! Gamma         0                0                0                0                
! Port Impedance         50               0                50               0                
70.8                           0.261943013437849 61.7564331365279 0.962269561284426 -27.6512419208904 0.962269561284426 -27.6512419208904 0.261943615383366 61.7438967507269 
! Gamma         0                0                0                0                
! Port Impedance         50               0                50               0                
70.9                           0.262256623876362 61.719874850414  0.962182862417726 -27.6882602922759 0.962182862417726 -27.6882602922759 0.262257227106164 61.7073193801455 
! Gamma         0                0                0                0                
! Port Impedance         50               0                50               0                
71                             0.262570028888721 61.6833226717691 0.96209611207416 -27.7252716032249 0.96209611207416 -27.7252716032249 0.262570633403723 61.6707481110223 
! Gamma         0                0                0                0                
! Port Impedance         50               0                50               0                
71.1                           0.262883228329592 61.6467766079791 0.962009310471557 -27.7622758509183 0.962009310471557 -27.7622758509183 0.262883834130677 61.6341829507322 
! Gamma         0                0                0                0                
! Port Impedance         50               0                50               0                
71.2                           0.263196222054006 61.610236666419  0.961922457827745 -27.7992730325597 0.961922457827745 -27.7992730325597 0.263196829142025 61.5976239066395 
! Gamma         0                0                0                0                
! Port Impedance         50               0                50               0                
71.3                           0.263509009917359 61.5737028544535 0.961835554360553 -27.8362631453745 0.961835554360553 -27.8362631453745 0.263509618293132 61.5610709860982 
! Gamma         0                0                0                0                
! Port Impedance         50               0                50               0                
71.4                           0.263821591775412 61.5371751794368 0.961748600287803 -27.8732461866111 0.961748600287803 -27.8732461866111 0.263822201439724 61.5245241964516 
! Gamma         0                0                0                0                
! Port Impedance         50               0                50               0                
71.5                           0.264133967484289 61.5006536487127 0.961661595827318 -27.9102221535398 0.961661595827318 -27.9102221535398 0.264134578437894 61.4879835450327 
! Gamma         0                0                0                0                
! Port Impedance         50               0                50               0                
71.6                           0.264446136900482 61.4641382696145 0.961574541196915 -27.9471910434535 0.961574541196915 -27.9471910434535 0.2644467491441  61.4514490391644 
! Gamma         0                0                0                0                
! Port Impedance         50               0                50               0                
71.7                           0.264758099880849 61.4276290494655 0.961487436614406 -27.9841528536675 0.961487436614406 -27.9841528536675 0.264758713415166 61.4149206861591 
! Gamma         0                0                0                0                
! Port Impedance         50               0                50               0                
71.8                           0.265069856282612 61.3911259955785 0.961400282297595 -28.0211075815196 0.961400282297595 -28.0211075815196 0.26507047110828 61.3783984933192 
! Gamma         0                0                0                0                
! Port Impedance         50               0                50               0                
71.9                           0.265381405963362 61.3546291152563 0.961313078464281 -28.0580552243696 0.961313078464281 -28.0580552243696 0.265382022080998 61.3418824679369 
! Gamma         0                0                0                0                
! Port Impedance         50               0                50               0                
72                             0.265692748781054 61.3181384157914 0.961225825332253 -28.0949957796002 0.961225825332253 -28.0949957796002 0.265693366191242 61.3053726172943 
! Gamma         0                0                0                0                
! Port Impedance         50               0                50               0                
72.1                           0.266003884594014 61.2816539044666 0.96113852311929 -28.1319292446162 0.96113852311929 -28.1319292446162 0.266004503297301 61.2688689486637 
! Gamma         0                0                0                0                
! Port Impedance         50               0                50               0                
72.2                           0.266314813260933 61.2451755885543 0.961051172043163 -28.1688556168448 0.961051172043163 -28.1688556168448 0.26631543325783 61.2323714693071 
! Gamma         0                0                0                0                
! Port Impedance         50               0                50               0                
72.3                           0.26662553464087 61.2087034753173 0.960963772321629 -28.2057748937356 0.960963772321629 -28.2057748937356 0.266626155931854 61.1958801864771 
! Gamma         0                0                0                0                
! Port Impedance         50               0                50               0                
72.4                           0.266936048593253 61.1722375720083 0.960876324172432 -28.2426870727607 0.960876324172432 -28.2426870727607 0.266936671178763 61.159395107416  
! Gamma         0                0                0                0                
! Port Impedance         50               0                50               0                
72.5                           0.267246354977878 61.1357778858702 0.960788827813305 -28.2795921514145 0.960788827813305 -28.2795921514145 0.267246978858317 61.1229162393566 
! Gamma         0                0                0                0                
! Port Impedance         50               0                50               0                
72.6                           0.26755645365491 61.0993244241363 0.960701283461965 -28.3164901272139 0.960701283461965 -28.3164901272139 0.267557078830645 61.0864435895218 
! Gamma         0                0                0                0                
! Port Impedance         50               0                50               0                
72.7                           0.267866344484883 61.06287719403   0.960613691336114 -28.353380997698 0.960613691336114 -28.353380997698 0.267866970956242 61.049977165125  
! Gamma         0                0                0                0                
! Port Impedance         50               0                50               0                
72.8                           0.268176027328701 61.026436202765  0.960526051653437 -28.3902647604284 0.960526051653437 -28.3902647604284 0.268176655095975 61.0135169733698 
! Gamma         0                0                0                0                
! Port Impedance         50               0                50               0                
72.9                           0.268485502047637 60.9900014575456 0.960438364631601 -28.4271414129892 0.960438364631601 -28.4271414129892 0.268486131111079 60.9770630214504 
! Gamma         0                0                0                0                
! Port Impedance         50               0                50               0                
73                             0.268794768503334 60.9535729655662 0.960350630488255 -28.4640109529868 0.960350630488255 -28.4640109529868 0.268795398863159 60.9406153165513 
! Gamma         0                0                0                0                
! Port Impedance         50               0                50               0                
73.1                           0.269103826557807 60.9171507340119 0.960262849441028 -28.5008733780499 0.960262849441028 -28.5008733780499 0.269104458214189 60.9041738658476 
! Gamma         0                0                0                0                
! Port Impedance         50               0                50               0                
73.2                           0.26941267607344 60.8807347700583 0.960175021707531 -28.5377286858296 0.960175021707531 -28.5377286858296 0.269413309026517 60.867738676505  
! Gamma         0                0                0                0                
! Port Impedance         50               0                50               0                
73.3                           0.269721316912989 60.8443250808715 0.960087147505349 -28.5745768739996 0.960087147505349 -28.5745768739996 0.269721951162857 60.8313097556799 
! Gamma         0                0                0                0                
! Port Impedance         50               0                50               0                
73.4                           0.27002974893958 60.8079216736083 0.959999227052048 -28.6114179402557 0.959999227052048 -28.6114179402557 0.270030384486296 60.7948871105191 
! Gamma         0                0                0                0                
! Port Impedance         50               0                50               0                
73.5                           0.270337972016712 60.7715245554161 0.95991126056517 -28.6482518823162 0.95991126056517 -28.6482518823162 0.270338608860293 60.7584707481603 
! Gamma         0                0                0                0                
! Port Impedance         50               0                50               0                
73.6                           0.270645986008255 60.7351337334329 0.959823248262232 -28.6850786979219 0.959823248262232 -28.6850786979219 0.270646624148677 60.722060675732  
! Gamma         0                0                0                0                
! Port Impedance         50               0                50               0                
73.7                           0.270953790778452 60.6987492147876 0.959735190360724 -28.7218983848359 0.959735190360724 -28.7218983848359 0.270954430215651 60.6856569003532 
! Gamma         0                0                0                0                
! Port Impedance         50               0                50               0                
73.8                           0.271261386191918 60.6623710065998 0.959647087078112 -28.7587109408434 0.959647087078112 -28.7587109408434 0.271262026925788 60.6492594291342 
! Gamma         0                0                0                0                
! Port Impedance         50               0                50               0                
73.9                           0.271568772113642 60.6259991159801 0.959558938631834 -28.7955163637525 0.959558938631834 -28.7955163637525 0.271569414144034 60.6128682691757 
! Gamma         0                0                0                0                
! Port Impedance         50               0                50               0                
74                             0.271875948408982 60.5896335500296 0.9594707452393  -28.8323146513932 0.9594707452393  -28.8323146513932 0.271876591735709 60.5764834275697 
! Gamma         0                0                0                0                
! Port Impedance         50               0                50               0                
74.1                           0.272182914943675 60.5532743158407 0.959382507117888 -28.869105801618 0.959382507117888 -28.869105801618 0.272183559566503 60.5401049113989 
! Gamma         0                0                0                0                
! Port Impedance         50               0                50               0                
74.2                           0.272489671583828 60.5169214204965 0.95929422448495 -28.905889812302 0.95929422448495 -28.905889812302 0.272490317502484 60.5037327277372 
! Gamma         0                0                0                0                
! Port Impedance         50               0                50               0                
74.3                           0.272796218195924 60.4805748710712 0.959205897557804 -28.9426666813423 0.959205897557804 -28.9426666813423 0.272796865410088 60.4673668836493 
! Gamma         0                0                0                0                
! Port Impedance         50               0                50               0                
74.4                           0.273102554646817 60.44423467463   0.959117526553735 -28.9794364066586 0.959117526553735 -28.9794364066586 0.273103203156131 60.4310073861911 
! Gamma         0                0                0                0                
! Port Impedance         50               0                50               0                
74.5                           0.273408680803739 60.4079008382291 0.959029111689998 -29.016198986193 0.959029111689998 -29.016198986193 0.273409330607797 60.3946542424098 
! Gamma         0                0                0                0                
! Port Impedance         50               0                50               0                
74.6                           0.273714596534296 60.3715733689159 0.95894065318381 -29.0529544179096 0.95894065318381 -29.0529544179096 0.273715247632649 60.3583074593434 
! Gamma         0                0                0                0                
! Port Impedance         50               0                50               0                
74.7                           0.274020301706467 60.3352522737288 0.958852151252357 -29.0897026997951 0.958852151252357 -29.0897026997951 0.274020954098623 60.3219670440214 
! Gamma         0                0                0                0                
! Port Impedance         50               0                50               0                
74.8                           0.274325796188609 60.2989375596975 0.958763606112785 -29.1264438298587 0.958763606112785 -29.1264438298587 0.27432644987403 60.2856330034642 
! Gamma         0                0                0                0                
! Port Impedance         50               0                50               0                
74.9                           0.274631079849453 60.2626292338429 0.958675017982207 -29.1631778061316 0.958675017982207 -29.1631778061316 0.274631734827556 60.2493053446838 
! Gamma         0                0                0                0                
! Port Impedance         50               0                50               0                
75                             0.274936152558106 60.2263273031769 0.958586387077694 -29.1999046266675 0.958586387077694 -29.1999046266675 0.274936808828264 60.2129840746831 
! Gamma         0                0                0                0                
! Port Impedance         50               0                50               0                
75.1                           0.275241014184052 60.190031774703  0.958497713616281 -29.2366242895425 0.958497713616281 -29.2366242895425 0.27524167174559 60.1766692004567 
! Gamma         0                0                0                0                
! Port Impedance         50               0                50               0                
75.2                           0.275545664597151 60.1537426554158 0.958408997814963 -29.2733367928548 0.958408997814963 -29.2733367928548 0.275546323449348 60.1403607289903 
! Gamma         0                0                0                0                
! Port Impedance         50               0                50               0                
75.3                           0.275850103667638 60.1174599523013 0.958320239890692 -29.3100421347252 0.958320239890692 -29.3100421347252 0.275850763809729 60.1040586672612 
! Gamma         0                0                0                0                
! Port Impedance         50               0                50               0                
75.4                           0.276154331266128 60.0811836723368 0.958231440060382 -29.3467403132966 0.958231440060382 -29.3467403132966 0.2761549926973  60.0677630222377 
! Gamma         0                0                0                0                
! Port Impedance         50               0                50               0                
75.5                           0.276458347263611 60.0449138224909 0.9581425985409  -29.3834313267343 0.9581425985409  -29.3834313267343 0.276459009983003 60.0314738008801 
! Gamma         0                0                0                0                
! Port Impedance         50               0                50               0                
75.6                           0.276762151531456 60.008650409724  0.958053715549073 -29.4201151732259 0.958053715549073 -29.4201151732259 0.27676281553816 59.9951910101398 
! Gamma         0                0                0                0                
! Port Impedance         50               0                50               0                
75.7                           0.277065743941407 59.9723934409875 0.957964791301683 -29.4567918509813 0.957964791301683 -29.4567918509813 0.277066409234468 59.9589146569598 
! Gamma         0                0                0                0                
! Port Impedance         50               0                50               0                
75.8                           0.277369124365588 59.9361429232245 0.957875826015465 -29.4934613582326 0.957875826015465 -29.4934613582326 0.277369790944003 59.9226447482746 
! Gamma         0                0                0                0                
! Port Impedance         50               0                50               0                
75.9                           0.277672292676503 59.8998988633697 0.957786819907108 -29.5301236932344 0.957786819907108 -29.5301236932344 0.277672960539219 59.8863812910103 
! Gamma         0                0                0                0                
! Port Impedance         50               0                50               0                
76                             0.27797524874703 59.8636612683491 0.957697773193256 -29.5667788542634 0.957697773193256 -29.5667788542634 0.277975917892947 59.8501242920846 
! Gamma         0                0                0                0                
! Port Impedance         50               0                50               0                
76.1                           0.278277992450428 59.8274301450804 0.957608686090502 -29.6034268396186 0.957608686090502 -29.6034268396186 0.278278662878397 59.8138737584068 
! Gamma         0                0                0                0                
! Port Impedance         50               0                50               0                
76.2                           0.278580523660337 59.7912055004728 0.957519558815391 -29.6400676476213 0.957519558815391 -29.6400676476213 0.278581195369158 59.7776296968778 
! Gamma         0                0                0                0                
! Port Impedance         50               0                50               0                
76.3                           0.278882842250772 59.7549873414272 0.95743039158442 -29.6767012766151 0.95743039158442 -29.6767012766151 0.278883515239197 59.7413921143902 
! Gamma         0                0                0                0                
! Port Impedance         50               0                50               0                
76.4                           0.279184948096131 59.7187756748362 0.957341184614031 -29.7133277249659 0.957341184614031 -29.7133277249659 0.27918562236286 59.7051610178283 
! Gamma         0                0                0                0                
! Port Impedance         50               0                50               0                
76.5                           0.27948684107119 59.6825705075838 0.957251938120617 -29.7499469910617 0.957251938120617 -29.7499469910617 0.279487516614874 59.668936414068  
! Gamma         0                0                0                0                
! Port Impedance         50               0                50               0                
76.6                           0.279788521051104 59.6463718465459 0.95716265232052 -29.7865590733128 0.95716265232052 -29.7865590733128 0.279789197870344 59.6327183099772 
! Gamma         0                0                0                0                
! Port Impedance         50               0                50               0                
76.7                           0.280089987911411 59.6101796985901 0.957073327430023 -29.8231639701519 0.957073327430023 -29.8231639701519 0.280090666004755 59.5965067124153 
! Gamma         0                0                0                0                
! Port Impedance         50               0                50               0                
76.8                           0.280391241528026 59.5739940705757 0.95698396366536 -29.8597616800337 0.95698396366536 -29.8597616800337 0.280391920893973 59.5603016282336 
! Gamma         0                0                0                0                
! Port Impedance         50               0                50               0                
76.9                           0.280692281777247 59.5378149693536 0.956894561242706 -29.8963522014352 0.956894561242706 -29.8963522014352 0.280692962414242 59.5241030642751 
! Gamma         0                0                0                0                
! Port Impedance         50               0                50               0                
77                             0.280993108535751 59.5016424017667 0.956805120378183 -29.9329355328558 0.956805120378183 -29.9329355328558 0.28099379044219 59.4879110273748 
! Gamma         0                0                0                0                
! Port Impedance         50               0                50               0                
77.1                           0.281293721680598 59.4654763746496 0.956715641287852 -29.9695116728169 0.956715641287852 -29.9695116728169 0.281294404854822 59.4517255243595 
! Gamma         0                0                0                0                
! Port Impedance         50               0                50               0                
77.2                           0.281594121089228 59.4293168948287 0.956626124187718 -30.0060806198621 0.956626124187718 -30.0060806198621 0.281594805529526 59.4155465620477 
! Gamma         0                0                0                0                
! Port Impedance         50               0                50               0                
77.3                           0.281894306639463 59.3931639691221 0.956536569293727 -30.0426423725574 0.956536569293727 -30.0426423725574 0.281894992344071 59.37937414725   
! Gamma         0                0                0                0                
! Port Impedance         50               0                50               0                
77.4                           0.282194278209505 59.3570176043402 0.956446976821766 -30.0791969294908 0.956446976821766 -30.0791969294908 0.282194965176607 59.3432082867689 
! Gamma         0                0                0                0                
! Port Impedance         50               0                50               0                
77.5                           0.282494035677941 59.3208778072847 0.956357346987659 -30.1157442892725 0.956357346987659 -30.1157442892725 0.282494723905666 59.3070489873986 
! Gamma         0                0                0                0                
! Port Impedance         50               0                50               0                
77.6                           0.282793578923737 59.2847445847496 0.95626768000717 -30.1522844505349 0.95626768000717 -30.1522844505349 0.282794268410162 59.2708962559254 
! Gamma         0                0                0                0                
! Port Impedance         50               0                50               0                
77.7                           0.283092907826244 59.2486179435207 0.956177976096001 -30.1888174119328 0.956177976096001 -30.1888174119328 0.283093598569389 59.2347500991278 
! Gamma         0                0                0                0                
! Port Impedance         50               0                50               0                
77.8                           0.283392022265193 59.2124978903756 0.95608823546979 -30.2253431721427 0.95608823546979 -30.2253431721427 0.283392714263026 59.1986105237757 
! Gamma         0                0                0                0                
! Port Impedance         50               0                50               0                
77.9                           0.2836909221207  59.176384432084  0.95599845834411 -30.2618617298636 0.95599845834411 -30.2618617298636 0.283691615371134 59.1624775366317 
! Gamma         0                0                0                0                
! Port Impedance         50               0                50               0                
78                             0.283989607273262 59.1402775754076 0.955908644934469 -30.2983730838167 0.955908644934469 -30.2983730838167 0.283990301774154 59.1263511444499 
! Gamma         0                0                0                0                
! Port Impedance         50               0                50               0                
78.1                           0.28428807760376 59.1041773270998 0.955818795456311 -30.3348772327449 0.955818795456311 -30.3348772327449 0.284288773352912 59.0902313539765 
! Gamma         0                0                0                0                
! Port Impedance         50               0                50               0                
78.2                           0.284586332993459 59.0680836939063 0.955728910125011 -30.3713741754137 0.955728910125011 -30.3713741754137 0.284587029988618 59.0541181719501 
! Gamma         0                0                0                0                
! Port Impedance         50               0                50               0                
78.3                           0.284884373324007 59.0319966825647 0.955638989155877 -30.4078639106105 0.955638989155877 -30.4078639106105 0.284885071562863 59.0180116051009 
! Gamma         0                0                0                0                
! Port Impedance         50               0                50               0                
78.4                           0.285182198477435 58.9959162998045 0.95554903276415 -30.4443464371448 0.95554903276415 -30.4443464371448 0.285182897957622 58.9819116601515 
! Gamma         0                0                0                0                
! Port Impedance         50               0                50               0                
78.5                           0.285479808336159 58.9598425523476 0.955459041164999 -30.4808217538483 0.955459041164999 -30.4808217538483 0.285480509055254 58.9458183438165 
! Gamma         0                0                0                0                
! Port Impedance         50               0                50               0                
78.6                           0.285777202782979 58.9237754469075 0.955369014573525 -30.5172898595747 0.955369014573524 -30.5172898595747 0.285777904738503 58.9097316628025 
! Gamma         0                0                0                0                
! Port Impedance         50               0                50               0                
78.7                           0.286074381701077 58.88771499019   0.955278953204755 -30.5537507531998 0.955278953204755 -30.5537507531998 0.286075084890495 58.8736516238085 
! Gamma         0                0                0                0                
! Port Impedance         50               0                50               0                
78.8                           0.286371344974024 58.8516611888931 0.955188857273649 -30.5902044336216 0.955188857273649 -30.5902044336216 0.28637204939474 58.8375782335254 
! Gamma         0                0                0                0                
! Port Impedance         50               0                50               0                
78.9                           0.286668092485772 58.8156140497066 0.955098726995089 -30.6266508997599 0.955098726995089 -30.6266508997599 0.286668798135135 58.8015114986362 
! Gamma         0                0                0                0                
! Port Impedance         50               0                50               0                
79                             0.286964624120658 58.7795735793126 0.955008562583886 -30.6630901505568 0.955008562583886 -30.6630901505568 0.286965330995959 58.7654514258163 
! Gamma         0                0                0                0                
! Port Impedance         50               0                50               0                
79.1                           0.287260939763406 58.7435397843854 0.954918364254776 -30.6995221849764 0.954918364254776 -30.6995221849764 0.287261647861877 58.7293980217331 
! Gamma         0                0                0                0                
! Port Impedance         50               0                50               0                
79.2                           0.287557039299125 58.7075126715912 0.954828132222421 -30.7359470020048 0.954828132222421 -30.7359470020048 0.287557748617937 58.6933512930462 
! Gamma         0                0                0                0                
! Port Impedance         50               0                50               0                
79.3                           0.287852922613306 58.6714922475884 0.954737866701405 -30.77236460065  0.954737866701405 -30.77236460065  0.287853633149576 58.6573112464075 
! Gamma         0                0                0                0                
! Port Impedance         50               0                50               0                
79.4                           0.28814858959183 58.6354785190278 0.954647567906236 -30.8087749799423 0.954647567906236 -30.8087749799423 0.288149301342612 58.6212778884611 
! Gamma         0                0                0                0                
! Port Impedance         50               0                50               0                
79.5                           0.288444040120961 58.599471492552  0.954557236051343 -30.8451781389338 0.954557236051343 -30.8451781389338 0.288444753083251 58.5852512258432 
! Gamma         0                0                0                0                
! Port Impedance         50               0                50               0                
79.6                           0.28873927408735 58.5634711747961 0.954466871351078 -30.8815740766986 0.954466871351078 -30.8815740766986 0.288739988258084 58.5492312651823 
! Gamma         0                0                0                0                
! Port Impedance         50               0                50               0                
79.7                           0.289034291378034 58.5274775723871 0.954376474019714 -30.9179627923329 0.954376474019714 -30.9179627923329 0.289035006754087 58.5132180130991 
! Gamma         0                0                0                0                
! Port Impedance         50               0                50               0                
79.8                           0.289329091880434 58.4914906919445 0.954286044271441 -30.9543442849548 0.954286044271441 -30.9543442849548 0.289329808458624 58.4772114762067 
! Gamma         0                0                0                0                
! Port Impedance         50               0                50               0                
79.9                           0.289623675482362 58.4555105400796 0.95419558232037 -30.9907185537045 0.95419558232037 -30.9907185537045 0.289624393259441 58.4412116611104 
! Gamma         0                0                0                0                
! Port Impedance         50               0                50               0                
80                             0.289918042072011 58.4195371233964 0.95410508838053 -31.0270855977438 0.95410508838053 -31.0270855977438 0.289918761044675 58.4052185744075 
! Gamma         0                0                0                0                
! Port Impedance         50               0                50               0                
80.1                           0.290212191537965 58.3835704484908 0.954014562665867 -31.063445416257 0.954014562665867 -31.063445416257 0.290212911702846 58.369232222688  
! Gamma         0                0                0                0                
! Port Impedance         50               0                50               0                
80.2                           0.290506123769194 58.3476105219509 0.953924005390243 -31.0997980084497 0.953924005390243 -31.0997980084497 0.290506845122863 58.333252612534  
! Gamma         0                0                0                0                
! Port Impedance         50               0                50               0                
80.3                           0.290799838655052 58.3116573503573 0.953833416767436 -31.13614337355  0.953833416767436 -31.13614337355  0.290800561194019 58.2972797505198 
! Gamma         0                0                0                0                
! Port Impedance         50               0                50               0                
80.4                           0.291093336085284 58.2757109402826 0.95374279701114 -31.1724815108076 0.95374279701114 -31.1724815108076 0.291094059805997 58.2613136432121 
! Gamma         0                0                0                0                
! Port Impedance         50               0                50               0                
80.5                           0.291386615950019 58.2397712982918 0.95365214633496 -31.2088124194941 0.953652146334961 -31.2088124194941 0.291387340848864 58.2253542971699 
! Gamma         0                0                0                0                
! Port Impedance         50               0                50               0                
80.6                           0.291679678139777 58.2038384309421 0.953561464952418 -31.2451360989032 0.953561464952418 -31.2451360989032 0.291680404213075 58.1894017189447 
! Gamma         0                0                0                0                
! Port Impedance         50               0                50               0                
80.7                           0.291972522545463 58.167912344783  0.953470753076946 -31.2814525483502 0.953470753076946 -31.2814525483502 0.291973249789475 58.1534559150799 
! Gamma         0                0                0                0                
! Port Impedance         50               0                50               0                
80.8                           0.292265149058369 58.1319930463563 0.953380010921889 -31.3177617671725 0.953380010921889 -31.3177617671725 0.292265877469292 58.1175168921117 
! Gamma         0                0                0                0                
! Port Impedance         50               0                50               0                
80.9                           0.292557557570178 58.096080542196  0.953289238700501 -31.3540637547292 0.953289238700501 -31.3540637547292 0.292558287144145 58.0815846565682 
! Gamma         0                0                0                0                
! Port Impedance         50               0                50               0                
81                             0.292849747972957 58.0601748388285 0.953198436625947 -31.3903585104015 0.953198436625947 -31.3903585104015 0.292850478706039 58.0456592149703 
! Gamma         0                0                0                0                
! Port Impedance         50               0                50               0                
81.1                           0.293141720159164 58.0242759427723 0.953107604911303 -31.4266460335921 0.953107604911303 -31.4266460335921 0.293142452047367 58.009740573831  
! Gamma         0                0                0                0                
! Port Impedance         50               0                50               0                
81.2                           0.293433474021645 57.9883838605384 0.953016743769552 -31.4629263237257 0.953016743769552 -31.4629263237257 0.293434207060911 57.9738287396555 
! Gamma         0                0                0                0                
! Port Impedance         50               0                50               0                
81.3                           0.293725009453634 57.9524985986302 0.952925853413583 -31.4991993802489 0.952925853413583 -31.4991993802489 0.293725743639839 57.9379237189417 
! Gamma         0                0                0                0                
! Port Impedance         50               0                50               0                
81.4                           0.294016326348751 57.916620163543  0.952834934056196 -31.5354652026298 0.952834934056196 -31.5354652026298 0.29401706167771 57.9020255181796 
! Gamma         0                0                0                0                
! Port Impedance         50               0                50               0                
81.5                           0.294307424601009 57.8807485617648 0.952743985910093 -31.5717237903587 0.952743985910093 -31.5717237903587 0.294308161068469 57.8661341438518 
! Gamma         0                0                0                0                
! Port Impedance         50               0                50               0                
81.6                           0.294598304104807 57.8448837997757 0.952653009187884 -31.6079751429474 0.952653009187884 -31.6079751429474 0.294599041706451 57.8302496024331 
! Gamma         0                0                0                0                
! Port Impedance         50               0                50               0                
81.7                           0.294888964754932 57.8090258840484 0.952562004102083 -31.6442192599295 0.952562004102083 -31.6442192599295 0.294889703486378 57.7943719003907 
! Gamma         0                0                0                0                
! Port Impedance         50               0                50               0                
81.8                           0.295179406446563 57.7731748210475 0.952470970865107 -31.6804561408604 0.952470970865107 -31.6804561408604 0.295180146303362 57.7585010441843 
! Gamma         0                0                0                0                
! Port Impedance         50               0                50               0                
81.9                           0.295469629075266 57.7373306172304 0.952379909689278 -31.7166857853172 0.952379909689278 -31.7166857853172 0.295470370052903 57.7226370402659 
! Gamma         0                0                0                0                
! Port Impedance         50               0                50               0                
82                             0.295759632536996 57.7014932790464 0.952288820786817 -31.7529081928988 0.952288820786817 -31.7529081928988 0.295760374630892 57.6867798950799 
! Gamma         0                0                0                0                
! Port Impedance         50               0                50               0                
82.1                           0.296049416728098 57.6656628129375 0.95219770436985 -31.7891233632257 0.95219770436985 -31.7891233632257 0.296050159933605 57.6509296150631 
! Gamma         0                0                0                0                
! Port Impedance         50               0                50               0                
82.2                           0.296338981545306 57.6298392253379 0.952106560650402 -31.8253312959402 0.952106560650402 -31.8253312959402 0.296339725857712 57.6150862066446 
! Gamma         0                0                0                0                
! Port Impedance         50               0                50               0                
82.3                           0.296628326885745 57.5940225226741 0.952015389840399 -31.8615319907063 0.952015389840399 -31.8615319907063 0.296629072300268 57.5792496762462 
! Gamma         0                0                0                0                
! Port Impedance         50               0                50               0                
82.4                           0.296917452646926 57.5582127113649 0.951924192151665 -31.8977254472097 0.951924192151665 -31.8977254472097 0.29691819915872 57.5434200302818 
! Gamma         0                0                0                0                
! Port Impedance         50               0                50               0                
82.5                           0.297206358726754 57.5224097978217 0.951832967795923 -31.9339116651575 0.951832967795923 -31.9339116651575 0.297207106330903 57.5075972751578 
! Gamma         0                0                0                0                
! Port Impedance         50               0                50               0                
82.6                           0.297495045023522 57.4866137884479 0.951741716984793 -31.9700906442788 0.951741716984793 -31.9700906442788 0.297495793715043 57.471781417273  
! Gamma         0                0                0                0                
! Port Impedance         50               0                50               0                
82.7                           0.297783511435911 57.4508246896396 0.951650439929795 -32.0062623843242 0.951650439929795 -32.0062623843242 0.297784261209753 57.4359724630187 
! Gamma         0                0                0                0                
! Port Impedance         50               0                50               0                
82.8                           0.298071757862995 57.4150425077851 0.951559136842342 -32.0424268850659 0.951559136842342 -32.0424268850659 0.29807250871404 57.4001704187786 
! Gamma         0                0                0                0                
! Port Impedance         50               0                50               0                
82.9                           0.298359784204236 57.379267249265  0.951467807933743 -32.0785841462977 0.951467807933744 -32.0785841462977 0.298360536127297 57.3643752909286 
! Gamma         0                0                0                0                
! Port Impedance         50               0                50               0                
83                             0.298647590359488 57.3434989204524 0.951376453415204 -32.1147341678351 0.951376453415204 -32.1147341678351 0.298648343349309 57.3285870858374 
! Gamma         0                0                0                0                
! Port Impedance         50               0                50               0                
83.1                           0.298935176228993 57.3077375277126 0.951285073497823 -32.150876949515 0.951285073497823 -32.150876949515 0.29893593028025 57.2928058098656 
! Gamma         0                0                0                0                
! Port Impedance         50               0                50               0                
83.2                           0.299222541713385 57.2719830774033 0.951193668392591 -32.1870124911962 0.951193668392591 -32.1870124911962 0.299223296820683 57.2570314693668 
! Gamma         0                0                0                0                
! Port Impedance         50               0                50               0                
83.3                           0.299509686713688 57.2362355758748 0.951102238310393 -32.2231407927586 0.951102238310393 -32.2231407927586 0.299510442871565 57.2212640706866 
! Gamma         0                0                0                0                
! Port Impedance         50               0                50               0                
83.4                           0.299796611131316 57.2004950294694 0.951010783462006 -32.2592618541041 0.951010783462006 -32.2592618541041 0.29979736833424 57.1855036201632 
! Gamma         0                0                0                0                
! Port Impedance         50               0                50               0                
83.5                           0.300083314868075 57.164761444522  0.950919304058096 -32.2953756751559 0.950919304058096 -32.2953756751559 0.300084073110442 57.1497501241271 
! Gamma         0                0                0                0                
! Port Impedance         50               0                50               0                
83.6                           0.300369797826159 57.1290348273598 0.950827800309221 -32.3314822558587 0.950827800309221 -32.3314822558587 0.300370557102299 57.1140035889013 
! Gamma         0                0                0                0                
! Port Impedance         50               0                50               0                
83.7                           0.300656059908157 57.0933151843023 0.950736272425829 -32.3675815961787 0.950736272425829 -32.3675815961787 0.300656820212325 57.0782640208013 
! Gamma         0                0                0                0                
! Port Impedance         50               0                50               0                
83.8                           0.300942101017043 57.0576025216616 0.950644720618257 -32.4036736961037 0.950644720618257 -32.4036736961037 0.300942862343428 57.0425314261349 
! Gamma         0                0                0                0                
! Port Impedance         50               0                50               0                
83.9                           0.301227921056187 57.0218968457418 0.950553145096728 -32.439758555643 0.950553145096728 -32.439758555643 0.301228683398905 57.0068058112023 
! Gamma         0                0                0                0                
! Port Impedance         50               0                50               0                
84                             0.301513519929348 56.9861981628397 0.950461546071355 -32.4758361748271 0.950461546071355 -32.4758361748271 0.301514283282443 56.9710871822962 
! Gamma         0                0                0                0                
! Port Impedance         50               0                50               0                
84.1                           0.301798897540675 56.9505064792443 0.950369923752136 -32.5119065537083 0.950369923752137 -32.5119065537083 0.301799661898122 56.9353755457016 
! Gamma         0                0                0                0                
! Port Impedance         50               0                50               0                
84.2                           0.302084053794709 56.9148218012368 0.950278278348958 -32.5479696923601 0.950278278348959 -32.5479696923601 0.302084819150412 56.8996709076962 
! Gamma         0                0                0                0                
! Port Impedance         50               0                50               0                
84.3                           0.302368988596383 56.8791441350912 0.95018661007159 -32.5840255908774 0.950186610071591 -32.5840255908774 0.302369754944172 56.8639732745498 
! Gamma         0                0                0                0                
! Port Impedance         50               0                50               0                
84.4                           0.302653701851019 56.8434734870735 0.950094919129688 -32.6200742493767 0.950094919129688 -32.6200742493767 0.302654469184655 56.8282826525248 
! Gamma         0                0                0                0                
! Port Impedance         50               0                50               0                
84.5                           0.302938193464332 56.8078098634421 0.95000320573279 -32.6561156679958 0.95000320573279 -32.6561156679958 0.302938961777502 56.7925990478759 
! Gamma         0                0                0                0                
! Port Impedance         50               0                50               0                
84.6                           0.303222463342429 56.7721532704479 0.949911470090319 -32.6921498468937 0.949911470090319 -32.6921498468937 0.303223232628748 56.7569224668503 
! Gamma         0                0                0                0                
! Port Impedance         50               0                50               0                
84.7                           0.303506511391805 56.736503714334  0.949819712411579 -32.7281767862511 0.949819712411579 -32.7281767862511 0.303507281644816 56.7212529156876 
! Gamma         0                0                0                0                
! Port Impedance         50               0                50               0                
84.8                           0.303790337519349 56.7008612013361 0.949727932905759 -32.7641964862697 0.949727932905759 -32.7641964862697 0.303791108732523 56.6855904006197 
! Gamma         0                0                0                0                
! Port Impedance         50               0                50               0                
84.9                           0.304073941632341 56.6652257376819 0.949636131781924 -32.8002089471727 0.949636131781924 -32.8002089471727 0.304074713799076 56.6499349278711 
! Gamma         0                0                0                0                
! Port Impedance         50               0                50               0                
85                             0.304357323638452 56.6295973295917 0.949544309249025 -32.8362141692047 0.949544309249025 -32.8362141692047 0.304358096752073 56.6142865036585 
! Gamma         0                0                0                0                
! Port Impedance         50               0                50               0                
85.1                           0.304640483445746 56.5939759832781 0.94945246551589 -32.8722121526315 0.94945246551589 -32.8722121526315 0.304641257499503 56.5786451341912 
! Gamma         0                0                0                0                
! Port Impedance         50               0                50               0                
85.2                           0.304923420962675 56.558361704946  0.949360600791225 -32.9082028977401 0.949360600791225 -32.9082028977401 0.304924195949748 56.5430108256708 
! Gamma         0                0                0                0                
! Port Impedance         50               0                50               0                
85.3                           0.305206136098087 56.5227545007927 0.949268715283617 -32.944186404839 0.949268715283617 -32.944186404839 0.305206912011579 56.5073835842913 
! Gamma         0                0                0                0                
! Port Impedance         50               0                50               0                
85.4                           0.305488628761219 56.4871543770078 0.949176809201529 -32.9801626742577 0.94917680920153 -32.9801626742577 0.30548940559416 56.4717634162391 
! Gamma         0                0                0                0                
! Port Impedance         50               0                50               0                
85.5                           0.305770898861699 56.4515613397733 0.949084882753303 -33.0161317063471 0.949084882753303 -33.0161317063471 0.305771676607046 56.4361503276929 
! Gamma         0                0                0                0                
! Port Impedance         50               0                50               0                
85.6                           0.306052946309548 56.4159753952634 0.948992936147156 -33.0520935014794 0.948992936147156 -33.0520935014794 0.306053724960184 56.4005443248241 
! Gamma         0                0                0                0                
! Port Impedance         50               0                50               0                
85.7                           0.30633477101518 56.3803965496448 0.948900969591179 -33.0880480600477 0.948900969591179 -33.0880480600477 0.306335550563911 56.3649454137961 
! Gamma         0                0                0                0                
! Port Impedance         50               0                50               0                
85.8                           0.306616372889398 56.3448248090765 0.948808983293342 -33.1239953824666 0.948808983293342 -33.1239953824666 0.306617153328958 56.3293536007649 
! Gamma         0                0                0                0                
! Port Impedance         50               0                50               0                
85.9                           0.306897751843397 56.3092601797096 0.948716977461486 -33.1599354691718 0.948716977461487 -33.1599354691718 0.306898533166446 56.2937688918789 
! Gamma         0                0                0                0                
! Port Impedance         50               0                50               0                
86                             0.307178907788767 56.2737026676879 0.948624952303328 -33.1958683206201 0.948624952303329 -33.1958683206201 0.307179689987886 56.2581912932788 
! Gamma         0                0                0                0                
! Port Impedance         50               0                50               0                
86.1                           0.307459840637486 56.2381522791472 0.948532908026458 -33.2317939372894 0.948532908026458 -33.2317939372894 0.307460623705184 56.2226208110977 
! Gamma         0                0                0                0                
! Port Impedance         50               0                50               0                
86.2                           0.307740550301925 56.2026090202158 0.948440844838335 -33.2677123196789 0.948440844838335 -33.2677123196789 0.307741334230635 56.1870574514611 
! Gamma         0                0                0                0                
! Port Impedance         50               0                50               0                
86.3                           0.308021036694848 56.1670728970143 0.948348762946295 -33.3036234683089 0.948348762946295 -33.3036234683089 0.308021821476927 56.1515012204867 
! Gamma         0                0                0                0                
! Port Impedance         50               0                50               0                
86.4                           0.308301299729409 56.1315439156555 0.94825666255754 -33.3395273837206 0.94825666255754 -33.3395273837206 0.308302085357139 56.1159521242849 
! Gamma         0                0                0                0                
! Port Impedance         50               0                50               0                
86.5                           0.308581339319155 56.0960220822445 0.948164543879147 -33.3754240664765 0.948164543879147 -33.3754240664765 0.308582125784741 56.0804101689582 
! Gamma         0                0                0                0                
! Port Impedance         50               0                50               0                
86.6                           0.308861155378025 56.060507402879  0.94807240711806 -33.41131351716  0.94807240711806 -33.41131351716  0.308861942673597 56.0448753606015 
! Gamma         0                0                0                0                
! Port Impedance         50               0                50               0                
86.7                           0.30914074782035 56.0249998836486 0.947980252481092 -33.4471957363757 0.947980252481092 -33.4471957363757 0.30914153593796 56.0093477053021 
! Gamma         0                0                0                0                
! Port Impedance         50               0                50               0                
86.8                           0.30942011656085 55.9894995306354 0.947888080174927 -33.4830707247491 0.947888080174927 -33.4830707247491 0.309420905492476 55.9738272091396 
! Gamma         0                0                0                0                
! Port Impedance         50               0                50               0                
86.9                           0.309699261514642 55.9540063499139 0.947795890406113 -33.5189384829268 0.947795890406113 -33.5189384829268 0.309700051252183 55.9383138781859 
! Gamma         0                0                0                0                
! Port Impedance         50               0                50               0                
87                             0.30997818259723 55.9185203475505 0.947703683381069 -33.5547990115765 0.947703683381069 -33.5547990115765 0.30997897313251 55.9028077185055 
! Gamma         0                0                0                0                
! Port Impedance         50               0                50               0                
87.1                           0.310256879724512 55.8830415296043 0.947611459306078 -33.5906523113867 0.947611459306078 -33.5906523113867 0.310257671049277 55.8673087361549 
! Gamma         0                0                0                0                
! Port Impedance         50               0                50               0                
87.2                           0.310535352812779 55.8475699021266 0.94751921838729 -33.6264983830669 0.94751921838729 -33.6264983830669 0.310536144918697 55.8318169371832 
! Gamma         0                0                0                0                
! Port Impedance         50               0                50               0                
87.3                           0.310813601778712 55.8121054711606 0.947426960830721 -33.6623372273476 0.947426960830721 -33.6623372273476 0.310814394657375 55.7963323276316 
! Gamma         0                0                0                0                
! Port Impedance         50               0                50               0                
87.4                           0.311091626539383 55.7766482427423 0.94733468684225 -33.6981688449803 0.94733468684225 -33.6981688449803 0.311092420182305 55.7608549135337 
! Gamma         0                0                0                0                
! Port Impedance         50               0                50               0                
87.5                           0.311369427012259 55.7411982228997 0.947242396627621 -33.7339932367373 0.947242396627621 -33.7339932367373 0.311370221410877 55.7253847009156 
! Gamma         0                0                0                0                
! Port Impedance         50               0                50               0                
87.6                           0.311647003115196 55.7057554176529 0.947150090392441 -33.769810403412 0.947150090392441 -33.769810403412 0.311647798260868 55.6899216957954 
! Gamma         0                0                0                0                
! Port Impedance         50               0                50               0                
87.7                           0.311924354766442 55.6703198330146 0.947057768342181 -33.8056203458183 0.947057768342182 -33.8056203458183 0.31192515065045 55.6544659041838 
! Gamma         0                0                0                0                
! Port Impedance         50               0                50               0                
87.8                           0.31220148188464 55.6348914749894 0.946965430682173 -33.8414230647914 0.946965430682173 -33.8414230647914 0.312202278498185 55.6190173320836 
! Gamma         0                0                0                0                
! Port Impedance         50               0                50               0                
87.9                           0.31247838438882 55.5994703495746 0.94687307761761 -33.8772185611871 0.946873077617611 -33.8772185611871 0.312479181723026 55.5835759854901 
! Gamma         0                0                0                0                
! Port Impedance         50               0                50               0                
88                             0.312755062198407 55.5640564627592 0.946780709353548 -33.9130068358821 0.946780709353548 -33.9130068358821 0.31275586024432 55.5481418703905 
! Gamma         0                0                0                0                
! Port Impedance         50               0                50               0                
88.1                           0.313031515233216 55.5286498205248 0.946688326094901 -33.9487878897739 0.946688326094901 -33.9487878897739 0.313032313981803 55.5127149927648 
! Gamma         0                0                0                0                
! Port Impedance         50               0                50               0                
88.2                           0.313307743413455 55.4932504288452 0.946595928046444 -33.9845617237809 0.946595928046444 -33.9845617237809 0.313308542855604 55.477295358585  
! Gamma         0                0                0                0                
! Port Impedance         50               0                50               0                
88.3                           0.313583746659723 55.4578582936863 0.946503515412811 -34.0203283388422 0.946503515412811 -34.0203283388422 0.313584546786244 55.4418829738153 
! Gamma         0                0                0                0                
! Port Impedance         50               0                50               0                
88.4                           0.313859524893011 55.4224734210063 0.946411088398493 -34.0560877359176 0.946411088398493 -34.0560877359176 0.313860325694632 55.4064778444123 
! Gamma         0                0                0                0                
! Port Impedance         50               0                50               0                
88.5                           0.314135078034701 55.3870958167555 0.946318647207842 -34.0918399159878 0.946318647207842 -34.0918399159878 0.314135879502074 55.371079976325  
! Gamma         0                0                0                0                
! Port Impedance         50               0                50               0                
88.6                           0.314410406006566 55.3517254868765 0.946226192045065 -34.1275848800541 0.946226192045065 -34.1275848800541 0.314411208130262 55.3356893754944 
! Gamma         0                0                0                0                
! Port Impedance         50               0                50               0                
88.7                           0.314685508730772 55.3163624373042 0.946133723114226 -34.1633226291386 0.946133723114226 -34.1633226291386 0.314686311501283 55.3003060478539 
! Gamma         0                0                0                0                
! Port Impedance         50               0                50               0                
88.8                           0.314960386129875 55.2810066739656 0.946041240619245 -34.199053164284 0.946041240619246 -34.199053164284 0.314961189537613 55.2649299993292 
! Gamma         0                0                0                0                
! Port Impedance         50               0                50               0                
88.9                           0.315235038126824 55.2456582027798 0.945948744763898 -34.2347764865539 0.945948744763898 -34.2347764865539 0.315235842162121 55.229561235838  
! Gamma         0                0                0                0                
! Port Impedance         50               0                50               0                
89                             0.315509464644959 55.2103170296582 0.945856235751816 -34.2704925970322 0.945856235751816 -34.2704925970322 0.315510269298067 55.1941997632905 
! Gamma         0                0                0                0                
! Port Impedance         50               0                50               0                
89.1                           0.31578366560801 55.1749831605043 0.945763713786482 -34.3062014968239 0.945763713786483 -34.3062014968239 0.315784470869102 55.158845587589  
! Gamma         0                0                0                0                
! Port Impedance         50               0                50               0                
89.2                           0.3160576409401  55.139656601214  0.945671179071237 -34.3419031870542 0.945671179071237 -34.3419031870542 0.316058446799266 55.1234987146282 
! Gamma         0                0                0                0                
! Port Impedance         50               0                50               0                
89.3                           0.316331390565742 55.1043373576751 0.945578631809271 -34.3775976688691 0.945578631809271 -34.3775976688691 0.316332197012994 55.0881591502947 
! Gamma         0                0                0                0                
! Port Impedance         50               0                50               0                
89.4                           0.31660491440984 55.0690254357676 0.945486072203629 -34.4132849434353 0.945486072203629 -34.4132849434353 0.31660572143511 55.0528269004676 
! Gamma         0                0                0                0                
! Port Impedance         50               0                50               0                
89.5                           0.316878212397691 55.0337208413639 0.945393500457207 -34.4489650119399 0.945393500457208 -34.4489650119399 0.316879019990828 55.0175019710182 
! Gamma         0                0                0                0                
! Port Impedance         50               0                50               0                
89.6                           0.317151284454982 54.9984235803282 0.945300916772753 -34.4846378755906 0.945300916772753 -34.4846378755906 0.317152092605754 54.9821843678097 
! Gamma         0                0                0                0                
! Port Impedance         50               0                50               0                
89.7                           0.31742413050779 54.963133658517  0.945208321352865 -34.5203035356156 0.945208321352865 -34.5203035356156 0.317424939205886 54.946874096698  
! Gamma         0                0                0                0                
! Port Impedance         50               0                50               0                
89.8                           0.317696750482584 54.9278510817792 0.945115714399991 -34.5559619932637 0.945115714399991 -34.5559619932637 0.317697559717611 54.9115711635306 
! Gamma         0                0                0                0                
! Port Impedance         50               0                50               0                
89.9                           0.317969144306224 54.8925758559553 0.94502309611643 -34.5916132498043 0.94502309611643 -34.5916132498043 0.317969954067708 54.8762755741478 
! Gamma         0                0                0                0                
! Port Impedance         50               0                50               0                
90                             0.31824131190596 54.8573079868784 0.944930466704329 -34.627257306527 0.944930466704329 -34.627257306527 0.318242122183346 54.8409873343815 
! Gamma         0                0                0                0                
! Port Impedance         50               0                50               0                
90.1                           0.318513253209435 54.8220474803735 0.944837826365684 -34.662894164742 0.944837826365685 -34.662894164742 0.318514063992085 54.8057064500562 
! Gamma         0                0                0                0                
! Port Impedance         50               0                50               0                
90.2                           0.31878496814468 54.7867943422577 0.944745175302339 -34.6985238257801 0.944745175302339 -34.6985238257801 0.318785779421876 54.7704329269884 
! Gamma         0                0                0                0                
! Port Impedance         50               0                50               0                
90.3                           0.319056456640118 54.7515485783404 0.944652513715985 -34.7341462909923 0.944652513715985 -34.7341462909923 0.319057268401059 54.7351667709867 
! Gamma         0                0                0                0                
! Port Impedance         50               0                50               0                
90.4                           0.319327718624562 54.7163101944228 0.944559841808159 -34.7697615617501 0.94455984180816 -34.7697615617501 0.319328530858366 54.6999079878521 
! Gamma         0                0                0                0                
! Port Impedance         50               0                50               0                
90.5                           0.319598754027217 54.6810791962985 0.944467159780247 -34.8053696394455 0.944467159780248 -34.8053696394455 0.319599566722919 54.6646565833774 
! Gamma         0                0                0                0                
! Port Impedance         50               0                50               0                
90.6                           0.319869562777675 54.645855589753  0.944374467833478 -34.8409705254906 0.944374467833478 -34.8409705254906 0.31987037592423 54.6294125633477 
! Gamma         0                0                0                0                
! Port Impedance         50               0                50               0                
90.7                           0.320140144805923 54.6106393805639 0.944281766168927 -34.8765642213182 0.944281766168927 -34.8765642213182 0.320140958392201 54.5941759335405 
! Gamma         0                0                0                0                
! Port Impedance         50               0                50               0                
90.8                           0.320410500042334 54.575430574501  0.944189054987514 -34.9121507283812 0.944189054987514 -34.9121507283812 0.320411314057125 54.5589466997249 
! Gamma         0                0                0                0                
! Port Impedance         50               0                50               0                
90.9                           0.320680628417674 54.5402291773261 0.944096334490003 -34.9477300481528 0.944096334490003 -34.9477300481528 0.320681442849684 54.5237248676625 
! Gamma         0                0                0                0                
! Port Impedance         50               0                50               0                
91                             0.320950529863098 54.505035194793  0.944003604877   -34.9833021821266 0.944003604877   -34.9833021821266 0.320951344700951 54.488510443107  
! Gamma         0                0                0                0                
! Port Impedance         50               0                50               0                
91.1                           0.321220204310151 54.4698486326475 0.943910866348957 -35.0188671318165 0.943910866348957 -35.0188671318165 0.321221019542389 54.4533034318041 
! Gamma         0                0                0                0                
! Port Impedance         50               0                50               0                
91.2                           0.321489651690768 54.4346694966278 0.943818119106166 -35.0544248987567 0.943818119106166 -35.0544248987567 0.321490467305849 54.4181038394916 
! Gamma         0                0                0                0                
! Port Impedance         50               0                50               0                
91.3                           0.321758871937274 54.3994977924638 0.943725363348761 -35.0899754845014 0.943725363348761 -35.0899754845014 0.321759687923573 54.3829116718994 
! Gamma         0                0                0                0                
! Port Impedance         50               0                50               0                
91.4                           0.322027864982383 54.3643335258775 0.943632599276718 -35.1255188906253 0.943632599276718 -35.1255188906253 0.322028681328194 54.3477269347495 
! Gamma         0                0                0                0                
! Port Impedance         50               0                50               0                
91.5                           0.3222966307592  54.329176702583  0.943539827089854 -35.1610551187231 0.943539827089854 -35.1610551187231 0.322297447452731 54.3125496337562 
! Gamma         0                0                0                0                
! Port Impedance         50               0                50               0                
91.6                           0.322565169201218 54.2940273282865 0.943447046987826 -35.1965841704098 0.943447046987826 -35.1965841704098 0.322565986230597 54.2773797746255 
! Gamma         0                0                0                0                
! Port Impedance         50               0                50               0                
91.7                           0.322833480242321 54.2588854086861 0.94335425917013 -35.2321060473206 0.943354259170131 -35.2321060473206 0.32283429759559 54.2422173630556 
! Gamma         0                0                0                0                
! Port Impedance         50               0                50               0                
91.8                           0.323101563816782 54.2237509494718 0.943261463836104 -35.2676207511107 0.943261463836104 -35.2676207511107 0.3231023814819  54.207062404737  
! Gamma         0                0                0                0                
! Port Impedance         50               0                50               0                
91.9                           0.323369419859261 54.1886239563259 0.94316866118492 -35.3031282834556 0.94316866118492 -35.3031282834556 0.323370237824105 54.1719149053519 
! Gamma         0                0                0                0                
! Port Impedance         50               0                50               0                
92                             0.323637048304811 54.1535044349225 0.943075851415591 -35.3386286460508 0.943075851415592 -35.3386286460508 0.323637866557173 54.1367748705748 
! Gamma         0                0                0                0                
! Port Impedance         50               0                50               0                
92.1                           0.32390444908887 54.1183923909278 0.94298303472697 -35.3741218406119 0.94298303472697 -35.3741218406119 0.323905267616459 54.1016423060722 
! Gamma         0                0                0                0                
! Port Impedance         50               0                50               0                
92.2                           0.324171622147269 54.0832878299997 0.942890211317742 -35.4096078688746 0.942890211317742 -35.4096078688746 0.324172440937709 54.0665172175026 
! Gamma         0                0                0                0                
! Port Impedance         50               0                50               0                
92.3                           0.324438567416225 54.0481907577886 0.942797381386431 -35.4450867325946 0.942797381386432 -35.4450867325946 0.324439386457057 54.0313996105164 
! Gamma         0                0                0                0                
! Port Impedance         50               0                50               0                
92.4                           0.324705284832343 54.0131011799365 0.942704545131399 -35.4805584335477 0.942704545131399 -35.4805584335477 0.324706104111026 53.9962894907562 
! Gamma         0                0                0                0                
! Port Impedance         50               0                50               0                
92.5                           0.324971774332621 53.9780191020773 0.942611702750841 -35.5160229735297 0.942611702750841 -35.5160229735297 0.324972593836525 53.9611868638566 
! Gamma         0                0                0                0                
! Port Impedance         50               0                50               0                
92.6                           0.32523803585444 53.9429445298372 0.942518854442786 -35.5514803543564 0.942518854442787 -35.5514803543564 0.325238855570856 53.9260917354443 
! Gamma         0                0                0                0                
! Port Impedance         50               0                50               0                
92.7                           0.325504069335573 53.907877468834  0.942426000405103 -35.5869305778635 0.942426000405103 -35.5869305778635 0.325504889251704 53.8910041111376 
! Gamma         0                0                0                0                
! Port Impedance         50               0                50               0                
92.8                           0.32576987471418 53.8728179246777 0.942333140835488 -35.6223736459068 0.942333140835488 -35.6223736459068 0.325770694817147 53.8559239965474 
! Gamma         0                0                0                0                
! Port Impedance         50               0                50               0                
92.9                           0.326035451928809 53.8377659029701 0.942240275931476 -35.6578095603618 0.942240275931476 -35.6578095603618 0.326036272205648 53.820851397276  
! Gamma         0                0                0                0                
! Port Impedance         50               0                50               0                
93                             0.326300800918397 53.8027214093051 0.942147405890432 -35.6932383231241 0.942147405890433 -35.6932383231241 0.326301621356059 53.785786318918  
! Gamma         0                0                0                0                
! Port Impedance         50               0                50               0                
93.1                           0.326565921622268 53.7676844492682 0.942054530909556 -35.7286599361092 0.942054530909556 -35.7286599361092 0.326566742207618 53.75072876706   
! Gamma         0                0                0                0                
! Port Impedance         50               0                50               0                
93.2                           0.326830813980134 53.7326550284372 0.941961651185876 -35.7640744012525 0.941961651185877 -35.7640744012525 0.326831634699955 53.7156787472805 
! Gamma         0                0                0                0                
! Port Impedance         50               0                50               0                
93.3                           0.327095477932094 53.6976331523816 0.941868766916257 -35.799481720509 0.941868766916257 -35.799481720509 0.327096298773083 53.6806362651499 
! Gamma         0                0                0                0                
! Port Impedance         50               0                50               0                
93.4                           0.327359913418635 53.6626188266628 0.941775878297391 -35.8348818958539 0.941775878297391 -35.8348818958539 0.327360734367405 53.6456013262306 
! Gamma         0                0                0                0                
! Port Impedance         50               0                50               0                
93.5                           0.327624120380632 53.6276120568342 0.941682985525801 -35.8702749292819 0.941682985525801 -35.8702749292819 0.32762494142371 53.610573936077  
! Gamma         0                0                0                0                
! Port Impedance         50               0                50               0                
93.6                           0.327888098759347 53.5926128484409 0.941590088797842 -35.9056608228077 0.941590088797842 -35.9056608228077 0.327888919883175 53.5755541002353 
! Gamma         0                0                0                0                
! Port Impedance         50               0                50               0                
93.7                           0.328151848496428 53.5576212070202 0.941497188309697 -35.9410395784658 0.941497188309697 -35.9410395784658 0.328152669687363 53.5405418242439 
! Gamma         0                0                0                0                
! Port Impedance         50               0                50               0                
93.8                           0.32841536953391 53.5226371381011 0.941404284257378 -35.9764111983102 0.941404284257378 -35.9764111983102 0.328416190778225 53.5055371136328 
! Gamma         0                0                0                0                
! Port Impedance         50               0                50               0                
93.9                           0.328678661814217 53.4876606472044 0.941311376836727 -36.0117756844149 0.941311376836728 -36.0117756844149 0.328679483098099 53.4705399739242 
! Gamma         0                0                0                0                
! Port Impedance         50               0                50               0                
94                             0.328941725280157 53.4526917398428 0.941218466243413 -36.0471330388735 0.941218466243414 -36.0471330388735 0.328942546589708 53.4355504106321 
! Gamma         0                0                0                0                
! Port Impedance         50               0                50               0                
94.1                           0.329204559874927 53.417730421521  0.941125552672933 -36.0824832637993 0.941125552672934 -36.0824832637993 0.329205381196163 53.4005684292623 
! Gamma         0                0                0                0                
! Port Impedance         50               0                50               0                
94.2                           0.329467165542108 53.3827766977355 0.941032636320611 -36.1178263613254 0.941032636320612 -36.1178263613254 0.32946798686096 53.3655940353126 
! Gamma         0                0                0                0                
! Port Impedance         50               0                50               0                
94.3                           0.329729542225669 53.3478305739745 0.940939717381599 -36.1531623336043 0.940939717381599 -36.1531623336043 0.329730363527983 53.3306272342728 
! Gamma         0                0                0                0                
! Port Impedance         50               0                50               0                
94.4                           0.329991689869963 53.3128920557181 0.940846796050872 -36.1884911828085 0.940846796050872 -36.1884911828085 0.3299925111415  53.2956680316245 
! Gamma         0                0                0                0                
! Port Impedance         50               0                50               0                
94.5                           0.330253608419732 53.2779611484384 0.940753872523235 -36.2238129111297 0.940753872523235 -36.2238129111297 0.330254429646165 53.2607164328411 
! Gamma         0                0                0                0                
! Port Impedance         50               0                50               0                
94.6                           0.330515297820102 53.2430378575992 0.940660946993314 -36.2591275207796 0.940660946993314 -36.2591275207796 0.33051611898702 53.2257724433879 
! Gamma         0                0                0                0                
! Port Impedance         50               0                50               0                
94.7                           0.330776758016583 53.208122188656  0.940568019655564 -36.2944350139891 0.940568019655564 -36.2944350139891 0.330777579109491 53.1908360687221 
! Gamma         0                0                0                0                
! Port Impedance         50               0                50               0                
94.8                           0.331037988955075 53.1732141470563 0.940475090704262 -36.3297353930089 0.940475090704262 -36.3297353930089 0.331038809959388 53.1559073142929 
! Gamma         0                0                0                0                
! Port Impedance         50               0                50               0                
94.9                           0.331298990581858 53.1383137382394 0.940382160333509 -36.3650286601092 0.940382160333509 -36.3650286601092 0.33129981148291 53.1209861855412 
! Gamma         0                0                0                0                
! Port Impedance         50               0                50               0                
95                             0.331559762843602 53.1034209676363 0.940289228737229 -36.4003148175797 0.94028922873723 -36.4003148175797 0.331560583626637 53.0860726878996 
! Gamma         0                0                0                0                
! Port Impedance         50               0                50               0                
95.1                           0.331820305687357 53.0685358406698 0.940196296109172 -36.4355938677295 0.940196296109172 -36.4355938677295 0.331821126337537 53.0511668267929 
! Gamma         0                0                0                0                
! Port Impedance         50               0                50               0                
95.2                           0.332080619060563 53.0336583627545 0.940103362642906 -36.4708658128874 0.940103362642907 -36.4708658128874 0.332081439562961 53.0162686076374 
! Gamma         0                0                0                0                
! Port Impedance         50               0                50               0                
95.3                           0.332340702911042 52.9987885392969 0.940010428531826 -36.5061306554014 0.940010428531826 -36.5061306554014 0.332341523250645 52.9813780358415 
! Gamma         0                0                0                0                
! Port Impedance         50               0                50               0                
95.4                           0.332600557186999 52.9639263756951 0.939917493969144 -36.5413883976391 0.939917493969144 -36.5413883976391 0.33260137734871 52.9464951168051 
! Gamma         0                0                0                0                
! Port Impedance         50               0                50               0                
95.5                           0.332860181837027 52.929071877339  0.939824559147896 -36.5766390419873 0.939824559147896 -36.5766390419873 0.332861001805662 52.9116198559203 
! Gamma         0                0                0                0                
! Port Impedance         50               0                50               0                
95.6                           0.3331195768101  52.8942250496104 0.939731624260937 -36.6118825908526 0.939731624260938 -36.6118825908526 0.333120396570388 52.8767522585707 
! Gamma         0                0                0                0                
! Port Impedance         50               0                50               0                
95.7                           0.333378742055578 52.8593858978827 0.939638689500946 -36.6471190466606 0.939638689500946 -36.6471190466606 0.333379561592163 52.8418923301318 
! Gamma         0                0                0                0                
! Port Impedance         50               0                50               0                
95.8                           0.333637677523204 52.8245544275211 0.939545755060417 -36.6823484118563 0.939545755060418 -36.6823484118563 0.333638496820643 52.8070400759709 
! Gamma         0                0                0                0                
! Port Impedance         50               0                50               0                
95.9                           0.333896383163104 52.7897306438825 0.939452821131667 -36.7175706889042 0.939452821131667 -36.7175706889042 0.333897202205868 52.7721955014472 
! Gamma         0                0                0                0                
! Port Impedance         50               0                50               0                
96                             0.334154858925789 52.7549145523157 0.93935988790683 -36.752785880288 0.93935988790683 -36.752785880288 0.334155677698263 52.7373586119114 
! Gamma         0                0                0                0                
! Port Impedance         50               0                50               0                
96.1                           0.334413104762151 52.720106158161  0.939266955577859 -36.7879939885106 0.93926695557786 -36.7879939885106 0.334413923248634 52.7025294127062 
! Gamma         0                0                0                0                
! Port Impedance         50               0                50               0                
96.2                           0.334671120623469 52.6853054667505 0.939174024336527 -36.8231950160944 0.939174024336527 -36.8231950160944 0.334671938808172 52.667707909166  
! Gamma         0                0                0                0                
! Port Impedance         50               0                50               0                
96.3                           0.3349289064614  52.6505124834081 0.939081094374421 -36.8583889655809 0.939081094374422 -36.8583889655809 0.33492972432845 52.632894106617  
! Gamma         0                0                0                0                
! Port Impedance         50               0                50               0                
96.4                           0.335186462227988 52.6157272134494 0.938988165882949 -36.8935758395308 0.938988165882949 -36.8935758395308 0.335187279761424 52.5980880103771 
! Gamma         0                0                0                0                
! Port Impedance         50               0                50               0                
96.5                           0.335443787875657 52.5809496621814 0.938895239053333 -36.928755640524 0.938895239053333 -36.928755640524 0.335444605059431 52.563289625756  
! Gamma         0                0                0                0                
! Port Impedance         50               0                50               0                
96.6                           0.335700883357214 52.5461798349034 0.938802314076613 -36.9639283711597 0.938802314076613 -36.9639283711597 0.335701700175193 52.5284989580551 
! Gamma         0                0                0                0                
! Port Impedance         50               0                50               0                
96.7                           0.335957748625849 52.5114177369057 0.938709391143645 -36.9990940340561 0.938709391143645 -36.9990940340561 0.335958565061812 52.4937160125674 
! Gamma         0                0                0                0                
! Port Impedance         50               0                50               0                
96.8                           0.336214383635133 52.4766633734709 0.938616470445099 -37.0342526318508 0.9386164704451  -37.0342526318508 0.336215199672774 52.458940794578  
! Gamma         0                0                0                0                
! Port Impedance         50               0                50               0                
96.9                           0.336470788339019 52.4419167498728 0.938523552171463 -37.0694041672002 0.938523552171464 -37.0694041672002 0.336471603961945 52.4241733093633 
! Gamma         0                0                0                0                
! Port Impedance         50               0                50               0                
97                             0.336726962691842 52.4071778713771 0.938430636513037 -37.1045486427801 0.938430636513038 -37.1045486427801 0.336727777883572 52.3894135621917 
! Gamma         0                0                0                0                
! Port Impedance         50               0                50               0                
97.1                           0.336982906648317 52.3724467432411 0.938337723659937 -37.1396860612852 0.938337723659938 -37.1396860612852 0.336983721392286 52.3546615583232 
! Gamma         0                0                0                0                
! Port Impedance         50               0                50               0                
97.2                           0.337238620163544 52.3377233707139 0.938244813802092 -37.1748164254291 0.938244813802092 -37.1748164254291 0.337239434443098 52.3199173030095 
! Gamma         0                0                0                0                
! Port Impedance         50               0                50               0                
97.3                           0.337494103192999 52.3030077590361 0.938151907129245 -37.2099397379449 0.938151907129245 -37.2099397379449 0.337494916991398 52.285180801494  
! Gamma         0                0                0                0                
! Port Impedance         50               0                50               0                
97.4                           0.337749355692542 52.2682999134398 0.938059003830951 -37.2450560015844 0.938059003830952 -37.2450560015844 0.337750168992959 52.2504520590119 
! Gamma         0                0                0                0                
! Port Impedance         50               0                50               0                
97.5                           0.338004377618412 52.2335998391492 0.93796610409658 -37.2801652191183 0.93796610409658 -37.2801652191183 0.338005190403936 52.2157310807899 
! Gamma         0                0                0                0                
! Port Impedance         50               0                50               0                
97.6                           0.338259168927231 52.1989075413796 0.937873208115311 -37.3152673933365 0.937873208115312 -37.3152673933365 0.33825998118086 52.1810178720464 
! Gamma         0                0                0                0                
! Port Impedance         50               0                50               0                
97.7                           0.338513729575998 52.1642230253383 0.937780316076139 -37.3503625270479 0.937780316076139 -37.3503625270479 0.338514541280646 52.1463124379917 
! Gamma         0                0                0                0                
! Port Impedance         50               0                50               0                
97.8                           0.338768059522094 52.1295462962241 0.937687428167867 -37.38545062308  0.937687428167867 -37.38545062308  0.338768870660587 52.1116147838274 
! Gamma         0                0                0                0                
! Port Impedance         50               0                50               0                
97.9                           0.339022158723278 52.0948773592274 0.93759454457911 -37.4205316842795 0.93759454457911 -37.4205316842795 0.339022969278357 52.0769249147471 
! Gamma         0                0                0                0                
! Port Impedance         50               0                50               0                
98                             0.339276027137691 52.0602162195302 0.937501665498295 -37.4556057135119 0.937501665498295 -37.4556057135119 0.33927683709201 52.0422428359359 
! Gamma         0                0                0                0                
! Port Impedance         50               0                50               0                
98.1                           0.339529664723852 52.0255628823061 0.937408791113657 -37.4906727136616 0.937408791113657 -37.4906727136616 0.339530474059976 52.0075685525704 
! Gamma         0                0                0                0                
! Port Impedance         50               0                50               0                
98.2                           0.339783071440659 51.9909173527204 0.937315921613243 -37.5257326876318 0.937315921613244 -37.5257326876318 0.339783880141068 51.9729020698192 
! Gamma         0                0                0                0                
! Port Impedance         50               0                50               0                
98.3                           0.340036247247389 51.9562796359299 0.937223057184909 -37.5607856383445 0.93722305718491 -37.5607856383445 0.340037055294476 51.9382433928422 
! Gamma         0                0                0                0                
! Port Impedance         50               0                50               0                
98.4                           0.340289192103698 51.9216497370829 0.93713019801632 -37.5958315687406 0.93713019801632 -37.5958315687406 0.340289999479769 51.9035925267911 
! Gamma         0                0                0                0                
! Port Impedance         50               0                50               0                
98.5                           0.34054190596962 51.8870276613194 0.937037344294949 -37.6308704817797 0.937037344294949 -37.6308704817797 0.340542712656895 51.8689494768092 
! Gamma         0                0                0                0                
! Port Impedance         50               0                50               0                
98.6                           0.340794388805568 51.8524134137711 0.936944496208077 -37.6659023804402 0.936944496208077 -37.6659023804402 0.34079519478618 51.8343142480313 
! Gamma         0                0                0                0                
! Port Impedance         50               0                50               0                
98.7                           0.341046640572334 51.8178069995609 0.936851653942796 -37.7009272677192 0.936851653942796 -37.7009272677192 0.341047445828327 51.799686845584  
! Gamma         0                0                0                0                
! Port Impedance         50               0                50               0                
98.8                           0.341298661231084 51.7832084238035 0.936758817686001 -37.7359451466325 0.936758817686002 -37.7359451466325 0.341299465744419 51.7650672745853 
! Gamma         0                0                0                0                
! Port Impedance         50               0                50               0                
98.9                           0.341550450743366 51.7486176916052 0.936665987624399 -37.7709560202148 0.9366659876244  -37.7709560202148 0.341551254495915 51.730455540145  
! Gamma         0                0                0                0                
! Port Impedance         50               0                50               0                
99                             0.341802009071104 51.7140348080638 0.936573163944501 -37.8059598915192 0.936573163944501 -37.8059598915192 0.341802812044651 51.6958516473643 
! Gamma         0                0                0                0                
! Port Impedance         50               0                50               0                
99.1                           0.342053336176596 51.6794597782686 0.936480346832624 -37.8409567636175 0.936480346832624 -37.8409567636175 0.342054138352842 51.6612556013361 
! Gamma         0                0                0                0                
! Port Impedance         50               0                50               0                
99.2                           0.342304432022523 51.6448926073003 0.936387536474893 -37.8759466396003 0.936387536474893 -37.8759466396003 0.342305233383079 51.626667407145  
! Gamma         0                0                0                0                
! Port Impedance         50               0                50               0                
99.3                           0.342555296571937 51.6103333002315 0.936294733057237 -37.9109295225767 0.936294733057237 -37.9109295225767 0.342556097098328 51.5920870698668 
! Gamma         0                0                0                0                
! Port Impedance         50               0                50               0                
99.4                           0.342805929788269 51.5757818621261 0.936201936765391 -37.9459054156744 0.936201936765392 -37.9459054156744 0.342806729461935 51.5575145945693 
! Gamma         0                0                0                0                
! Port Impedance         50               0                50               0                
99.5                           0.343056331635327 51.5412382980394 0.936109147784897 -37.9808743220396 0.936109147784897 -37.9808743220396 0.343057130437618 51.5229499863116 
! Gamma         0                0                0                0                
! Port Impedance         50               0                50               0                
99.6                           0.343306502077292 51.5067026130184 0.936016366301098 -38.0158362448371 0.936016366301099 -38.0158362448371 0.343307299989475 51.4883932501444 
! Gamma         0                0                0                0                
! Port Impedance         50               0                50               0                
99.7                           0.343556441078726 51.4721748121016 0.935923592499144 -38.0507911872504 0.935923592499144 -38.0507911872504 0.343557238081978 51.4538443911099 
! Gamma         0                0                0                0                
! Port Impedance         50               0                50               0                
99.8                           0.34380614860456 51.4376549003189 0.935830826563987 -38.0857391524811 0.935830826563987 -38.0857391524811 0.343806944679974 51.4193034142421 
! Gamma         0                0                0                0                
! Port Impedance         50               0                50               0                
99.9                           0.344055624620105 51.4031428826918 0.935738068680384 -38.1206801437497 0.935738068680384 -38.1206801437497 0.344056419748686 51.3847703245661 
! Gamma         0                0                0                0                
! Port Impedance         50               0                50               0                
100                            0.344304869091045 51.3686387642333 0.935645319032895 -38.1556141642948 0.935645319032895 -38.1556141642948 0.344305663253712 51.3502451270991 
! Gamma         0                0                0                0                
! Port Impedance         50               0                50               0                
