! Touchstone file exported from HFSS 2026.1.0
!        File:           C:/ffzhzh/LocalFiles/Ansys_Project_Files/temp_train_TSV_290_1783508972_31944.aedt
!        Generated:      07:10:57 PM Jul  8, 2026
!        Design:         TSV
!        Project:        temp_train_TSV_290_1783508972_31944
!
! Variables:
!        h_bsmrdl = 2um
!        h_ox = 20um
!        h_rdl = 5um
!        h_sub = 86.33um
!        h_tmrdl = 5um
!        h_tsv = 86.33um
!        h_via = 3um
!        l_bsmrdl = 300um
!        l_sub = 415.92um
!        l_tmrdl = 200um
!        m_sub = 200um
!        pitch = 49.23um
!        r_tsv = 7.96um
!        s_tmrdl = 10um
!        w_bsmrdl = 18um
!        w_sub = 500um
!        w_tmrdl = 12um
!        x_tsv_center1 = 206um
!        x_tsv_center2 = 524um
!        x_tsv_center3 = 736um
!        x_tsv_center4 = 1054um
!        x_tsv_center5 = 1266um
!        x_tsv_center6 = 1584um
!
# GHz S MA R 50.000000
! Terminal data exported
! Port[1] = TSV1_1_T1
! Port[2] = TSV1_1_T2
0.1                            0.000354615284294778 57.4838528784258 0.999809592861455 -0.0488648670625067 0.999809592861455 -0.0488648670625592 0.000354615258936696 57.4838473648536 
! Gamma         0                0                0                0                
! Port Impedance         50               0                50               0                
0.2                            0.000628333665630855 71.088309092126  0.999797382483228 -0.0975333235481515 0.999797382483227 -0.0975333235482316 0.000628333611731185 71.0883086381018 
! Gamma         0                0                0                0                
! Port Impedance         50               0                50               0                
0.3                            0.00091159484283752 75.8909943598898 0.999779927283417 -0.145887687690182 0.999779927283415 -0.145887687690257 0.000911594796582867 75.8909950393815 
! Gamma         0                0                0                0                
! Port Impedance         50               0                50               0                
0.4                            0.0011929699890481 78.223204999996  0.999759938510835 -0.193908258781552 0.999759938510833 -0.193908258781599 0.00119296995487794 78.2232045579278 
! Gamma         0                0                0                0                
! Port Impedance         50               0                50               0                
0.5                            0.00147079614102862 79.6011036357765 0.999739404493817 -0.241639981354533 0.999739404493814 -0.241639981354541 0.0014707960940615 79.6011013496464 
! Gamma         0                0                0                0                
! Port Impedance         50               0                50               0                
0.6                            0.00174546641419126 80.5294322185808 0.999719413685596 -0.289149477779914 0.999719413685593 -0.289149477779885 0.00174546631524678 80.529428331179  
! Gamma         0                0                0                0                
! Port Impedance         50               0                50               0                
0.7                            0.00201774612826672 81.2103573881869 0.999700381062759 -0.336498197378199 0.999700381062757 -0.33649819737814 0.0020177459376038 81.2103525681598 
! Gamma         0                0                0                0                
! Port Impedance         50               0                50               0                
0.8                            0.00228829629475042 81.7365826675529 0.999682339933013 -0.383732784989317 0.999682339933011 -0.383732784989236 0.0022882959793512 81.7365776598252 
! Gamma         0                0                0                0                
! Port Impedance         50               0                50               0                
0.9                            0.00255758027598535 82.1562211311409 0.999665155115875 -0.430885030900294 0.999665155115874 -0.430885030900199 0.00255757981156334 82.156216589372  
! Gamma         0                0                0                0                
! Port Impedance         50               0                50               0                
1                              0.00282589013437986 82.4973538066657 0.999648644138344 -0.477975167180168 0.999648644138343 -0.477975167180066 0.0028258895046224 82.4973502400939 
! Gamma         0                0                0                0                
! Port Impedance         50               0                50               0                
1.1                            0.00309339694879996 82.7781283689571 0.999632634532759 -0.525015453148477 0.999632634532757 -0.525015453148372 0.00309339614363542 82.7781261450733 
! Gamma         0                0                0                0                
! Port Impedance         50               0                50               0                
1.2                            0.00336019479136695 83.0112326304033 0.99961698527864 -0.572013033144361 0.999616985278639 -0.572013033144258 0.00336019380516185 83.0112319985448 
! Gamma         0                0                0                0                
! Port Impedance         50               0                50               0                
1.3                            0.00362633233651875 83.2060396767872 0.999601590745201 -0.618971945047234 0.9996015907452  -0.618971945047135 0.00362633116655185 83.2060407956927 
! Gamma         0                0                0                0                
! Port Impedance         50               0                50               0                
1.4                            0.00389183361836104 83.3697303322349 0.999586377230158 -0.665894441246824 0.999586377230158 -0.66589444124673 0.00389183226365001 83.3697332947364 
! Gamma         0                0                0                0                
! Port Impedance         50               0                50               0                
1.5                            0.00415671091612714 83.5079363433437 0.999571297083816 -0.712781821311461 0.999571297083816 -0.712781821311374 0.0041567093765766 83.5079411962375 
! Gamma         0                0                0                0                
! Port Impedance         50               0                50               0                
1.6                            0.00442097237534416 83.6251418976521 0.999556322659344 -0.759634938848754 0.999556322659343 -0.759634938848675 0.00442097065115307 83.6251486568131 
! Gamma         0                0                0                0                
! Port Impedance         50               0                50               0                
1.7                            0.00468462625763757 83.7249532022219 0.999541440968778 -0.806454498245269 0.999541440968778 -0.806454498245198 0.0046846243489045 83.7249618637135 
! Gamma         0                0                0                0                
! Port Impedance         50               0                50               0                
1.8                            0.00494768309245355 83.8102900204719 0.99952664929385 -0.853241218789633 0.999526649293851 -0.85324121878957 0.00494768099892806 83.810300568512  
! Gamma         0                0                0                0                
! Port Impedance         50               0                50               0                
1.9                            0.00521015655661125 83.8835275199334 0.999511951731681 -0.899995916586956 0.999511951731681 -0.899995916586902 0.00521015427755119 83.8835399324859 
! Gamma         0                0                0                0                
! Port Impedance         50               0                50               0                
2                              0.00547206360742116 83.9466044567427 0.999497356556171 -0.94671953657063 0.999497356556171 -0.946719536570583 0.00547206114152523 83.9466187093511 
! Gamma         0                0                0                0                
! Port Impedance         50               0                50               0                
2.1                            0.00573342420019015 84.0011074112935 0.999482874252488 -0.993413155156084 0.999482874252488 -0.993413155156044 0.00573342154558291 84.0011234796333 
! Gamma         0                0                0                0                
! Port Impedance         50               0                50               0                
2.2                            0.00599426079612185 84.0483373462713 0.999468516089586 -1.04007796652676 0.999468516089587 -1.04007796652672 0.00599425795037439 84.0483552077786 
! Gamma         0                0                0                0                
! Port Impedance         50               0                50               0                
2.3                            0.0062545977870622 84.0893627555901 0.999454293114035 -1.08671526070401 0.999454293114035 -1.08671526070398 0.00625459474723585 84.0893823904294 
! Gamma         0                0                0                0                
! Port Impedance         50               0                50               0                
2.4                            0.00651446091284576 84.1250624353573 0.999440215468597 -1.1333263984491 0.999440215468597 -1.13332639844908 0.00651445767554964 84.1250838269251 
! Gamma         0                0                0                0                
! Port Impedance         50               0                50               0                
2.5                            0.00677387671469342 84.1561601014786 0.999426291957647 -1.17991278604895 0.999426291957647 -1.17991278604894 0.00677387327614924 84.1561832365851 
! Gamma         0                0                0                0                
! Port Impedance         50               0                50               0                
2.6                            0.00703287204757322 84.1832525286434 0.999412529797444 -1.22647585175123 0.999412529797444 -1.22647585175122 0.0070328684036824 84.1832773974762 
! Gamma         0                0                0                0                
! Port Impedance         50               0                50               0                
2.7                            0.00729147366148127 84.2068324965519 0.999398934502516 -1.27301702478683 0.999398934502516 -1.27301702478682 0.00729146980789104 84.2068590924986 
! Gamma         0                0                0                0                
! Port Impedance         50               0                50               0                
2.8                            0.00754970785356995 84.2273075459945 0.999385509870107 -1.31953771738993 0.999385509870107 -1.31953771738993 0.00754970378573606 84.2273358653783 
! Gamma         0                0                0                0                
! Port Impedance         50               0                50               0                
2.9                            0.00780760018823717 84.2450153361379 0.99937225803323 -1.36603930989471 0.99937225803323 -1.36603930989471 0.00780759590148188 84.2450453779054 
! Gamma         0                0                0                0                
! Port Impedance         50               0                50               0                
3                              0.00806517527958127 84.2602362337522 0.999359179559794 -1.41252313878647 0.999359179559794 -1.41252313878647 0.00806517076914559 84.2602679991423 
! Gamma         0                0                0                0                
! Port Impedance         50               0                50               0                
3.1                            0.00832245662928826 84.2732036410495 0.999346273580649 -1.45899048747019 0.999346273580649 -1.45899048747019 0.00832245189037811 84.2732371332607 
! Gamma         0                0                0                0                
! Port Impedance         50               0                50               0                
3.2                            0.00857946651256278 84.2841124717114 0.999333537933772 -1.50544257946135 0.999333537933771 -1.50544257946136 0.00857946154038904 84.284147695582  
! Gamma         0                0                0                0                
! Port Impedance         50               0                50               0                
3.3                            0.00883622590481288 84.2931261078646 0.999320969315149 -1.55188057368298 0.999320969315149 -1.55188057368299 0.0088362206946254 84.293163069573  
! Gamma         0                0                0                0                
! Port Impedance         50               0                50               0                
3.4                            0.00909275444222962 84.3003821094352 0.999308563429573 -1.59830556155508 0.999308563429572 -1.5983055615551 0.00909274898934562 84.3004208162248 
! Gamma         0                0                0                0                
! Port Impedance         50               0                50               0                
3.5                            0.00934907041001685 84.305996897974  0.999296315136615 -1.64471856558015 0.999296315136615 -1.64471856558017 0.00934906470984407 84.3060373579065 
! Gamma         0                0                0                0                
! Port Impedance         50               0                50               0                
3.6                            0.00960519075272453 84.3100695971141 0.9992842185886  -1.69112053915284 0.999284218588599 -1.69112053915285 0.00960518480077961 84.3101118188504 
! Gamma         0                0                0                0                
! Port Impedance         50               0                50               0                
3.7                            0.0098611311018556 84.3126851793356 0.999272267358601 -1.7375123673516 0.9992722673586  -1.73751236735161 0.00986112489377822 84.3127291719442 
! Gamma         0                0                0                0                
! Port Impedance         50               0                50               0                
3.8                            0.0101169058166106 84.3139170421793 0.999260454557372 -1.78389486849978 0.999260454557371 -1.78389486849979 0.010116899348174 84.3139628149712 
! Gamma         0                0                0                0                
! Port Impedance         50               0                50               0                
3.9                            0.0103725280342821 84.3138291153143 0.999248772938771 -1.83026879631347 0.99924877293877 -1.83026879631348 0.0103725213014  84.3138766777021 
! Gamma         0                0                0                0                
! Port Impedance         50               0                50               0                
4                              0.0106280097273967 84.3124775820054 0.999237214993725 -1.87663484248093 0.999237214993724 -1.87663484248094 0.0106280027261278 84.3125269433849 
! Gamma         0                0                0                0                
! Port Impedance         50               0                50               0                
4.1                            0.0108833617652248 84.3099122838363 0.999225773033097 -1.922993639544  0.999225773033096 -1.92299363954401 0.0108833544917751 84.3099634534885 
! Gamma         0                0                0                0                
! Port Impedance         50               0                50               0                
4.2                            0.0111385939777337 84.3061778654375 0.999214439260032 -1.96934576397422 0.999214439260031 -1.96934576397423 0.0111385864284558 84.3062308524482 
! Gamma         0                0                0                0                
! Port Impedance         50               0                50               0                
4.3                            0.0113937152204479 84.301314705983  0.999203205832515 -2.0156917393568 0.999203205832514 -2.01569173935681 0.0113937073918401 84.3013695191784 
! Gamma         0                0                0                0                
! Port Impedance         50               0                50               0                
4.4                            0.0116487334390174 84.2953596759828 0.999192064916931 -2.06203203961233 0.99919206491693 -2.06203203961234 0.0116487253277203 84.2954163238791 
! Gamma         0                0                0                0                
! Port Impedance         50               0                50               0                
4.5                            0.0119036557325712 84.2883467510933 0.999181008733444 -2.10836709220125 0.999181008733442 -2.10836709220125 0.0119036473353638 84.2884052418584 
! Gamma         0                0                0                0                
! Port Impedance         50               0                50               0                
4.6                            0.0121584884151644 84.2803075090584 0.99917002959403 -2.15469728126844 0.999170029594029 -2.15469728126844 0.0121584797289596 84.2803678504834 
! Gamma         0                0                0                0                
! Port Impedance         50               0                50               0                
4.7                            0.0124132370748231 84.2712715312524 0.999159119933946 -2.20102295069578 0.999159119933944 -2.20102295069578 0.0124132280966617 84.2713337307324 
! Gamma         0                0                0                0                
! Port Impedance         50               0                50               0                
4.8                            0.0126679066298384 84.2612667264754 0.99914827233739 -2.24734440703915 0.999148272337388 -2.24734440703915 0.0126678973568836 84.2613307909974 
! Gamma         0                0                0                0                
! Port Impedance         50               0                50               0                
4.9                            0.0129225013820943 84.250319591493  0.999137479558065 -2.29366192233346 0.999137479558063 -2.29366192233345 0.0129224918116255 84.2503855276302 
! Gamma         0                0                0                0                
! Port Impedance         50               0                50               0                
5                              0.0131770250673066 84.2384554202088 0.999126734535283 -2.33997573675505 0.99912673453528 -2.33997573675504 0.0131770151967128 84.2385232341196 
! Gamma         0                0                0                0                
! Port Impedance         50               0                50               0                
5.1                            0.013431480902132 84.2256984712128 0.999116030406195 -2.38628606113545 0.999116030406192 -2.38628606113543 0.0134314707289055 84.2257681686447 
! Gamma         0                0                0                0                
! Port Impedance         50               0                50               0                
5.2                            0.0136858716281637 84.2120721016812 0.999105360514703 -2.432593079324  0.999105360514701 -2.43259307932399 0.0136858611498935 84.2121436879771 
! Gamma         0                0                0                0                
! Port Impedance         50               0                50               0                
5.3                            0.0139401995528774 84.1975988741453 0.99909471841751 -2.47889695039988 0.999094718417508 -2.47889695039986 0.013940188767243 84.1976723542536 
! Gamma         0                0                0                0                
! Port Impedance         50               0                50               0                
5.4                            0.0141944665876236 84.1823006414532 0.999084097887735 -2.52519781073599 0.999084097887733 -2.52519781073597 0.0141944554923884 84.1823760199391 
! Gamma         0                0                0                0                
! Port Impedance         50               0                50               0                
5.5                            0.0144486742827859 84.1661986142596 0.999073492916484 -2.57149577591914 0.999073492916481 -2.57149577591911 0.0144486628757915 84.1662758953181 
! Gamma         0                0                0                0                
! Port Impedance         50               0                50               0                
5.6                            0.014702823860242 84.1493134145725 0.9990628977127  -2.6177909425317 0.999062897712697 -2.61779094253167 0.0147028121394021 84.1493926020433 
! Gamma         0                0                0                0                
! Port Impedance         50               0                50               0                
5.7                            0.0149569162432729 84.1316651182219 0.999052306701577 -2.66408338980118 0.999052306701575 -2.66408338980116 0.0149569042065672 84.1317462156042 
! Gamma         0                0                0                0                
! Port Impedance         50               0                50               0                
5.8                            0.0152109520840714 84.1132732885697 0.999041714521805 -2.71037318112428 0.999041714521802 -2.71037318112425 0.0152109397295406 84.1133562990377 
! Gamma         0                0                0                0                
! Port Impedance         50               0                50               0                
5.9                            0.0154649317890018 84.0941570033362 0.999031116021851 -2.75666036547252 0.999031116021849 -2.75666036547249 0.0154649191147423 84.0942419297556 
! Gamma         0                0                0                0                
! Port Impedance         50               0                50               0                
6                              0.0157188555417634 84.0743348760544 0.999020506255484 -2.80294497868674 0.999020506255482 -2.80294497868671 0.015718842545922 84.0744217209977 
! Gamma         0                0                0                0                
! Port Impedance         50               0                50               0                
6.1                            0.0159727233246026 84.0538250733625 0.999009880476685 -2.84922704466733 0.999009880476683 -2.84922704466729 0.0159727100053722 84.0539138391253 
! Gamma         0                0                0                0                
! Port Impedance         50               0                50               0                
6.2                            0.0162265349377185 84.0326453291069 0.998999234134106 -2.89550657646744 0.998999234134103 -2.89550657646739 0.0162265212933331 84.0327360177234 
! Gamma         0                0                0                0                
! Port Impedance         50               0                50               0                
6.3                            0.0164802900169954 84.0108129560274 0.99898856286518 -2.94178357729583 0.998988562865177 -2.94178357729578 0.0164802760457262 84.0109055692856 
! Gamma         0                0                0                0                
! Port Impedance         50               0                50               0                
6.4                            0.0167339880501942 83.9883448556348 0.998977862489992 -2.98805804143595 0.99897786248999 -2.98805804143591 0.0167339737503455 83.9884393950915 
! Gamma         0                0                0                0                
! Port Impedance         50               0                50               0                
6.5                            0.016987628391722 83.9652575267652 0.998967129004996 -3.03432995508746 0.998967129004993 -3.03432995508742 0.0169876137616275 83.9653539937602 
! Gamma         0                0                0                0                
! Port Impedance         50               0                50               0                
6.6                            0.0172412102760968 83.9415670731855 0.99895635857664 -3.08059929713607 0.998956358576637 -3.08059929713602 0.0172411953141159 83.9416654688554 
! Gamma         0                0                0                0                
! Port Impedance         50               0                50               0                
6.7                            0.0174947328302124 83.9172892105418 0.998945547534979 -3.12686603985733 0.998945547534977 -3.12686603985728 0.017494717534727 83.9173895358334 
! Gamma         0                0                0                0                
! Port Impedance         50               0                50               0                
6.8                            0.0177481950845039 83.8924392728755 0.998934692367306 -3.17313014955959 0.998934692367303 -3.17313014955953 0.0177481794539152 83.8925415285582 
! Gamma         0                0                0                0                
! Port Impedance         50               0                50               0                
6.9                            0.0180015959831075 83.867032218873  0.998923789711849 -3.21939158717094 0.998923789711847 -3.21939158717089 0.0180015800158332 83.8671364055515 
! Gamma         0                0                0                0                
! Port Impedance         50               0                50               0                
7                              0.0182549343930976 83.8410826379779 0.998912836351572 -3.26565030877484 0.998912836351569 -3.26565030877478 0.018254918087569 83.8411887561029 
! Gamma         0                0                0                0                
! Port Impedance         50               0                50               0                
7.1                            0.0185082091128834 83.8146047564527 0.998901829208094 -3.31190626609843 0.998901829208091 -3.31190626609837 0.0185081924675429 83.8147128063323 
! Gamma         0                0                0                0                
! Port Impedance         50               0                50               0                
7.2                            0.0187614188798353 83.7876124434558 0.998890765335762 -3.35815940695777 0.998890765335759 -3.35815940695771 0.0187614018931343 83.7877224252657 
! Gamma         0                0                0                0                
! Port Impedance         50               0                50               0                
7.3                            0.0190145623772104 83.7601192171755 0.998879641915881 -3.40440967566332 0.998879641915879 -3.40440967566325 0.0190145450476066 83.7602311309688 
! Gamma         0                0                0                0                
! Port Impedance         50               0                50               0                
7.4                            0.0192676382404366 83.7321382510466 0.998868456251121 -3.45065701338922 0.998868456251118 -3.45065701338916 0.0192676205663923 83.7322520967629 
! Gamma         0                0                0                0                
! Port Impedance         50               0                50               0                
7.5                            0.0195206450628138 83.7036823800624 0.998857205760101 -3.49690135850939 0.998857205760099 -3.49690135850933 0.0195206270427939 83.7037981575366 
! Gamma         0                0                0                0                
! Port Impedance         50               0                50               0                
7.6                            0.019773581400683 83.6747641071868 0.998845887972172 -3.54314264690327 0.99884588797217 -3.5431426469032 0.019773563033153 83.6748818161572 
! Gamma         0                0                0                0                
! Port Impedance         50               0                50               0                
7.7                            0.02002644577811 83.6453956098618 0.998834500522377 -3.58938081223384 0.998834500522375 -3.58938081223378 0.0200264270615348 83.6455152499777 
! Gamma         0                0                0                0                
! Port Impedance         50               0                50               0                
7.8                            0.0202792366911297 83.6155887466027 0.998823041146616 -3.63561578620036 0.998823041146614 -3.6356157862003 0.0202792176239715 83.6157103174317 
! Gamma         0                0                0                0                
! Port Impedance         50               0                50               0                
7.9                            0.0205319526115865 83.5853550636694 0.998811507676998 -3.68184749876791 0.998811507676996 -3.68184749876784 0.0205319331923039 83.5854785647041 
! Gamma         0                0                0                0                
! Port Impedance         50               0                50               0                
8                              0.0207845919906118 83.5547058017977 0.998799898037382 -3.72807587837587 0.99879989803738 -3.72807587837581 0.0207845722176581 83.554831232462  
! Gamma         0                0                0                0                
! Port Impedance         50               0                50               0                
8.1                            0.0210371532617669 83.5236519029774 0.998788210239109 -3.77430085212717 0.998788210239107 -3.77430085212711 0.021037133133589 83.5237792626325 
! Gamma         0                0                0                0                
! Port Impedance         50               0                50               0                
8.2                            0.0212896348438853 83.4922040172587 0.998776442376914 -3.8205223459599 0.998776442376912 -3.82052234595983 0.0212896143589225 83.4923333052083 
! Gamma         0                0                0                0                
! Port Impedance         50               0                50               0                
8.3                            0.0215420351436391 83.4603725095713 0.998764592625023 -3.86674028480293 0.998764592625021 -3.86674028480287 0.0215420143003223 83.4605037250676 
! Gamma         0                0                0                0                
! Port Impedance         50               0                50               0                
8.4                            0.0217943525578563 83.4281674665415 0.998752659233419 -3.91295459271697 0.998752659233417 -3.9129545927169 0.0217943313546068 83.4283006087888 
! Gamma         0                0                0                0                
! Port Impedance         50               0                50               0                
8.5                            0.022046585475611 83.3955987032887 0.998740640524281 -3.95916519302222 0.998740640524279 -3.95916519302215 0.0220465639108395 83.3957337714488 
! Gamma         0                0                0                0                
! Port Impedance         50               0                50               0                
8.6                            0.0222987322801065 83.3626757701901 0.998728534888584 -4.00537200841396 0.998728534888582 -4.0053720084139 0.0222987103522125 83.3628127633863 
! Gamma         0                0                0                0                
! Port Impedance         50               0                50               0                
8.7                            0.0225507913503726 83.3294079595982 0.998716340782859 -4.05157496106705 0.998716340782858 -4.05157496106699 0.0225507690577436 83.329546876919  
! Gamma         0                0                0                0                
! Port Impedance         50               0                50               0                
8.8                            0.0228027610627909 83.2958043124986 0.998704056726105 -4.09777397273038 0.998704056726103 -4.09777397273032 0.0228027384038016 83.2959451530016 
! Gamma         0                0                0                0                
! Port Impedance         50               0                50               0                
8.9                            0.0230546397924675 83.2618736250974 0.998691681296843 -4.1439689648121 0.998691681296841 -4.14396896481204 0.0230546167654791 83.2620163878123 
! Gamma         0                0                0                0                
! Port Impedance         50               0                50               0                
9                              0.0233064259144635 83.2276244553277 0.998679213130319 -4.19015985845653 0.998679213130317 -4.19015985845648 0.0233064025178234 83.2277691392598 
! Gamma         0                0                0                0                
! Port Impedance         50               0                50               0                
9.1                            0.0235581178049  83.1930651292656 0.99866665091583 -4.2363465746135 0.998666650915828 -4.23634657461345 0.0235580940369408 83.1932117333987 
! Gamma         0                0                0                0                
! Port Impedance         50               0                50               0                
9.2                            0.023809713841946 83.1582037474488 0.998653993394188 -4.28252903410067 0.998653993394186 -4.28252903410062 0.0238096897009856 83.1583522707475 
! Gamma         0                0                0                0                
! Port Impedance         50               0                50               0                
9.3                            0.0240612124067027 83.1230481910891 0.998641239355302 -4.32870715765964 0.9986412393553  -4.32870715765959 0.0240611878910432 83.1231986325019 
! Gamma         0                0                0                0                
! Port Impedance         50               0                50               0                
9.4                            0.0243126118839923 83.0876061281748 0.998628387635876 -4.37488086600625 0.998628387635875 -4.37488086600621 0.0243125869919199 83.087758486636  
! Gamma         0                0                0                0                
! Port Impedance         50               0                50               0                
9.5                            0.0245639106630602 83.0518850194558 0.998615437117226 -4.42105007987577 0.998615437117225 -4.42105007987573 0.024563885392845 83.0520392938877 
! Gamma         0                0                0                0                
! Port Impedance         50               0                50               0                
9.6                            0.0248151071382  83.0158921243093 0.998602386723194 -4.46721472006322 0.998602386723192 -4.46721472006318 0.0248150814880952 83.0160483136244 
! Gamma         0                0                0                0                
! Port Impedance         50               0                50               0                
9.7                            0.0250661997093069 82.9796345064809 0.99858923541817 -4.51337470745945 0.998589235418168 -4.51337470745941 0.0250661736775488 82.9797926095835 
! Gamma         0                0                0                0                
! Port Impedance         50               0                50               0                
9.8                            0.0253171867823677 82.9431190396993 0.998575982205211 -4.55952996308332 0.99857598220521 -4.55952996308329 0.0253171603671754 82.9432790554874 
! Gamma         0                0                0                0                
! Port Impedance         50               0                50               0                
9.9                            0.0255680667698922 82.9063524131629 0.998562626124249 -4.60568040811028 0.998562626124248 -4.60568040811025 0.0255680399694671 82.9065143405297 
! Gamma         0                0                0                0                
! Port Impedance         50               0                50               0                
10                             0.0258188380912924 82.8693411368957 0.998549166250388 -4.65182596389766 0.998549166250387 -4.65182596389764 0.0258188109038183 82.869504974731  
! Gamma         0                0                0                0                
! Port Impedance         50               0                50               0                
10.1                           0.0260703796774659 82.8332927212353 0.998536602774186 -4.69798674530283 0.998536602774185 -4.69798674530281 0.0260703520056066 82.8334585834995 
! Gamma         0                0                0                0                
! Port Impedance         50               0                50               0                
10.2                           0.0263218343461072 82.7971339431133 0.998524022132142 -4.74414455046822 0.998524022132141 -4.74414455046821 0.0263218061911082 82.7973018342877 
! Gamma         0                0                0                0                
! Port Impedance         50               0                50               0                
10.3                           0.0265732032796978 82.7608681758964 0.998511423736143 -4.79029944416444 0.998511423736142 -4.79029944416443 0.0265731746428378 82.7610381000875 
! Gamma         0                0                0                0                
! Port Impedance         50               0                50               0                
10.4                           0.0268244876315288 82.7244986001767 0.998498806993468 -4.83645148859696 0.998498806993466 -4.83645148859695 0.0268244585141146 82.7246705611342 
! Gamma         0                0                0                0                
! Port Impedance         50               0                50               0                
10.5                           0.0270756885257024 82.6880282159867 0.998486171307981 -4.88260074348145 0.99848617130798 -4.88260074348145 0.027075658929065 82.6882022171214 
! Gamma         0                0                0                0                
! Port Impedance         50               0                50               0                
10.6                           0.027326807057178 82.651459854235  0.998473516081251 -4.9287472661183 0.99847351608125 -4.9287472661183 0.0273267769826681 82.6516358986355 
! Gamma         0                0                0                0                
! Port Impedance         50               0                50               0                
10.7                           0.027577844291857 82.6147961874127 0.998460840713588 -4.97489111146598 0.998460840713587 -4.97489111146599 0.0275778137408411 82.6149742778617 
! Gamma         0                0                0                0                
! Port Impedance         50               0                50               0                
10.8                           0.0278288012667047 82.5780397396181 0.99844814460501 -5.02103233221341 0.998448144605009 -5.02103233221341 0.0278287702405616 82.5782198786081 
! Gamma         0                0                0                0                
! Port Impedance         50               0                50               0                
10.9                           0.0280796789899072 82.5411928959453 0.998435427156144 -5.06717097885105 0.998435427156142 -5.06717097885105 0.0280796474900238 82.5413750856938 
! Gamma         0                0                0                0                
! Port Impedance         50               0                50               0                
11                             0.0283304784410584 82.5042579112765 0.998422687769053 -5.1133070997408 0.998422687769051 -5.11330709974081 0.0283304464688269 82.5044421537404 
! Gamma         0                0                0                0                
! Port Impedance         50               0                50               0                
11.1                           0.0285812005713775 82.4672369185175 0.998409925848012 -5.15944074118458 0.99840992584801 -5.15944074118459 0.0285811681281918 82.4674232154072 
! Gamma         0                0                0                0                
! Port Impedance         50               0                50               0                
11.2                           0.0288318463039519 82.430131936312  0.998397140800216 -5.20557194749144 0.998397140800214 -5.20557194749146 0.0288318133912044 82.4303202891049 
! Gamma         0                0                0                0                
! Port Impedance         50               0                50               0                
11.3                           0.029082416534005 82.3929448762684 0.998384332036438 -5.25170076104343 0.998384332036436 -5.25170076104345 0.0290823831530841 82.3931352862212 
! Gamma         0                0                0                0                
! Port Impedance         50               0                50               0                
11.4                           0.0293329121291863 82.3556775497289 0.998371498971632 -5.29782722235987 0.99837149897163 -5.29782722235989 0.0293328782814731 82.3558700178907 
! Gamma         0                0                0                0                
! Port Impedance         50               0                50               0                
11.5                           0.0295833339298809 82.3183316741126 0.998358641025488 -5.34395137016029 0.998358641025486 -5.34395137016031 0.0295832996167469 82.3185262013363 
! Gamma         0                0                0                0                
! Port Impedance         50               0                50               0                
11.6                           0.0298336827495383 82.2809088788571 0.998345757622939 -5.39007324142575 0.998345757622937 -5.39007324142577 0.0298336479723429 82.281105465811  
! Gamma         0                0                0                0                
! Port Impedance         50               0                50               0                
11.7                           0.0300839593750161 82.2434107109858 0.998332848194622 -5.4361928714588 0.99833284819462 -5.43619287145882 0.0300839241351045 82.2436093581644 
! Gamma         0                0                0                0                
! Port Impedance         50               0                50               0                
11.8                           0.0303341645669402 82.2058386403236 0.998319912177304 -5.48231029394182 0.998319912177302 -5.48231029394185 0.0303341288656405 82.2060393480582 
! Gamma         0                0                0                0                
! Port Impedance         50               0                50               0                
11.9                           0.0305842990600761 82.168194064384  0.998306949014262 -5.52842554099395 0.99830694901426 -5.52842554099398 0.0305842628986981 82.1683968328525 
! Gamma         0                0                0                0                
! Port Impedance         50               0                50               0                
12                             0.030834363563713 82.1304783129474 0.998293958155629 -5.57453864322642 0.998293958155627 -5.57453864322644 0.0308343269435458 82.1306831421842 
! Gamma         0                0                0                0                
! Port Impedance         50               0                50               0                
12.1                           0.0310843587620576 82.0926926523508 0.998280939058705 -5.62064962979642 0.998280939058703 -5.62064962979645 0.0310843216843679 82.0928995422557 
! Gamma         0                0                0                0                
! Port Impedance         50               0                50               0                
12.2                           0.0313342853146363 82.0548382895067 0.998267891188235 -5.66675852845954 0.998267891188233 -5.66675852845957 0.0313342477806669 82.0550472398536 
! Gamma         0                0                0                0                
! Port Impedance         50               0                50               0                
12.3                           0.0315841438567052 82.0169163756677 0.998254814016659 -5.7128653656206 0.998254814016656 -5.71286536562063 0.0315841058676732 82.0171273861135 
! Gamma         0                0                0                0                
! Port Impedance         50               0                50               0                
12.4                           0.0318339349996663 81.9789280099537 0.998241707024329 -5.75897016638315 0.998241707024326 -5.75897016638317 0.0318338965567619 81.9791410800458 
! Gamma         0                0                0                0                
! Port Impedance         50               0                50               0                
12.5                           0.0320836593314886 81.9408742426561 0.998228569699703 -5.80507295459739 0.998228569699701 -5.80507295459742 0.0320836204358737 81.9410893718402 
! Gamma         0                0                0                0                
! Port Impedance         50               0                50               0                
12.6                           0.0323333174171339 81.9027560783319 0.998215401539513 -5.85117375290681 0.99821540153951 -5.85117375290684 0.0323332780699407 81.9029732659597 
! Gamma         0                0                0                0                
! Port Impedance         50               0                50               0                
12.7                           0.0325829097989847 81.864574478703  0.998202202048907 -5.89727258279329 0.998202202048905 -5.89727258279332 0.0325828700013148 81.8647937240387 
! Gamma         0                0                0                0                
! Port Impedance         50               0                50               0                
12.8                           0.0328324369972755 81.826330365371  0.998188970741574 -5.94336946462088 0.998188970741571 -5.94336946462091 0.0328323967501988 81.8265516675981 
! Gamma         0                0                0                0                
! Port Impedance         50               0                50               0                
12.9                           0.0330818995105248 81.7880246223589 0.998175707139841 -5.98946441767823 0.998175707139838 -5.98946441767826 0.0330818588150786 81.7882479805867 
! Gamma         0                0                0                0                
! Port Impedance         50               0                50               0                
13                             0.033331297815968 81.7496580984928 0.998162410774761 -6.03555746021965 0.998162410774758 -6.03555746021969 0.0333312566731561 81.7498835117623 
! Gamma         0                0                0                0                
! Port Impedance         50               0                50               0                
13.1                           0.0335806323699898 81.7112316096299 0.998149081186173 -6.0816486095049 0.99814908118617 -6.08164860950494 0.0335805907807818 81.7114590769197 
! Gamma         0                0                0                0                
! Port Impedance         50               0                50               0                
13.2                           0.0338299036085569 81.6727459407464 0.998135717922752 -6.12773788183766 0.99813571792275 -6.12773788183769 0.0338298615738875 81.6729754609781 
! Gamma         0                0                0                0                
! Port Impedance         50               0                50               0                
13.3                           0.034079111947648 81.6342018478903 0.998122320542044 -6.17382529260277 0.998122320542042 -6.1738252926028 0.0340790694684164 81.6344334199337 
! Gamma         0                0                0                0                
! Port Impedance         50               0                50               0                
13.4                           0.0343282577836827 81.5956000600102 0.99810888861048 -6.21991085630227 0.998108888610478 -6.2199108563023 0.034328214860752 81.5958336826885 
! Gamma         0                0                0                0                
! Port Impedance         50               0                50               0                
13.5                           0.034577341493948 81.5569412806665 0.998095421703385 -6.26599458659021 0.998095421703382 -6.26599458659024 0.0345772981281449 81.5571769527607 
! Gamma         0                0                0                0                
! Port Impedance         50               0                50               0                
13.6                           0.0348263634370215 81.5182261896328 0.998081919404967 -6.31207649630628 0.998081919404964 -6.31207649630631 0.0348263196291356 81.5184639098862 
! Gamma         0                0                0                0                
! Port Impedance         50               0                50               0                
13.7                           0.0350753239531912 81.4794554443935 0.998068381308305 -6.35815659750837 0.998068381308302 -6.3581565975084 0.035075279703975 81.4796952115165 
! Gamma         0                0                0                0                
! Port Impedance         50               0                50               0                
13.8                           0.0353242233648721 81.4406296815459 0.998054807015311 -6.40423490150396 0.998054807015308 -6.40423490150399 0.0353241786750407 81.4408714942194 
! Gamma         0                0                0                0                
! Port Impedance         50               0                50               0                
13.9                           0.0355730619770183 81.4017495181107 0.998041196136703 -6.45031141888046 0.9980411961367  -6.45031141888049 0.0355730168472489 81.4019933749902 
! Gamma         0                0                0                0                
! Port Impedance         50               0                50               0                
14                             0.0358218400775305 81.3628155527575 0.998027548291946 -6.49638615953449 0.998027548291943 -6.49638615953453 0.0358217945084627 81.3630614524767 
! Gamma         0                0                0                0                
! Port Impedance         50               0                50               0                
14.1                           0.0360705579376596 81.3238283669513 0.998013863109206 -6.54245913270017 0.998013863109203 -6.5424591327002 0.0360705119298947 81.3240763081256 
! Gamma         0                0                0                0                
! Port Impedance         50               0                50               0                
14.2                           0.036319215812404 81.2847885260233 0.998000140225281 -6.58853034697635 0.998000140225278 -6.58853034697638 0.0363191693665054 81.2850385072531 
! Gamma         0                0                0                0                
! Port Impedance         50               0                50               0                
14.3                           0.0365678139409028 81.2456965801726 0.997986379285535 -6.63459981035298 0.997986379285532 -6.63459981035301 0.0365677670573961 81.2459486000461 
! Gamma         0                0                0                0                
! Port Impedance         50               0                50               0                
14.4                           0.0368163525468235 81.2065530654014 0.99797257994382 -6.68066753023644 0.997972579943817 -6.68066753023647 0.036816305226196 81.2068071224979 
! Gamma         0                0                0                0                
! Port Impedance         50               0                50               0                
14.5                           0.0370648318387433 81.1673585043893 0.997958741862396 -6.72673351347403 0.997958741862392 -6.72673351347406 0.0370647840814444 81.1676145972816 
! Gamma         0                0                0                0                
! Port Impedance         50               0                50               0                
14.6                           0.0373132520105255 81.1281134073094 0.997944864711843 -6.77279776637757 0.997944864711839 -6.7727977663776 0.0373132038169668 81.1283715345667 
! Gamma         0                0                0                0                
! Port Impedance         50               0                50               0                
14.7                           0.0375616132416894 81.0888182725908 0.997930948170971 -6.81886029474613 0.997930948170968 -6.81886029474616 0.0375615646122449 81.0890784327808 
! Gamma         0                0                0                0                
! Port Impedance         50               0                50               0                
14.8                           0.0378099156977748 81.0494735876299 0.997916991926725 -6.86492110388794 0.997916991926722 -6.86492110388797 0.0378098666327809 81.0497357793214 
! Gamma         0                0                0                0                
! Port Impedance         50               0                50               0                
14.9                           0.0380581595306996 81.0100798294549 0.997902995674086 -6.9109801986415 0.997902995674083 -6.91098019864153 0.0380581100304556 81.0103440512198 
! Gamma         0                0                0                0                
! Port Impedance         50               0                50               0                
15                             0.038306344879112 80.970637465345  0.997888959115966 -6.95703758339591 0.997888959115962 -6.95703758339593 0.03830629494388 80.9709037157605 
! Gamma         0                0                0                0                
! Port Impedance         50               0                50               0                
15.1                           0.0385544718687361 80.9311469534089 0.997874881963107 -7.00309326211046 0.997874881963104 -7.00309326211048 0.0385544214987414 80.9314152310592 
! Gamma         0                0                0                0                
! Port Impedance         50               0                50               0                
15.2                           0.0388025406127107 80.8916087431236 0.997860763933972 -7.04914723833348 0.997860763933969 -7.04914723833351 0.0388024898081423 80.8918790466018 
! Gamma         0                0                0                0                
! Port Impedance         50               0                50               0                
15.3                           0.039050551211923 80.8520232758367 0.997846604754633 -7.09519951522052 0.99784660475463 -7.09519951522054 0.0390504999729336 80.8522956037465 
! Gamma         0                0                0                0                
! Port Impedance         50               0                50               0                
15.4                           0.0392985037553344 80.8123909852351 0.997832404158664 -7.14125009555176 0.99783240415866 -7.14125009555178 0.0392984520820412 80.8126653361922 
! Gamma         0                0                0                0                
! Port Impedance         50               0                50               0                
15.5                           0.0395463983203016 80.7727122977809 0.99781816188702 -7.18729898174889 0.997818161887017 -7.18729898174891 0.0395463462127861 80.7729886704148 
! Gamma         0                0                0                0                
! Port Impedance         50               0                50               0                
15.6                           0.0397942349728897 80.7329876331179 0.997803877687932 -7.23334617589124 0.997803877687929 -7.23334617589125 0.0397941824311985 80.7332660260729 
! Gamma         0                0                0                0                
! Port Impedance         50               0                50               0                
15.7                           0.04004201376818 80.6932174044497 0.997789551316785 -7.27939167973136 0.997789551316781 -7.27939167973138 0.0400419607923252 80.6934978163865 
! Gamma         0                0                0                0                
! Port Impedance         50               0                50               0                
15.8                           0.0402897347505715 80.653402018892  0.997775182536001 -7.32543549471   0.997775182535998 -7.32543549471002 0.0402896813405308 80.6536844484887 
! Gamma         0                0                0                0                
! Port Impedance         50               0                50               0                
15.9                           0.040537397954075 80.6135418777999 0.997760771114926 -7.37147762197048 0.997760771114923 -7.37147762197049 0.0405373441097926 80.6138263237529 
! Gamma         0                0                0                0                
! Port Impedance         50               0                50               0                
16                             0.0407850034026027 80.5736373770724 0.99774631682971 -7.41751806237254 0.997746316829706 -7.41751806237256 0.0407849491239894 80.5739238380979 
! Gamma         0                0                0                0                
! Port Impedance         50               0                50               0                
16.1                           0.0410325511102498 80.5336889074356 0.997731819463188 -7.46355681650567 0.997731819463185 -7.46355681650567 0.0410324963971836 80.5339773822701 
! Gamma         0                0                0                0                
! Port Impedance         50               0                50               0                
16.2                           0.041280041081571 80.4936968547059 0.997717278804766 -7.5095938847018 0.997717278804762 -7.50959388470181 0.0412799859338977 80.4939873421072 
! Gamma         0                0                0                0                
! Port Impedance         50               0                50               0                
16.3                           0.0415274733118508 80.4536616000337 0.997702694650298 -7.55562926704775 0.997702694650294 -7.55562926704776 0.0415274177293842 80.4539540987819 
! Gamma         0                0                0                0                
! Port Impedance         50               0                50               0                
16.4                           0.0417748477873673 80.4135835201309 0.997688066801974 -7.60166296339688 0.99768806680197 -7.60166296339689 0.04177479176989 80.4138780290289 
! Gamma         0                0                0                0                
! Port Impedance         50               0                50               0                
16.5                           0.0420221644856504 80.3734629874808 0.997673395068198 -7.64769497338051 0.997673395068194 -7.64769497338051 0.0420221080329143 80.373759505355  
! Gamma         0                0                0                0                
! Port Impedance         50               0                50               0                
16.6                           0.0422694233757339 80.3333003705336 0.997658679263476 -7.69372529641881 0.997658679263472 -7.69372529641881 0.0422693664874605 80.3335988962344 
! Gamma         0                0                0                0                
! Port Impedance         50               0                50               0                
16.7                           0.0425166244184022 80.2930960338869 0.997643919208295 -7.73975393173122 0.997643919208291 -7.73975393173123 0.0425165670942833 80.2933965662895 
! Gamma         0                0                0                0                
! Port Impedance         50               0                50               0                
16.8                           0.0427637675664302 80.2528503384538 0.997629114729013 -7.78578087834657 0.997629114729009 -7.78578087834657 0.0427637098061285 80.2531528764585 
! Gamma         0                0                0                0                
! Port Impedance         50               0                50               0                
16.9                           0.043010852764819 80.2125636416175 0.997614265657741 -7.83180613511262 0.997614265657737 -7.83180613511262 0.0430107945679684 80.2128681841502 
! Gamma         0                0                0                0                
! Port Impedance         50               0                50               0                
17                             0.0432578799510247 80.1722362973754 0.997599371832229 -7.87782970070539 0.997599371832225 -7.87782970070539 0.0432578213172311 80.172542843388  
! Gamma         0                0                0                0                
! Port Impedance         50               0                50               0                
17.1                           0.0435048490551823 80.1318686564718 0.997584433095759 -7.92385157363803 0.997584433095755 -7.92385157363803 0.0435047899840241 80.1321772049424 
! Gamma         0                0                0                0                
! Port Impedance         50               0                50               0                
17.2                           0.0437517600003244 80.0914610665203 0.997569449297025 -7.96987175226929 0.997569449297021 -7.96987175226929 0.0437517004913528 80.0917716164538 
! Gamma         0                0                0                0                
! Port Impedance         50               0                50               0                
17.3                           0.0439986127025939 80.0510138721178 0.997554420290031 -8.01589023481175 0.997554420290027 -8.01589023481174 0.043998552755334 80.0513264225459 
! Gamma         0                0                0                0                
! Port Impedance         50               0                50               0                
17.4                           0.0442454070714521 80.0105274149488 0.997539345933976 -8.06190701933962 0.997539345933972 -8.06190701933961 0.0442453466854031 80.0108419649302 
! Gamma         0                0                0                0                
! Port Impedance         50               0                50               0                
17.5                           0.0444921430098816 79.9700020338822 0.997524226093148 -8.10792210379628 0.997524226093145 -8.10792210379627 0.0444920821845171 79.9703185825029 
! Gamma         0                0                0                0                
! Port Impedance         50               0                50               0                
17.6                           0.0447388204145833 79.92943806506   0.997509060636822 -8.15393548600146 0.997509060636818 -8.15393548600145 0.0447387591493526 79.9297566114336 
! Gamma         0                0                0                0                
! Port Impedance         50               0                50               0                
17.7                           0.0449854391761701 79.8888358419799 0.997493849439144 -8.19994716365817 0.997493849439141 -8.19994716365816 0.044985377470498 79.8891563852472 
! Gamma         0                0                0                0                
! Port Impedance         50               0                50               0                
17.8                           0.0452319991793537 79.8481956955703 0.99747859237904 -8.24595713435928 0.997478592379037 -8.24595713435926 0.0452319370326416 79.8485182348998 
! Gamma         0                0                0                0                
! Port Impedance         50               0                50               0                
17.9                           0.0454785003031287 79.8075179542599 0.997463289340104 -8.2919653955939 0.997463289340101 -8.29196539559388 0.045478437714755 79.8078424888479 
! Gamma         0                0                0                0                
! Port Impedance         50               0                50               0                
18                             0.0457249424209502 79.7668029440418 0.997447940210501 -8.33797194475343 0.997447940210497 -8.33797194475342 0.0457248793902708 79.7671294731122 
! Gamma         0                0                0                0                
! Port Impedance         50               0                50               0                
18.1                           0.0459713254009082 79.7260509885318 0.997432544882866 -8.38397677913738 0.997432544882862 -8.38397677913736 0.0459712619272573 79.726379511336  
! Gamma         0                0                0                0                
! Port Impedance         50               0                50               0                
18.2                           0.0462176491058967 79.6852624090225 0.997417103254207 -8.42997989595893 0.997417103254204 -8.42997989595891 0.046217585188587 79.6855929248397 
! Gamma         0                0                0                0                
! Port Impedance         50               0                50               0                
18.3                           0.046463913393779 79.6444375245325 0.997401615225811 -8.47598129235027 0.997401615225807 -8.47598129235024 0.0464638490321024 79.6447700326694 
! Gamma         0                0                0                0                
! Port Impedance         50               0                50               0                
18.4                           0.0467101181175478 79.6035766518516 0.997386080703142 -8.52198096536768 0.997386080703138 -8.52198096536766 0.0467100533107764 79.6039111516423 
! Gamma         0                0                0                0                
! Port Impedance         50               0                50               0                
18.5                           0.0469562631254825 79.5626801055822 0.997370499595753 -8.56797891199645 0.997370499595749 -8.56797891199642 0.0469561978728683 79.5630165963883 
! Gamma         0                0                0                0                
! Port Impedance         50               0                50               0                
18.6                           0.0472023482613008 79.5217481981773 0.997354871817194 -8.61397512915548 0.99735487181719 -8.61397512915545 0.0472022825620771 79.5220866793877 
! Gamma         0                0                0                0                
! Port Impedance         50               0                50               0                
18.7                           0.0474483733643076 79.4807812399749 0.997339197284919 -8.6599696137018 0.997339197284915 -8.65996961370177 0.0474483072176892 79.4811217110054 
! Gamma         0                0                0                0                
! Port Impedance         50               0                50               0                
18.8                           0.0476943382695392 79.4397795392295 0.997323475920196 -8.7059623624348 0.997323475920193 -8.70596236243478 0.0476942716747227 79.4401219995231 
! Gamma         0                0                0                0                
! Port Impedance         50               0                50               0                
18.9                           0.047940242807904 79.3987434021414 0.997307707648027 -8.75195337210035 0.997307707648023 -8.75195337210032 0.0479401757640689 79.3990878511678 
! Gamma         0                0                0                0                
! Port Impedance         50               0                50               0                
19                             0.0481860868063193 79.3576731328822 0.997291892397052 -8.7979426393946 0.997291892397048 -8.79794263939457 0.0481860193126279 79.3580195701379 
! Gamma         0                0                0                0                
! Port Impedance         50               0                50               0                
19.1                           0.0484318700878442 79.3165690336196 0.997276030099472 -8.84393016096782 0.997276030099468 -8.84393016096779 0.0484318021434429 79.3169174586272 
! Gamma         0                0                0                0                
! Port Impedance         50               0                50               0                
19.2                           0.0486775924718099 79.2754314045383 0.997260120690963 -8.88991593342785 0.997260120690959 -8.88991593342781 0.0486775240758291 79.2757818168469 
! Gamma         0                0                0                0                
! Port Impedance         50               0                50               0                
19.3                           0.048923253773945 79.2342605438603 0.997244164110596 -8.93589995334352 0.997244164110593 -8.93589995334349 0.0489231849254999 79.2346129430448 
! Gamma         0                0                0                0                
! Port Impedance         50               0                50               0                
19.4                           0.0491688538064987 79.1930567478629 0.997228160300758 -8.98188221724794 0.997228160300755 -8.98188221724791 0.0491687845046898 79.193411133524  
! Gamma         0                0                0                0                
! Port Impedance         50               0                50               0                
19.5                           0.0494143923783601 79.1518203108947 0.997212109207071 -9.02786272164148 0.997212109207067 -9.02786272164144 0.0494143226222738 79.1521766826586 
! Gamma         0                0                0                0                
! Port Impedance         50               0                50               0                
19.6                           0.049659869295174 79.1105515253908 0.997196010778316 -9.07384146299477 0.997196010778313 -9.07384146299473 0.0496597990838829 79.1109098829089 
! Gamma         0                0                0                0                
! Port Impedance         50               0                50               0                
19.7                           0.0499052843594541 79.0692506818859 0.997179864966362 -9.11981843775151 0.997179864966359 -9.11981843775147 0.0499052136920177 79.0696110248346 
! Gamma         0                0                0                0                
! Port Impedance         50               0                50               0                
19.8                           0.0501506373706928 79.0279180690269 0.997163671726086 -9.16579364233109 0.997163671726083 -9.16579364233105 0.0501505662461581 79.0282803971073 
! Gamma         0                0                0                0                
! Port Impedance         50               0                50               0                
19.9                           0.050395928125468 78.9865539735836 0.997147431015306 -9.21176707313118 0.997147431015302 -9.21176707313114 0.0503958565428698 78.9869182865212 
! Gamma         0                0                0                0                
! Port Impedance         50               0                50               0                
20                             0.0506411564175468 78.9451586804589 0.997131142794705 -9.25773872653012 0.997131142794701 -9.25773872653008 0.0506410843759083 78.9455249780034 
! Gamma         0                0                0                0                
! Port Impedance         50               0                50               0                
20.1                           0.0508863220379869 78.9037324726983 0.997114807027765 -9.30370859888923 0.997114807027762 -9.30370859888918 0.0508862495363201 78.9041007546231 
! Gamma         0                0                0                0                
! Port Impedance         50               0                50               0                
20.2                           0.0511314247752344 78.8622756314975 0.997098423680702 -9.34967668655497 0.997098423680698 -9.34967668655492 0.0511313518125407 78.8626458975996 
! Gamma         0                0                0                0                
! Port Impedance         50               0                50               0                
20.3                           0.0513764644152195 78.8207884362107 0.99708199272239 -9.39564298586107 0.997081992722386 -9.39564298586102 0.0513763909904902 78.8211606863103 
! Gamma         0                0                0                0                
! Port Impedance         50               0                50               0                
20.4                           0.0516214407414491 78.7792711643568 0.997065514124305 -9.44160749313045 0.997065514124301 -9.4416074931304 0.0516213668536659 78.779645398297  
! Gamma         0                0                0                0                
! Port Impedance         50               0                50               0                
20.5                           0.0518663535350974 78.7377240916264 0.997048987860457 -9.48757020467714 0.997048987860453 -9.48757020467708 0.0518662791832326 78.738100309273  
! Gamma         0                0                0                0                
! Port Impedance         50               0                50               0                
20.6                           0.0521112025750932 78.6961474918873 0.997032413907328 -9.53353111680801 0.997032413907325 -9.53353111680796 0.0521111277581105 78.6965256931282 
! Gamma         0                0                0                0                
! Port Impedance         50               0                50               0                
20.7                           0.0523559876382053 78.6545416371897 0.997015792243811 -9.5794902258245 0.997015792243808 -9.57949022582445 0.0523559123550602 78.6549218219349 
! Gamma         0                0                0                0                
! Port Impedance         50               0                50               0                
20.8                           0.0526007084991255 78.6129067977712 0.99699912285115 -9.62544752802418 0.996999122851146 -9.62544752802413 0.0526006327487656 78.6132889659523 
! Gamma         0                0                0                0                
! Port Impedance         50               0                50               0                
20.9                           0.0528453649305487 78.571243242062  0.996982405712881 -9.6714030197023 0.996982405712877 -9.67140301970224 0.0528452887119143 78.5716273936318 
! Gamma         0                0                0                0                
! Port Impedance         50               0                50               0                
21                             0.0530899567032517 78.5295512366881 0.996965640814776 -9.71735669715316 0.996965640814772 -9.7173566971531 0.0530898800152762 78.5299373716206 
! Gamma         0                0                0                0                
! Port Impedance         50               0                50               0                
21.1                           0.0533344835861686 78.4878310464765 0.996948828144785 -9.76330855667153 0.996948828144781 -9.76330855667147 0.0533344064277791 78.4882191647661 
! Gamma         0                0                0                0                
! Port Impedance         50               0                50               0                
21.2                           0.0535789453464651 78.4460829344583 0.996931967692983 -9.80925859455389 0.99693196769298 -9.80925859455383 0.0535788677165824 78.4464730361197 
! Gamma         0                0                0                0                
! Port Impedance         50               0                50               0                
21.3                           0.0538233417496102 78.4043071618726 0.996915059451517 -9.85520680709963 0.996915059451514 -9.85520680709956 0.0538232636471497 78.4046992469407 
! Gamma         0                0                0                0                
! Port Impedance         50               0                50               0                
21.4                           0.0540676725594457 78.3625039881703 0.996898103414551 -9.90115319061219 0.996898103414547 -9.90115319061213 0.0540675939833176 78.3628980566995 
! Gamma         0                0                0                0                
! Port Impedance         50               0                50               0                
21.5                           0.0543119375382541 78.3206736710171 0.996881099578214 -9.94709774140016 0.996881099578211 -9.94709774140011 0.0543118584873638 78.3210697230811 
! Gamma         0                0                0                0                
! Port Impedance         50               0                50               0                
21.6                           0.0545561364468244 78.2788164662974 0.996864047940557 -9.99304045577825 0.996864047940553 -9.99304045577818 0.0545560569200729 78.2792145019888 
! Gamma         0                0                0                0                
! Port Impedance         50               0                50               0                
21.7                           0.0548002690445157 78.2369326281171 0.996846948501494 -10.0389813300682 0.996846948501491 -10.0389813300682 0.0548001890408004 78.2373326475472 
! Gamma         0                0                0                0                
! Port Impedance         50               0                50               0                
21.8                           0.05504433508932 78.1950224088075 0.996829801262763 -10.0849203605998 0.99682980126276 -10.0849203605998 0.0550442546075344 78.1954244121059 
! Gamma         0                0                0                0                
! Port Impedance         50               0                50               0                
21.9                           0.0552883343379214 78.1530860589279 0.996812606227874 -10.1308575437117 0.99681260622787 -10.1308575437116 0.0552882533769561 78.1534900462421 
! Gamma         0                0                0                0                
! Port Impedance         50               0                50               0                
22                             0.0555322665457556 78.1111238272697 0.996795363402064 -10.1767928757518 0.996795363402061 -10.1767928757517 0.0555321851044985 78.1115297987649 
! Gamma         0                0                0                0                
! Port Impedance         50               0                50               0                
22.1                           0.0557761314670662 78.0691359608592 0.996778072792257 -10.2227263530786 0.996778072792254 -10.2227263530785 0.0557760495444027 78.0695439167178 
! Gamma         0                0                0                0                
! Port Impedance         50               0                50               0                
22.2                           0.0560199288549602 78.0271227049612 0.996760734407013 -10.2686579720615 0.99676073440701 -10.2686579720614 0.0560198464497738 78.0275326453827 
! Gamma         0                0                0                0                
! Port Impedance         50               0                50               0                
22.3                           0.0562636584614613 77.9850843030829 0.99674334825649 -10.3145877290816 0.996743348256487 -10.3145877290815 0.0562635755726339 77.9854962282831 
! Gamma         0                0                0                0                
! Port Impedance         50               0                50               0                
22.4                           0.0565073200375622 77.9430209969766 0.996725914352405 -10.3605156205319 0.996725914352402 -10.3605156205319 0.0565072366639744 77.943434907188  
! Gamma         0                0                0                0                
! Port Impedance         50               0                50               0                
22.5                           0.0567509133332749 77.9009330266443 0.996708432707988 -10.4064416428186 0.996708432707985 -10.4064416428185 0.0567508294738066 77.9013489221151 
! Gamma         0                0                0                0                
! Port Impedance         50               0                50               0                
22.6                           0.0569944380976798 77.8588206303409 0.996690903337944 -10.4523657923607 0.996690903337941 -10.4523657923606 0.0569943537512104 77.8592385113349 
! Gamma         0                0                0                0                
! Port Impedance         50               0                50               0                
22.7                           0.0572378940789736 77.8166840445781 0.996673326258418 -10.4982880655912 0.996673326258415 -10.4982880655911 0.0572378092443821 77.8171039113746 
! Gamma         0                0                0                0                
! Port Impedance         50               0                50               0                
22.8                           0.057481281024515 77.7745235041289 0.996655701486951 -10.544208458957 0.996655701486948 -10.544208458957 0.0574811957006808 77.7749453570221 
! Gamma         0                0                0                0                
! Port Impedance         50               0                50               0                
22.9                           0.0577245986808699 77.7323392420311 0.996638029042452 -10.5901269689199 0.996638029042448 -10.5901269689198 0.0577245128666729 77.7327630813298 
! Gamma         0                0                0                0                
! Port Impedance         50               0                50               0                
23                             0.0579678467938547 77.6901314895919 0.996620308945151 -10.6360435919561 0.996620308945148 -10.636043591956 0.0579677604881757 77.6905573156192 
! Gamma         0                0                0                0                
! Port Impedance         50               0                50               0                
23.1                           0.058211025108579 77.6479004763923 0.996602541216575 -10.6819583245574 0.996602541216572 -10.6819583245573 0.0582109383102999 77.6483282894856 
! Gamma         0                0                0                0                
! Port Impedance         50               0                50               0                
23.2                           0.0584541333694857 77.6056464302916 0.996584725879507 -10.7278711632309 0.996584725879504 -10.7278711632309 0.05845404607749 77.6060762308017 
! Gamma         0                0                0                0                
! Port Impedance         50               0                50               0                
23.3                           0.0586971713203919 77.563369577432  0.996566862957954 -10.7737821044996 0.996566862957951 -10.7737821044995 0.0586970835335649 77.5638013657232 
! Gamma         0                0                0                0                
! Port Impedance         50               0                50               0                
23.4                           0.0589401387045265 77.5210701422434 0.996548952477118 -10.8196911449023 0.996548952477115 -10.8196911449023 0.0589400504217558 77.5215039186931 
! Gamma         0                0                0                0                
! Port Impedance         50               0                50               0                
23.5                           0.0591830352645683 77.4787483474486 0.996530994463357 -10.8655982809943 0.996530994463354 -10.8655982809942 0.0591829464847437 77.479184112447  
! Gamma         0                0                0                0                
! Port Impedance         50               0                50               0                
23.6                           0.0594258607426818 77.4364044140682 0.996512988944163 -10.911503509347 0.99651298894416 -10.9115035093469 0.0594257714646962 77.4368421680179 
! Gamma         0                0                0                0                
! Port Impedance         50               0                50               0                
23.7                           0.0596686148805531 77.3940385614259 0.996494935948126 -10.9574068265485 0.996494935948123 -10.9574068265484 0.0596685251033021 77.3944783047417 
! Gamma         0                0                0                0                
! Port Impedance         50               0                50               0                
23.8                           0.0599112974194231 77.3516510071539 0.996476835504907 -11.0033082292036 0.996476835504904 -11.0033082292035 0.0599112071418059 77.3520927402625 
! Gamma         0                0                0                0                
! Port Impedance         50               0                50               0                
23.9                           0.0601539081001217 77.3092419671986 0.996458687645207 -11.0492077139338 0.996458687645204 -11.0492077139337 0.0601538173210412 77.3096856905382 
! Gamma         0                0                0                0                
! Port Impedance         50               0                50               0                
24                             0.0603964466630992 77.2668116558261 0.996440492400743 -11.0951052773777 0.996440492400741 -11.0951052773776 0.0603963553814621 77.2672573698463 
! Gamma         0                0                0                0                
! Port Impedance         50               0                50               0                
24.1                           0.0606389128484578 77.2243602856282 0.996422249804219 -11.1410009161906 0.996422249804217 -11.1410009161905 0.0606388210631749 77.2248079907894 
! Gamma         0                0                0                0                
! Port Impedance         50               0                50               0                
24.2                           0.0608813063959816 77.1818880675283 0.996403959889299 -11.1868946270451 0.996403959889296 -11.186894627045 0.0608812141059685 77.1823377643017 
! Gamma         0                0                0                0                
! Port Impedance         50               0                50               0                
24.3                           0.061123627045166 77.1393952107875 0.996385622690579 -11.2327864066306 0.996385622690577 -11.2327864066305 0.0611235342493428 77.1398468996548 
! Gamma         0                0                0                0                
! Port Impedance         50               0                50               0                
24.4                           0.0613658745352463 77.0968819230112 0.99636723824357 -11.2786762516537 0.996367238243567 -11.2786762516536 0.0613657812325383 77.097335604464  
! Gamma         0                0                0                0                
! Port Impedance         50               0                50               0                
24.5                           0.061608048605225 77.0543484101548 0.996348806584663 -11.3245641588381 0.996348806584661 -11.324564158838 0.0616079547945626 77.0548040846948 
! Gamma         0                0                0                0                
! Port Impedance         50               0                50               0                
24.6                           0.0618501489938984 77.0117948765311 0.996330327751114 -11.3704501249246 0.996330327751112 -11.3704501249245 0.0618500546742176 77.0122525446694 
! Gamma         0                0                0                0                
! Port Impedance         50               0                50               0                
24.7                           0.0620921754398826 76.9692215248165 0.996311801781016 -11.4163341466708 0.996311801781014 -11.4163341466707 0.0620920806101252 76.9696811870734 
! Gamma         0                0                0                0                
! Port Impedance         50               0                50               0                
24.8                           0.0623341276816386 76.9266285560576 0.996293228713278 -11.4622162208517 0.996293228713276 -11.4622162208516 0.0623340323407524 76.9270902129627 
! Gamma         0                0                0                0                
! Port Impedance         50               0                50               0                
24.9                           0.0625760054574967 76.8840161696786 0.996274608587602 -11.5080963442589 0.9962746085876  -11.5080963442588 0.0625759096044357 76.8844798217702 
! Gamma         0                0                0                0                
! Port Impedance         50               0                50               0                
25                             0.0628178085056795 76.8413845634882 0.996255941444464 -11.5539745137011 0.996255941444461 -11.553974513701 0.0628177121394042 76.8418502113128 
! Gamma         0                0                0                0                
! Port Impedance         50               0                50               0                
25.1                           0.0630595365643252 76.7987339336865 0.99623722732509 -11.5998507260035 0.996237227325087 -11.5998507260035 0.063059439683803 76.7992015777992 
! Gamma         0                0                0                0                
! Port Impedance         50               0                50               0                
25.2                           0.0633011893715096 76.7560644748726 0.996218466271438 -11.6457249780085 0.996218466271435 -11.6457249780084 0.0633010919757147 76.7565341158363 
! Gamma         0                0                0                0                
! Port Impedance         50               0                50               0                
25.3                           0.0635427666652673 76.7133763800519 0.996199658326179 -11.6915972665747 0.996199658326177 -11.6915972665746 0.0635426687531809 76.7138480184372 
! Gamma         0                0                0                0                
! Port Impedance         50               0                50               0                
25.4                           0.0637842681836123 76.6706698406435 0.996180803532675 -11.7374675885774 0.996180803532673 -11.7374675885773 0.0637841697542234 76.6711434770285 
! Gamma         0                0                0                0                
! Port Impedance         50               0                50               0                
25.5                           0.0640256936645585 76.6279450464879 0.996161901934964 -11.7833359409083 0.996161901934961 -11.7833359409082 0.0640255947168634 76.6284206814579 
! Gamma         0                0                0                0                
! Port Impedance         50               0                50               0                
25.6                           0.0642670428461387 76.5852021858548 0.996142953577737 -11.8292023204752 0.996142953577735 -11.8292023204751 0.0642669433791415 76.585679820002  
! Gamma         0                0                0                0                
! Port Impedance         50               0                50               0                
25.7                           0.0645083154664234 76.5424414454504 0.996123958506327 -11.8750667242024 0.996123958506324 -11.8750667242023 0.0645082154791362 76.542921079374  
! Gamma         0                0                0                0                
! Port Impedance         50               0                50               0                
25.8                           0.0647495112635392 76.4996630104262 0.996104916766684 -11.9209291490297 0.996104916766682 -11.9209291490296 0.0647494107549825 76.5001446447315 
! Gamma         0                0                0                0                
! Port Impedance         50               0                50               0                
25.9                           0.0649906299756861 76.4568670643861 0.996085828405367 -11.9667895919132 0.996085828405364 -11.9667895919131 0.0649905289448886 76.4573506996849 
! Gamma         0                0                0                0                
! Port Impedance         50               0                50               0                
26                             0.0652316713411548 76.4140537893949 0.99606669346952 -12.0126480498245 0.996066693469517 -12.0126480498244 0.0652315697871537 76.414539426305  
! Gamma         0                0                0                0                
! Port Impedance         50               0                50               0                
26.1                           0.0654726350983428 76.3712233659864 0.996047512006861 -12.0585045197508 0.996047512006858 -12.0585045197507 0.0654725330201844 76.3717110051312 
! Gamma         0                0                0                0                
! Port Impedance         50               0                50               0                
26.2                           0.0657135209857708 76.3283759731714 0.996028284065665 -12.1043589986946 0.996028284065663 -12.1043589986945 0.0657134183825101 76.3288656151801 
! Gamma         0                0                0                0                
! Port Impedance         50               0                50               0                
26.3                           0.0659543287420975 76.2855117884464 0.996009009694751 -12.1502114836737 0.996009009694749 -12.1502114836736 0.0659542256127987 76.2860034339534 
! Gamma         0                0                0                0                
! Port Impedance         50               0                50               0                
26.4                           0.066195058106135 76.2426309878018 0.995989688943465 -12.1960619717208 0.995989688943463 -12.1960619717207 0.0661949544498716 76.2431246374466 
! Gamma         0                0                0                0                
! Port Impedance         50               0                50               0                
26.5                           0.0664357088168629 76.1997337457299 0.995970321861666 -12.2419104598838 0.995970321861664 -12.2419104598837 0.0664356046327179 76.200229400157  
! Gamma         0                0                0                0                
! Port Impedance         50               0                50               0                
26.6                           0.0666762806134422 76.1568202352343 0.995950908499716 -12.2877569452248 0.995950908499714 -12.2877569452247 0.0666761759005081 76.1573178950927 
! Gamma         0                0                0                0                
! Port Impedance         50               0                50               0                
26.7                           0.0669167732352289 76.1138906278375 0.995931448908462 -12.3336014248208 0.99593144890846 -12.3336014248207 0.0669166679926082 76.1143902937808 
! Gamma         0                0                0                0                
! Port Impedance         50               0                50               0                
26.8                           0.0671571864217867 76.0709450935901 0.995911943139227 -12.3794438957629 0.995911943139225 -12.3794438957628 0.0671570806485916 76.0714467662762 
! Gamma         0                0                0                0                
! Port Impedance         50               0                50               0                
26.9                           0.0673975199128997 76.0279838010793 0.995892391243796 -12.4252843551563 0.995892391243795 -12.4252843551562 0.0673974136082527 76.02848748117   
! Gamma         0                0                0                0                
! Port Impedance         50               0                50               0                
27                             0.0676377734485845 75.9850069174378 0.995872793274404 -12.4711228001203 0.995872793274402 -12.4711228001202 0.0676376666116182 75.9855126055987 
! Gamma         0                0                0                0                
! Port Impedance         50               0                50               0                
27.1                           0.0678779467691018 75.942014608352  0.995853149283724 -12.5169592277879 0.995853149283722 -12.5169592277878 0.0678778393989593 75.9425223052525 
! Gamma         0                0                0                0                
! Port Impedance         50               0                50               0                
27.2                           0.0681180396149676 75.8990070380714 0.995833459324855 -12.5627936353054 0.995833459324853 -12.5627936353053 0.0681179317108025 75.8995167443843 
! Gamma         0                0                0                0                
! Port Impedance         50               0                50               0                
27.3                           0.0683580517269642 75.8559843694171 0.995813723451314 -12.6086260198326 0.995813723451312 -12.6086260198325 0.0683579432879408 75.8564960858186 
! Gamma         0                0                0                0                
! Port Impedance         50               0                50               0                
27.4                           0.0685979828461507 75.8129467637911 0.995793941717021 -12.6544563785426 0.995793941717019 -12.6544563785425 0.0685978738714441 75.81346049096   
! Gamma         0                0                0                0                
! Port Impedance         50               0                50               0                
27.5                           0.068837832713873 75.7698943811843 0.995774114176292 -12.7002847086211 0.99577411417629 -12.700284708621 0.0688377232026692 75.7704101198028 
! Gamma         0                0                0                0                
! Port Impedance         50               0                50               0                
27.6                           0.0690776010717733 75.7268273801866 0.995754240883828 -12.7461110072669 0.995754240883827 -12.7461110072668 0.0690774910232693 75.7273451309392 
! Gamma         0                0                0                0                
! Port Impedance         50               0                50               0                
27.7                           0.0693172876617999 75.6837459179949 0.995734321894706 -12.791935271691 0.995734321894704 -12.7919352716909 0.0693171770752041 75.6842656815688 
! Gamma         0                0                0                0                
! Port Impedance         50               0                50               0                
27.8                           0.0695568922262162 75.6406501504226 0.995714357264365 -12.8377574991169 0.995714357264364 -12.8377574991168 0.0695567811007479 75.6411719275072 
! Gamma         0                0                0                0                
! Port Impedance         50               0                50               0                
27.9                           0.069796414507609 75.5975402319085 0.995694347048605 -12.8835776867802 0.995694347048603 -12.8835776867801 0.0697963028424993 75.5980640231954 
! Gamma         0                0                0                0                
! Port Impedance         50               0                50               0                
28                             0.0700358542488971 75.5544163155256 0.995674291303569 -12.9293958319284 0.995674291303568 -12.9293958319283 0.0700357420433884 75.5549421217084 
! Gamma         0                0                0                0                
! Port Impedance         50               0                50               0                
28.1                           0.0702752111933396 75.5112785529906 0.995654190085744 -12.9752119318209 0.995654190085742 -12.9752119318208 0.070275098446686 75.5118063747646 
! Gamma         0                0                0                0                
! Port Impedance         50               0                50               0                
28.2                           0.0705144850845431 75.4681270946725 0.995634043451943 -13.0210259837284 0.995634043451941 -13.0210259837283 0.0705143717960106 75.4686569327346 
! Gamma         0                0                0                0                
! Port Impedance         50               0                50               0                
28.3                           0.0707536756664698 75.4249620896018 0.995613851459304 -13.0668379849329 0.995613851459303 -13.0668379849328 0.0707535618353358 75.4254939446504 
! Gamma         0                0                0                0                
! Port Impedance         50               0                50               0                
28.4                           0.0709927826834439 75.3817836854798 0.995593614165281 -13.1126479327278 0.99559361416528 -13.1126479327277 0.0709926683089981 75.3823175582146 
! Gamma         0                0                0                0                
! Port Impedance         50               0                50               0                
28.5                           0.071231805880159 75.3385920286872 0.995573331627634 -13.1584558244171 0.995573331627632 -13.158455824417 0.071231690961703 75.339127919809  
! Gamma         0                0                0                0                
! Port Impedance         50               0                50               0                
28.6                           0.0714707450016846 75.2953872642936 0.995553003904421 -13.2042616573156 0.995553003904419 -13.2042616573155 0.0714706295385321 75.2959251745043 
! Gamma         0                0                0                0                
! Port Impedance         50               0                50               0                
28.7                           0.0717095997934722 75.2521695360665 0.995532631053996 -13.2500654287489 0.995532631053995 -13.2500654287488 0.0717094837849491 75.2527094660686 
! Gamma         0                0                0                0                
! Port Impedance         50               0                50               0                
28.8                           0.0719483700013617 75.2089389864801 0.995512213134999 -13.2958671360525 0.995512213134997 -13.2958671360524 0.071948253446806 75.2094809369768 
! Gamma         0                0                0                0                
! Port Impedance         50               0                50               0                
28.9                           0.0721870553715865 75.1656957567248 0.995491750206348 -13.3416667765724 0.995491750206346 -13.3416667765723 0.072186938270349 75.1662397284198 
! Gamma         0                0                0                0                
! Port Impedance         50               0                50               0                
29                             0.0724256556507802 75.1224399867157 0.995471242327235 -13.3874643476642 0.995471242327234 -13.3874643476641 0.0724255380022237 75.1229859803132 
! Gamma         0                0                0                0                
! Port Impedance         50               0                50               0                
29.1                           0.0726641705859808 75.0791718151023 0.995450689557119 -13.4332598466935 0.995450689557118 -13.4332598466935 0.0726640523894808 75.0797198313065 
! Gamma         0                0                0                0                
! Port Impedance         50               0                50               0                
29.2                           0.0729025999246362 75.0358913792771 0.995430091955721 -13.4790532710355 0.99543009195572 -13.4790532710354 0.0729024811795807 75.0364414187923 
! Gamma         0                0                0                0                
! Port Impedance         50               0                50               0                
29.3                           0.0731409434146092 74.9925988153847 0.995409449583016 -13.5248446180744 0.995409449583015 -13.5248446180743 0.073140824120399 74.9931508789153 
! Gamma         0                0                0                0                
! Port Impedance         50               0                50               0                
29.4                           0.0733792008041821 74.949294258331  0.99538876249923 -13.570633885204 0.995388762499229 -13.5706338852039 0.0733790809602305 74.9498483465809 
! Gamma         0                0                0                0                
! Port Impedance         50               0                50               0                
29.5                           0.0736173718420607 74.905977841792  0.995368030764833 -13.6164210698269 0.995368030764832 -13.6164210698268 0.0736172514477939 74.9065339554649 
! Gamma         0                0                0                0                
! Port Impedance         50               0                50               0                
29.6                           0.0738554562773791 74.8626496982228 0.995347254440534 -13.6622061693544 0.995347254440533 -13.6622061693543 0.0738553353322359 74.8632078380219 
! Gamma         0                0                0                0                
! Port Impedance         50               0                50               0                
29.7                           0.0740934538597029 74.8193099588667 0.995326433587277 -13.7079891812067 0.995326433587276 -13.7079891812066 0.0740933323631354 74.8198701254946 
! Gamma         0                0                0                0                
! Port Impedance         50               0                50               0                
29.8                           0.0743313643390341 74.7759587537642 0.995305568266236 -13.7537701028121 0.995305568266235 -13.753770102812 0.0743312422905069 74.7765209479226 
! Gamma         0                0                0                0                
! Port Impedance         50               0                50               0                
29.9                           0.0745691874658136 74.7325962117617 0.995284658538808 -13.7995489316076 0.995284658538807 -13.7995489316075 0.0745690648648044 74.7331604341515 
! Gamma         0                0                0                0                
! Port Impedance         50               0                50               0                
30                             0.0748069229909253 74.6892224605204 0.995263704466614 -13.845325665038 0.995263704466612 -13.8453256650379 0.0748067998369249 74.6897887118415 
! Gamma         0                0                0                0                
! Port Impedance         50               0                50               0                
30.1                           0.0750445706656991 74.6458376265254 0.995242706111487 -13.8911003005561 0.995242706111486 -13.891100300556 0.0750444469582113 74.6464059074766 
! Gamma         0                0                0                0                
! Port Impedance         50               0                50               0                
30.2                           0.0752821302419139 74.6024418350944 0.995221663535476 -13.9368728356224 0.995221663535475 -13.9368728356223 0.0752820059804555 74.6030121463732 
! Gamma         0                0                0                0                
! Port Impedance         50               0                50               0                
30.3                           0.0755196014718005 74.5590352103866 0.995200576800836 -13.9826432677052 0.995200576800835 -13.9826432677051 0.0755194766559017 74.559607552689  
! Gamma         0                0                0                0                
! Port Impedance         50               0                50               0                
30.4                           0.0757569841080447 74.5156178754113 0.995179445970027 -14.02841159428  0.995179445970026 -14.0284115942799 0.0757568587372485 74.5161922494321 
! Gamma         0                0                0                0                
! Port Impedance         50               0                50               0                
30.5                           0.0759942779037892 74.4721899520371 0.995158271105709 -14.0741778128297 0.995158271105708 -14.0741778128296 0.075994151977652 74.4727663584692 
! Gamma         0                0                0                0                
! Port Impedance         50               0                50               0                
30.6                           0.0762314826126363 74.4287515609999 0.995137052270741 -14.1199419208442 0.99513705227074 -14.1199419208441 0.0762313561307278 74.4293300005346 
! Gamma         0                0                0                0                
! Port Impedance         50               0                50               0                
30.7                           0.0764685979886502 74.3853028219124 0.995115789528172 -14.1657039158205 0.995115789528172 -14.1657039158204 0.0764684709505532 74.3858832952392 
! Gamma         0                0                0                0                
! Port Impedance         50               0                50               0                
30.8                           0.0767056237863593 74.3418438532723 0.995094482941247 -14.2114637952622 0.995094482941246 -14.2114637952621 0.0767054961916698 74.3424263610787 
! Gamma         0                0                0                0                
! Port Impedance         50               0                50               0                
30.9                           0.0769425597607573 74.2983747724709 0.995073132573393 -14.2572215566798 0.995073132573393 -14.2572215566797 0.0769424316090848 74.2989593154425 
! Gamma         0                0                0                0                
! Port Impedance         50               0                50               0                
31                             0.0771794056673061 74.2548956958021 0.995051738488225 -14.3029771975901 0.995051738488224 -14.30297719759  0.0771792769582732 74.2554822746221 
! Gamma         0                0                0                0                
! Port Impedance         50               0                50               0                
31.1                           0.0774161612619366 74.2114067384705 0.995030300749538 -14.3487307155162 0.995030300749537 -14.3487307155161 0.0774160319951792 74.21199535382   
! Gamma         0                0                0                0                
! Port Impedance         50               0                50               0                
31.2                           0.0776528263010506 74.1679080146    0.995008819421305 -14.3944821079877 0.995008819421304 -14.3944821079876 0.0776526964762181 74.1684986671577 
! Gamma         0                0                0                0                
! Port Impedance         50               0                50               0                
31.3                           0.0778894005415222 74.1243996372428 0.994987294567677 -14.44023137254  0.994987294567677 -14.4402313725399 0.0778892701582772 74.124992327685  
! Gamma         0                0                0                0                
! Port Impedance         50               0                50               0                
31.4                           0.0781258837406988 74.0808817183869 0.994965726252979 -14.4859785067144 0.994965726252978 -14.4859785067143 0.0781257527987173 74.0814764473874 
! Gamma         0                0                0                0                
! Port Impedance         50               0                50               0                
31.5                           0.0783622756564028 74.0373543689656 0.994944114541704 -14.5317235080583 0.994944114541703 -14.5317235080582 0.078362144155374 74.0379511371953 
! Gamma         0                0                0                0                
! Port Impedance         50               0                50               0                
31.6                           0.0785985760469317 73.9938176988649 0.994922459498516 -14.5774663741244 0.994922459498516 -14.5774663741243 0.0785984439865583 73.9944165069923 
! Gamma         0                0                0                0                
! Port Impedance         50               0                50               0                
31.7                           0.07883478467106 73.9502718169324 0.994900761188247 -14.6232071024712 0.994900761188247 -14.6232071024711 0.0788346520510579 73.950872665623  
! Gamma         0                0                0                0                
! Port Impedance         50               0                50               0                
31.8                           0.0790709012880394 73.9067168309854 0.994879019675892 -14.6689456906624 0.994879019675891 -14.6689456906624 0.0790707681081378 73.9073197209018 
! Gamma         0                0                0                0                
! Port Impedance         50               0                50               0                
31.9                           0.0793069256575995 73.8631528478192 0.994857235026608 -14.7146821362673 0.994857235026607 -14.7146821362672 0.0793067919175411 73.8637577796211 
! Gamma         0                0                0                0                
! Port Impedance         50               0                50               0                
32                             0.0795428575399487 73.8195799732153 0.994835407305714 -14.7604164368599 0.994835407305714 -14.7604164368598 0.0795427232394892 73.8201869475592 
! Gamma         0                0                0                0                
! Port Impedance         50               0                50               0                
32.1                           0.0797786966957741 73.7759983119494 0.994813536578688 -14.8061485900196 0.994813536578687 -14.8061485900195 0.0797785618346828 73.7766073294886 
! Gamma         0                0                0                0                
! Port Impedance         50               0                50               0                
32.2                           0.0800144428862426 73.7324079677997 0.994791622911163 -14.8518785933306 0.994791622911163 -14.8518785933305 0.0800143074643018 73.7330190291843 
! Gamma         0                0                0                0                
! Port Impedance         50               0                50               0                
32.3                           0.0802500958730004 73.6888090435548 0.994769666368931 -14.8976064443819 0.99476966636893 -14.8976064443818 0.0802499598900059 73.6894221494317 
! Gamma         0                0                0                0                
! Port Impedance         50               0                50               0                
32.4                           0.0804856554181738 73.645201641022  0.994747667017935 -14.9433321407673 0.994747667017934 -14.9433321407673 0.0804855188739345 73.6458167920346 
! Gamma         0                0                0                0                
! Port Impedance         50               0                50               0                
32.5                           0.0807211212843688 73.6015858610349 0.994725624924272 -14.9890556800852 0.994725624924272 -14.9890556800851 0.0807209841787068 73.602203057823  
! Gamma         0                0                0                0                
! Port Impedance         50               0                50               0                
32.6                           0.0809564932346713 73.5579618034616 0.99470354015419 -15.0347770599382 0.994703540154189 -15.0347770599381 0.080956355567422 73.5585810466617 
! Gamma         0                0                0                0                
! Port Impedance         50               0                50               0                
32.7                           0.0811917710326472 73.5143295672126 0.994681412774086 -15.0804962779337 0.994681412774086 -15.0804962779336 0.081191632803659 73.5149508574574 
! Gamma         0                0                0                0                
! Port Impedance         50               0                50               0                
32.8                           0.0814269544423416 73.4706892502483 0.994659242850507 -15.1262133316831 0.994659242850507 -15.126213331683 0.0814268156514761 73.4713125881668 
! Gamma         0                0                0                0                
! Port Impedance         50               0                50               0                
32.9                           0.0816620432282792 73.4270409495874 0.994637030450146 -15.1719282188022 0.994637030450145 -15.1719282188021 0.0816619038754111 73.4276663358049 
! Gamma         0                0                0                0                
! Port Impedance         50               0                50               0                
33                             0.0818970371554635 73.3833847613139 0.994614775639842 -15.2176409369107 0.994614775639841 -15.2176409369106 0.0818968972404805 73.3840121964519 
! Gamma         0                0                0                0                
! Port Impedance         50               0                50               0                
33.1                           0.0821319359893765 73.3397207805855 0.994592478486581 -15.2633514836324 0.99459247848658 -15.2633514836324 0.0821317955121794 73.3403502652615 
! Gamma         0                0                0                0                
! Port Impedance         50               0                50               0                
33.2                           0.0823667394959781 73.2960491016408 0.994570139057491 -15.3090598565952 0.994570139057491 -15.3090598565951 0.0823665984564806 73.2966806364684 
! Gamma         0                0                0                0                
! Port Impedance         50               0                50               0                
33.3                           0.0826014474417057 73.2523698178069 0.994547757419846 -15.3547660534306 0.994547757419846 -15.3547660534305 0.0826013058398345 73.2530034033957 
! Gamma         0                0                0                0                
! Port Impedance         50               0                50               0                
33.4                           0.0828360595934733 73.2086830215073 0.99452533364106 -15.4004700717738 0.99452533364106 -15.4004700717737 0.082835917429168 73.2093186584628 
! Gamma         0                0                0                0                
! Port Impedance         50               0                50               0                
33.5                           0.083070575718671 73.1649888042692 0.994502867788691 -15.4461719092639 0.994502867788691 -15.4461719092638 0.083070432991884 73.1656264931926 
! Gamma         0                0                0                0                
! Port Impedance         50               0                50               0                
33.6                           0.0833049955851639 73.1212872567307 0.994480359930435 -15.4918715635435 0.994480359930435 -15.4918715635434 0.0833048522958604 73.1219269982194 
! Gamma         0                0                0                0                
! Port Impedance         50               0                50               0                
33.7                           0.0835393189612915 73.0775784686489 0.994457810134132 -15.5375690322587 0.994457810134132 -15.5375690322587 0.0835391751094496 73.0782202632956 
! Gamma         0                0                0                0                
! Port Impedance         50               0                50               0                
33.8                           0.0837735456158668 73.0338625289064 0.994435218467758 -15.5832643130591 0.994435218467758 -15.5832643130591 0.083773401201477 73.0345063772997 
! Gamma         0                0                0                0                
! Port Impedance         50               0                50               0                
33.9                           0.0840076753181749 72.9901395255193 0.994412584999429 -15.6289574035976 0.99441258499943 -15.6289574035976 0.0840075303412406 72.9907854282435 
! Gamma         0                0                0                0                
! Port Impedance         50               0                50               0                
34                             0.0842417078379723 72.9464095456441 0.994389909797403 -15.6746483015305 0.994389909797403 -15.6746483015305 0.0842415622985093 72.9470575032791 
! Gamma         0                0                0                0                
! Port Impedance         50               0                50               0                
34.1                           0.0844756429454856 72.9026726755852 0.994367192930071 -15.7203370045173 0.994367192930071 -15.7203370045172 0.0844754968435225 72.9033226887062 
! Gamma         0                0                0                0                
! Port Impedance         50               0                50               0                
34.2                           0.0847094804114106 72.8589290008016 0.994344434465964 -15.7660235102206 0.994344434465964 -15.7660235102205 0.0847093337469881 72.8595810699796 
! Gamma         0                0                0                0                
! Port Impedance         50               0                50               0                
34.3                           0.0849432200069105 72.8151786059147 0.994321634473751 -15.8117078163062 0.994321634473751 -15.8117078163062 0.084943072780082 72.8158327317158 
! Gamma         0                0                0                0                
! Port Impedance         50               0                50               0                
34.4                           0.0851768615036154 72.7714215747147 0.994298793022236 -15.8573899204431 0.994298793022236 -15.8573899204431 0.0851767137144466 72.7720777577007 
! Gamma         0                0                0                0                
! Port Impedance         50               0                50               0                
34.5                           0.0854104046736203 72.727657990168  0.994275910180361 -15.9030698203031 0.994275910180362 -15.9030698203031 0.0854102563221888 72.728316230896  
! Gamma         0                0                0                0                
! Port Impedance         50               0                50               0                
34.6                           0.0856438492894837 72.6838879344241 0.994252986017204 -15.9487475135611 0.994252986017204 -15.948747513561 0.0856437003758798 72.6845482334464 
! Gamma         0                0                0                0                
! Port Impedance         50               0                50               0                
34.7                           0.0858771951242267 72.6401114888225 0.994230020601979 -15.9944229978947 0.994230020601979 -15.9944229978946 0.0858770456485526 72.6407738466868 
! Gamma         0                0                0                0                
! Port Impedance         50               0                50               0                
34.8                           0.086110441951331 72.5963287338998 0.994207014004034 -16.0400962709846 0.994207014004035 -16.0400962709846 0.0861102919137011 72.5969931511489 
! Gamma         0                0                0                0                
! Port Impedance         50               0                50               0                
34.9                           0.0863435895447378 72.5525397493959 0.994183966292856 -16.0857673305143 0.994183966292856 -16.0857673305142 0.0863434389452782 72.5532062265679 
! Gamma         0                0                0                0                
! Port Impedance         50               0                50               0                
35                             0.0865766376788455 72.5087446142615 0.994160877538065 -16.1314361741698 0.994160877538065 -16.1314361741697 0.0865764865176945 72.5094131518896 
! Gamma         0                0                0                0                
! Port Impedance         50               0                50               0                
35.1                           0.0868095861285089 72.4649434066646 0.994137747809417 -16.1771027996401 0.994137747809417 -16.17710279964  0.0868094344058165 72.4656140052772 
! Gamma         0                0                0                0                
! Port Impedance         50               0                50               0                
35.2                           0.087042434669037 72.421136203997  0.994114577176804 -16.2227672046168 0.994114577176804 -16.2227672046167 0.0870422823849649 72.4218088641175 
! Gamma         0                0                0                0                
! Port Impedance         50               0                50               0                
35.3                           0.0872751830761914 72.3773230828809 0.994091365710253 -16.2684293867941 0.994091365710253 -16.2684293867941 0.0872750302309131 72.3779978050279 
! Gamma         0                0                0                0                
! Port Impedance         50               0                50               0                
35.4                           0.0875078311261845 72.333504119176  0.994068113479926 -16.314089343869 0.994068113479926 -16.3140893438689 0.087507677719885 72.3341809038629 
! Gamma         0                0                0                0                
! Port Impedance         50               0                50               0                
35.5                           0.087740378595678 72.2896793879854 0.99404482055612 -16.3597470735408 0.994044820556121 -16.3597470735407 0.0877402246285538 72.2903582357208 
! Gamma         0                0                0                0                
! Port Impedance         50               0                50               0                
35.6                           0.0879728252617805 72.2458489636626 0.994021487009269 -16.4054025735115 0.994021487009269 -16.4054025735114 0.0879726707340396 72.24652987495   
! Gamma         0                0                0                0                
! Port Impedance         50               0                50               0                
35.7                           0.0882051709020462 72.2020129198176 0.99399811290994 -16.4510558414856 0.993998112909941 -16.4510558414856 0.0882050158139078 72.2026958951554 
! Gamma         0                0                0                0                
! Port Impedance         50               0                50               0                
35.8                           0.0884374152944727 72.1581713293234 0.993974698328837 -16.4967068751703 0.993974698328838 -16.4967068751702 0.0884372596461672 72.1588563692049 
! Gamma         0                0                0                0                
! Port Impedance         50               0                50               0                
35.9                           0.088669558217499 72.1143242643224 0.993951243336801 -16.5423556722749 0.993951243336801 -16.5423556722748 0.0886694020092681 72.115011369236  
! Gamma         0                0                0                0                
! Port Impedance         50               0                50               0                
36                             0.0889015994500037 72.0704717962329 0.993927748004804 -16.5880022305114 0.993927748004805 -16.5880022305113 0.0889014426821001 72.0711609666616 
! Gamma         0                0                0                0                
! Port Impedance         50               0                50               0                
36.1                           0.0891335387713027 72.0266139957548 0.99390421240396 -16.6336465475941 0.993904212403961 -16.6336465475941 0.0891333814439901 72.0273052321766 
! Gamma         0                0                0                0                
! Port Impedance         50               0                50               0                
36.2                           0.0893653759611479 71.9827509328763 0.993880636605514 -16.6792886212399 0.993880636605515 -16.6792886212399 0.0893652180747007 71.983444235764  
! Gamma         0                0                0                0                
! Port Impedance         50               0                50               0                
36.3                           0.0895971107997239 71.9388826768802 0.993857020680851 -16.7249284491679 0.993857020680851 -16.7249284491678 0.0895969523544274 71.9395780467013 
! Gamma         0                0                0                0                
! Port Impedance         50               0                50               0                
36.4                           0.089828743067647 71.8950092963492 0.993833364701489 -16.7705660290996 0.993833364701489 -16.7705660290996 0.0898285840637971 71.8957067335662 
! Gamma         0                0                0                0                
! Port Impedance         50               0                50               0                
36.5                           0.0900602725459626 71.8511308591729 0.993809668739085 -16.816201358759 0.993809668739085 -16.816201358759 0.0900601129838657 71.8518303642429 
! Gamma         0                0                0                0                
! Port Impedance         50               0                50               0                
36.6                           0.090291699016143 71.8072474325533 0.993785932865433 -16.8618344358723 0.993785932865433 -16.8618344358723 0.0902915388961161 71.8079490059282 
! Gamma         0                0                0                0                
! Port Impedance         50               0                50               0                
36.7                           0.0905230222600854 71.763359083011  0.993762157152462 -16.9074652581681 0.993762157152463 -16.9074652581681 0.0905228615824558 71.7640627251375 
! Gamma         0                0                0                0                
! Port Impedance         50               0                50               0                
36.8                           0.0907542420601095 71.719465876391  0.993738341672242 -16.9530938233774 0.993738341672242 -16.9530938233774 0.0907540808252147 71.7201715877104 
! Gamma         0                0                0                0                
! Port Impedance         50               0                50               0                
36.9                           0.0909853581989554 71.6755678778687 0.993714486496976 -16.9987201292335 0.993714486496977 -16.9987201292334 0.090985196407143 71.676275658817  
! Gamma         0                0                0                0                
! Port Impedance         50               0                50               0                
37                             0.0912163704597813 71.6316651519555 0.993690591699009 -17.0443441734719 0.99369059169901 -17.0443441734718 0.0912162081114091 71.6323750029635 
! Gamma         0                0                0                0                
! Port Impedance         50               0                50               0                
37.1                           0.0914472786261612 71.587757762505  0.993666657350823 -17.0899659538305 0.993666657350824 -17.0899659538305 0.0914471157215966 71.5884696839983 
! Gamma         0                0                0                0                
! Port Impedance         50               0                50               0                
37.2                           0.0916780824820824 71.5438457727185 0.993642683525038 -17.1355854680497 0.993642683525039 -17.1355854680497 0.0916779190217031 71.5445597651172 
! Gamma         0                0                0                0                
! Port Impedance         50               0                50               0                
37.3                           0.0919087818119438 71.4999292451509 0.993618670294414 -17.181202713872 0.993618670294414 -17.1812027138719 0.0919086177961367 71.5006453088697 
! Gamma         0                0                0                0                
! Port Impedance         50               0                50               0                
37.4                           0.0921393764005525 71.4560082417158 0.993594617731848 -17.2268176890422 0.993594617731848 -17.2268176890422 0.0921392118297144 71.4567263771643 
! Gamma         0                0                0                0                
! Port Impedance         50               0                50               0                
37.5                           0.0923698660331227 71.4120828236921 0.993570525910379 -17.2724303913076 0.99357052591038 -17.2724303913076 0.0923697009076596 71.4128030312744 
! Gamma         0                0                0                0                
! Port Impedance         50               0                50               0                
37.6                           0.0926002504952721 71.3681530517286 0.993546394903186 -17.3180408184178 0.993546394903187 -17.3180408184178 0.0926000848155996 71.3688753318436 
! Gamma         0                0                0                0                
! Port Impedance         50               0                50               0                
37.7                           0.0928305295730202 71.3242189858503 0.993522224783587 -17.3636489681247 0.993522224783587 -17.3636489681247 0.0928303633395632 71.3249433388914 
! Gamma         0                0                0                0                
! Port Impedance         50               0                50               0                
37.8                           0.0930607030527858 71.2802806854634 0.99349801562504 -17.4092548381825 0.993498015625041 -17.4092548381824 0.093060536265978 71.2810071118186 
! Gamma         0                0                0                0                
! Port Impedance         50               0                50               0                
37.9                           0.0932907707213845 71.2363382093609 0.993473767501147 -17.4548584263478 0.993473767501147 -17.4548584263477 0.0932906033816686 71.2370667094131 
! Gamma         0                0                0                0                
! Port Impedance         50               0                50               0                
38                             0.0935207323660258 71.1923916157282 0.993449480485647 -17.5004597303796 0.993449480485648 -17.5004597303795 0.0935205644738537 71.1931221898547 
! Gamma         0                0                0                0                
! Port Impedance         50               0                50               0                
38.1                           0.0937505877743114 71.1484409621482 0.993425154652426 -17.5460587480392 0.993425154652427 -17.5460587480391 0.0937504193301436 71.1491736107211 
! Gamma         0                0                0                0                
! Port Impedance         50               0                50               0                
38.2                           0.0939803367342322 71.1044863056067 0.993400790075508 -17.5916554770904 0.993400790075509 -17.5916554770904 0.0939801677385377 71.1052210289927 
! Gamma         0                0                0                0                
! Port Impedance         50               0                50               0                
38.3                           0.0942099790341658 71.0605277024979 0.993376386829061 -17.6372499152995 0.993376386829062 -17.6372499152994 0.0942098094874221 71.0612645010582 
! Gamma         0                0                0                0                
! Port Impedance         50               0                50               0                
38.4                           0.0944395144628742 71.0165652086291 0.993351944987397 -17.6828420604349 0.993351944987397 -17.6828420604349 0.0944393443655673 71.0173040827199 
! Gamma         0                0                0                0                
! Port Impedance         50               0                50               0                
38.5                           0.094668942809501 70.9725988792268 0.993327464624969 -17.7284319102678 0.99332746462497 -17.7284319102677 0.0946687721621251 70.9733398291986 
! Gamma         0                0                0                0                
! Port Impedance         50               0                50               0                
38.6                           0.094898263863569 70.9286287689409 0.993302945816375 -17.7740194625716 0.993302945816376 -17.7740194625715 0.0948980926666265 70.929371795139  
! Gamma         0                0                0                0                
! Port Impedance         50               0                50               0                
38.7                           0.0951274774149778 70.8846549318503 0.993278388636358 -17.8196047151223 0.993278388636359 -17.8196047151223 0.0951273056689789 70.8854000346148 
! Gamma         0                0                0                0                
! Port Impedance         50               0                50               0                
38.8                           0.0953565832540007 70.8406774214682 0.993253793159805 -17.8651876656985 0.993253793159806 -17.8651876656985 0.0953564109594636 70.8414246011336 
! Gamma         0                0                0                0                
! Port Impedance         50               0                50               0                
38.9                           0.0955855811712827 70.7966962907466 0.993229159461746 -17.9107683120813 0.993229159461747 -17.9107683120812 0.0955854083287333 70.7974455476424 
! Gamma         0                0                0                0                
! Port Impedance         50               0                50               0                
39                             0.0958144709578376 70.7527115920818 0.99320448761736 -17.9563466520541 0.993204487617361 -17.9563466520541 0.0958142975678093 70.753462926532  
! Gamma         0                0                0                0                
! Port Impedance         50               0                50               0                
39.1                           0.0960432524050454 70.708723377319  0.993179777701968 -18.0019226834032 0.993179777701969 -18.0019226834032 0.0960430784680791 70.7094767896424 
! Gamma         0                0                0                0                
! Port Impedance         50               0                50               0                
39.2                           0.0962719253046495 70.6647316977575 0.993155029791039 -18.0474964039174 0.99315502979104 -18.0474964039174 0.0962717508212937 70.6654871882673 
! Gamma         0                0                0                0                
! Port Impedance         50               0                50               0                
39.3                           0.0965004894487548 70.6207366041552 0.993130243960188 -18.0930678113881 0.993130243960189 -18.0930678113881 0.0965003144195647 70.6214941731598 
! Gamma         0                0                0                0                
! Port Impedance         50               0                50               0                
39.4                           0.096728944629824 70.576738146734  0.993105420285179 -18.1386369036094 0.99310542028518 -18.1386369036093 0.0967287690553622 70.5774977945363 
! Gamma         0                0                0                0                
! Port Impedance         50               0                50               0                
39.5                           0.0969572906406758 70.5327363751842 0.99308055884192 -18.184203678378 0.993080558841921 -18.1842036783779 0.0969571145215117 70.5334981020818 
! Gamma         0                0                0                0                
! Port Impedance         50               0                50               0                
39.6                           0.0971855272744819 70.4887313386693 0.993055659706469 -18.2297681334935 0.99305565970647 -18.2297681334934 0.0971853506111917 70.4894951449548 
! Gamma         0                0                0                0                
! Port Impedance         50               0                50               0                
39.7                           0.0974136543247642 70.444723085831  0.993030722955031 -18.2753302667581 0.993030722955032 -18.2753302667581 0.0974134771179308 70.4454889717915 
! Gamma         0                0                0                0                
! Port Impedance         50               0                50               0                
39.8                           0.0976416715853925 70.4007116647936 0.99300574866396 -18.3208900759769 0.993005748663961 -18.3208900759769 0.0976414938356052 70.4014796307111 
! Gamma         0                0                0                0                
! Port Impedance         50               0                50               0                
39.9                           0.0978695788505816 70.3566971231688 0.992980736909759 -18.3664475589577 0.99298073690976 -18.3664475589577 0.097869400558436 70.3574671693201 
! Gamma         0                0                0                0                
! Port Impedance         50               0                50               0                
40                             0.0980973759148885 70.3126795080602 0.99295568776908 -18.4120027135114 0.992955687769081 -18.4120027135113 0.0980971970809867 70.3134516347172 
! Gamma         0                0                0                0                
! Port Impedance         50               0                50               0                
40.1                           0.0983250625732101 70.2686588660683 0.992930601318725 -18.4575555374514 0.992930601318726 -18.4575555374514 0.0983248831981599 70.2694330734972 
! Gamma         0                0                0                0                
! Port Impedance         50               0                50               0                
40.2                           0.0985526386207799 70.2246352432943 0.992905477635645 -18.5031060285944 0.992905477635646 -18.5031060285944 0.0985524587051954 70.2254115317567 
! Gamma         0                0                0                0                
! Port Impedance         50               0                50               0                
40.3                           0.098780103853166 70.1806086853454 0.992880316796944 -18.5486541847598 0.992880316796945 -18.5486541847598 0.0987799233976669 70.1813870550976 
! Gamma         0                0                0                0                
! Port Impedance         50               0                50               0                
40.4                           0.099007458066268 70.1365792373388 0.992855118879873 -18.5942000037703 0.992855118879874 -18.5942000037703 0.0990072770714795 70.1373596886319 
! Gamma         0                0                0                0                
! Port Impedance         50               0                50               0                
40.5                           0.0992347010563141 70.0925469439063 0.992829883961837 -18.6397434834513 0.992829883961838 -18.6397434834513 0.0992345195228673 70.0933294769865 
! Gamma         0                0                0                0                
! Port Impedance         50               0                50               0                
40.6                           0.0994618326198589 70.0485118491986 0.992804612120393 -18.6852846216316 0.992804612120394 -18.6852846216315 0.0994616505483899 70.049296464307  
! Gamma         0                0                0                0                
! Port Impedance         50               0                50               0                
40.7                           0.0996888525537802 70.0044739968899 0.992779303433247 -18.7308234161428 0.992779303433248 -18.7308234161428 0.0996886699449305 70.0052606942626 
! Gamma         0                0                0                0                
! Port Impedance         50               0                50               0                
40.8                           0.0999157606552768 69.9604334301821 0.992753957978259 -18.77635986482  0.99275395797826 -18.7763598648199 0.0999155775096929 69.9612222100501 
! Gamma         0                0                0                0                
! Port Impedance         50               0                50               0                
40.9                           0.100142556721865 69.9163901918089 0.992728575833443 -18.8218939655012 0.992728575833444 -18.8218939655012 0.100142373040198 69.9171810543983 
! Gamma         0                0                0                0                
! Port Impedance         50               0                50               0                
41                             0.100369240551377 69.8723443240405 0.992703157076963 -18.8674257160279 0.992703157076964 -18.8674257160279 0.100369056334284 69.8731372695725 
! Gamma         0                0                0                0                
! Port Impedance         50               0                50               0                
41.1                           0.100595811941957 69.8282958686874 0.992677701787139 -18.9129551142449 0.99267770178714 -18.9129551142449 0.100595627190098 69.8290908973783 
! Gamma         0                0                0                0                
! Port Impedance         50               0                50               0                
41.2                           0.10082227069206 69.7842448671052 0.992652210042442 -18.958482158    0.992652210042443 -18.958482158    0.1008220854061  69.7850419791662 
! Gamma         0                0                0                0                
! Port Impedance         50               0                50               0                
41.3                           0.101048616600445 69.7401913601979 0.992626681921499 -19.0040068451448 0.9926266819215  -19.0040068451448 0.101048430781055 69.7409905558357 
! Gamma         0                0                0                0                
! Port Impedance         50               0                50               0                
41.4                           0.10127484946618 69.6961353884228 0.992601117503091 -19.0495291735341 0.992601117503092 -19.0495291735341 0.101274663114032 69.6969366678391 
! Gamma         0                0                0                0                
! Port Impedance         50               0                50               0                
41.5                           0.101500969088631 69.6520769917945 0.992575516866152 -19.0950491410262 0.992575516866153 -19.0950491410262 0.101500782204404 69.6528803551859 
! Gamma         0                0                0                0                
! Port Impedance         50               0                50               0                
41.6                           0.101726975267464 69.6080162098884 0.992549880089774 -19.140566745483 0.992549880089775 -19.140566745483 0.10172678785184 69.6088216574472 
! Gamma         0                0                0                0                
! Port Impedance         50               0                50               0                
41.7                           0.101952867802642 69.5639530818455 0.9925242072532  -19.1860819847699 0.992524207253201 -19.1860819847699 0.101952679856305 69.564760613759  
! Gamma         0                0                0                0                
! Port Impedance         50               0                50               0                
41.8                           0.10217864649442 69.5198876463759 0.992498498435832 -19.2315948567559 0.992498498435833 -19.2315948567559 0.10217845801806 69.5206972628267 
! Gamma         0                0                0                0                
! Port Impedance         50               0                50               0                
41.9                           0.102404311143344 69.475819941763  0.992472753717227 -19.2771053593139 0.992472753717228 -19.2771053593138 0.102404122137653 69.476631642929  
! Gamma         0                0                0                0                
! Port Impedance         50               0                50               0                
42                             0.102629861550249 69.4317500058673 0.992446973177096 -19.3226134903201 0.992446973177097 -19.32261349032  0.102629672015923 69.432563791922  
! Gamma         0                0                0                0                
! Port Impedance         50               0                50               0                
42.1                           0.102855297516255 69.3876778761305 0.992421156895309 -19.3681192476548 0.992421156895311 -19.3681192476548 0.102855107453992 69.3884937472424 
! Gamma         0                0                0                0                
! Port Impedance         50               0                50               0                
42.2                           0.103080618842762 69.3436035895793 0.992395304951892 -19.413622629202 0.992395304951894 -19.413622629202 0.103080428253265 69.3444215459127 
! Gamma         0                0                0                0                
! Port Impedance         50               0                50               0                
42.3                           0.103305825331454 69.2995271828292 0.992369417427027 -19.4591236328496 0.992369417427029 -19.4591236328496 0.103305634215426 69.3003472245435 
! Gamma         0                0                0                0                
! Port Impedance         50               0                50               0                
42.4                           0.103530916784288 69.2554486920883 0.992343494401054 -19.5046222564895 0.992343494401055 -19.5046222564894 0.103530725142438 69.2562708193388 
! Gamma         0                0                0                0                
! Port Impedance         50               0                50               0                
42.5                           0.103755893003498 69.2113681531615 0.992317535954468 -19.5501184980173 0.99231753595447 -19.5501184980173 0.103755700836534 69.2121923660986 
! Gamma         0                0                0                0                
! Port Impedance         50               0                50               0                
42.6                           0.103980753791589 69.1672856014535 0.992291542167926 -19.595612355333 0.992291542167928 -19.5956123553329 0.103980561100224 69.1681119002234 
! Gamma         0                0                0                0                
! Port Impedance         50               0                50               0                
42.7                           0.104205498951334 69.1232010719732 0.99226551312224 -19.6411038263403 0.992265513122241 -19.6411038263403 0.104205305736282 69.1240294567178 
! Gamma         0                0                0                0                
! Port Impedance         50               0                50               0                
42.8                           0.104430128285773 69.0791145993372 0.992239448898379 -19.6865929089474 0.99223944889838 -19.6865929089474 0.104429934547751 69.0799450701938 
! Gamma         0                0                0                0                
! Port Impedance         50               0                50               0                
42.9                           0.10465464159821 69.0350262177734 0.992213349577473 -19.7320796010664 0.992213349577474 -19.7320796010664 0.104654447337935 69.0358587748752 
! Gamma         0                0                0                0                
! Port Impedance         50               0                50               0                
43                             0.104879038692208 68.9909359611248 0.992187215240809 -19.7775639006138 0.992187215240811 -19.7775639006138 0.1048788439104  68.9917706046004 
! Gamma         0                0                0                0                
! Port Impedance         50               0                50               0                
43.1                           0.10510331937159 68.9468438628528 0.992161045969834 -19.8230458055103 0.992161045969835 -19.8230458055103 0.10510312406897 68.947680592827  
! Gamma         0                0                0                0                
! Port Impedance         50               0                50               0                
43.2                           0.105327483440432 68.9027499560413 0.992134841846151 -19.868525313681 0.992134841846153 -19.868525313681 0.105327287617725 68.9035887726344 
! Gamma         0                0                0                0                
! Port Impedance         50               0                50               0                
43.3                           0.105551530703066 68.8586542733999 0.992108602951526 -19.9140024230554 0.992108602951528 -19.9140024230554 0.105551334360994 68.859495176728  
! Gamma         0                0                0                0                
! Port Impedance         50               0                50               0                
43.4                           0.105775460964071 68.8145568472675 0.992082329367882 -19.9594771315675 0.992082329367883 -19.9594771315675 0.105775264103359 68.8153998374427 
! Gamma         0                0                0                0                
! Port Impedance         50               0                50               0                
43.5                           0.105999274028274 68.7704577096158 0.9920560211773  -20.0049494371558 0.992056021177301 -20.0049494371558 0.10599907664965 68.7713027867462 
! Gamma         0                0                0                0                
! Port Impedance         50               0                50               0                
43.6                           0.106222969700747 68.7263568920528 0.992029678462024 -20.0504193377632 0.992029678462025 -20.0504193377632 0.106222771804937 68.7272040562424 
! Gamma         0                0                0                0                
! Port Impedance         50               0                50               0                
43.7                           0.106446547786805 68.6822544258266 0.992003301304456 -20.0958868313375 0.992003301304457 -20.0958868313375 0.106446349374537 68.6831036771753 
! Gamma         0                0                0                0                
! Port Impedance         50               0                50               0                
43.8                           0.106670008092   68.638150341828  0.991976889787158 -20.1413519158311 0.991976889787159 -20.1413519158311 0.106669809164001 68.6390016804319 
! Gamma         0                0                0                0                
! Port Impedance         50               0                50               0                
43.9                           0.106893350422122 68.5940446705948 0.991950443992851 -20.1868145892009 0.991950443992853 -20.1868145892009 0.106893150979122 68.5948980965461 
! Gamma         0                0                0                0                
! Port Impedance         50               0                50               0                
44                             0.107116574583195 68.5499374423147 0.991923964004419 -20.2322748494091 0.991923964004421 -20.2322748494091 0.107116374625921 68.5507929557016 
! Gamma         0                0                0                0                
! Port Impedance         50               0                50               0                
44.1                           0.107339680381473 68.5058286868287 0.991897449904904 -20.2777326944223 0.991897449904905 -20.2777326944223 0.107339479910655 68.5066862877357 
! Gamma         0                0                0                0                
! Port Impedance         50               0                50               0                
44.2                           0.10756266762344 68.4617184336345 0.991870901777508 -20.3231881222121 0.991870901777509 -20.3231881222121 0.107562466639806 68.4625781221423 
! Gamma         0                0                0                0                
! Port Impedance         50               0                50               0                
44.3                           0.107785536115806 68.4176067118897 0.991844319705595 -20.3686411307554 0.991844319705597 -20.3686411307554 0.107785334620083 68.4184684880753 
! Gamma         0                0                0                0                
! Port Impedance         50               0                50               0                
44.4                           0.108008285665502 68.3734935504152 0.99181770377269 -20.4140917180337 0.991817703772692 -20.4140917180337 0.10800808365842 68.3743574143519 
! Gamma         0                0                0                0                
! Port Impedance         50               0                50               0                
44.5                           0.108230916079684 68.3293789776984 0.991791054062477 -20.4595398820339 0.991791054062479 -20.459539882034 0.108230713561968 68.3302449294559 
! Gamma         0                0                0                0                
! Port Impedance         50               0                50               0                
44.6                           0.108453427165721 68.2852630218965 0.991764370658802 -20.504985620748 0.991764370658804 -20.504985620748 0.108453224138099 68.2861310615409 
! Gamma         0                0                0                0                
! Port Impedance         50               0                50               0                
44.7                           0.108675818731202 68.2411457108393 0.991737653645672 -20.550428932173 0.991737653645673 -20.550428932173 0.108675615194398 68.2420158384332 
! Gamma         0                0                0                0                
! Port Impedance         50               0                50               0                
44.8                           0.108898090583925 68.1970270720332 0.991710903107253 -20.5958698143113 0.991710903107255 -20.5958698143113 0.108897886538665 68.1978992876357 
! Gamma         0                0                0                0                
! Port Impedance         50               0                50               0                
44.9                           0.109120242531902 68.1529071326633 0.991684119127875 -20.6413082651709 0.991684119127877 -20.6413082651709 0.109120037978908 68.15378143633   
! Gamma         0                0                0                0                
! Port Impedance         50               0                50               0                
45                             0.10934227438335 68.1087859195974 0.991657301792027 -20.6867442827647 0.991657301792028 -20.6867442827647 0.109342069323344 68.1096623113807 
! Gamma         0                0                0                0                
! Port Impedance         50               0                50               0                
45.1                           0.109564185946692 68.0646634593888 0.99163045118436 -20.7321778651114 0.991630451184361 -20.7321778651114 0.109563980380394 68.0655419393376 
! Gamma         0                0                0                0                
! Port Impedance         50               0                50               0                
45.2                           0.109785977030552 68.0205397782791 0.991603567389684 -20.7776090102351 0.991603567389686 -20.7776090102351 0.109785770958682 68.0214203464391 
! Gamma         0                0                0                0                
! Port Impedance         50               0                50               0                
45.3                           0.110007647443757 67.9764149022018 0.991576650492974 -20.8230377161655 0.991576650492976 -20.8230377161655 0.110007440867031 67.9772975586154 
! Gamma         0                0                0                0                
! Port Impedance         50               0                50               0                
45.4                           0.110229196995329 67.9322888567848 0.991549700579363 -20.8684639809379 0.991549700579365 -20.8684639809379 0.110228989914462 67.9331736014913 
! Gamma         0                0                0                0                
! Port Impedance         50               0                50               0                
45.5                           0.110450625494485 67.8881616673538 0.991522717734147 -20.9138878025932 0.991522717734148 -20.9138878025932 0.110450417910189 67.8890485003893 
! Gamma         0                0                0                0                
! Port Impedance         50               0                50               0                
45.6                           0.110671932750635 67.844033358935  0.991495702042781 -20.9593091791782 0.991495702042783 -20.9593091791782 0.110671724663621 67.8449222803327 
! Gamma         0                0                0                0                
! Port Impedance         50               0                50               0                
45.7                           0.110893118573378 67.7999039562585 0.991468653590884 -21.0047281087455 0.991468653590885 -21.0047281087455 0.110892909984354 67.8007949660483 
! Gamma         0                0                0                0                
! Port Impedance         50               0                50               0                
45.8                           0.111114182772501 67.7557734837606 0.991441572464234 -21.0501445893535 0.991441572464235 -21.0501445893535 0.111113973682171 67.7566665819696 
! Gamma         0                0                0                0                
! Port Impedance         50               0                50               0                
45.9                           0.111335125157975 67.7116419655872 0.99141445874877 -21.0955586190665 0.991414458748771 -21.0955586190665 0.111334915567042 67.7125371522396 
! Gamma         0                0                0                0                
! Port Impedance         50               0                50               0                
46                             0.111555945539952 67.6675094255966 0.991387312530595 -21.140970195955 0.991387312530596 -21.140970195955 0.111555735449117 67.6684067007136 
! Gamma         0                0                0                0                
! Port Impedance         50               0                50               0                
46.1                           0.111776643728767 67.6233758873623 0.991360133895969 -21.1863793180952 0.99136013389597 -21.1863793180952 0.111776433138725 67.6242752509625 
! Gamma         0                0                0                0                
! Port Impedance         50               0                50               0                
46.2                           0.111997219534928 67.5792413741759 0.991332922931315 -21.2317859835698 0.991332922931317 -21.2317859835698 0.111997008446374 67.5801428262751 
! Gamma         0                0                0                0                
! Port Impedance         50               0                50               0                
46.3                           0.112217672769121 67.5351059090499 0.991305679723219 -21.2771901904675 0.99130567972322 -21.2771901904675 0.112217461182745 67.5360094496611 
! Gamma         0                0                0                0                
! Port Impedance         50               0                50               0                
46.4                           0.112438003242203 67.4909695147207 0.991278404358424 -21.3225919368831 0.991278404358425 -21.3225919368831 0.11243779115869 67.4918751438542 
! Gamma         0                0                0                0                
! Port Impedance         50               0                50               0                
46.5                           0.1126582107652  67.446832213651  0.991251096923836 -21.3679912209179 0.991251096923837 -21.3679912209179 0.112657998185234 67.4477399313147 
! Gamma         0                0                0                0                
! Port Impedance         50               0                50               0                
46.6                           0.112878295149306 67.402694028033  0.991223757506522 -21.4133880406795 0.991223757506523 -21.4133880406795 0.112878082073566 67.4036038342321 
! Gamma         0                0                0                0                
! Port Impedance         50               0                50               0                
46.7                           0.11309825620588 67.3585549797906 0.991196386193708 -21.4587823942819 0.991196386193709 -21.4587823942819 0.113098042635041 67.359466874528  
! Gamma         0                0                0                0                
! Port Impedance         50               0                50               0                
46.8                           0.113318093746442 67.314415090583  0.991168983072783 -21.5041742798456 0.991168983072784 -21.5041742798456 0.113317879681176 67.3153290738591 
! Gamma         0                0                0                0                
! Port Impedance         50               0                50               0                
46.9                           0.113537807582674 67.2702743818065 0.991141548231294 -21.5495636954977 0.991141548231295 -21.5495636954977 0.113537593023647 67.2711904536192 
! Gamma         0                0                0                0                
! Port Impedance         50               0                50               0                
47                             0.113757397526414 67.2261328745976 0.99111408175695 -21.5949506393717 0.991114081756951 -21.5949506393717 0.113757182474289 67.2270510349428 
! Gamma         0                0                0                0                
! Port Impedance         50               0                50               0                
47.1                           0.113976863389655 67.1819905898359 0.991086583737619 -21.640335109608 0.99108658373762 -21.640335109608 0.11397664784509 67.182910838707  
! Gamma         0                0                0                0                
! Port Impedance         50               0                50               0                
47.2                           0.114196204984545 67.1378475481461 0.99105905426133 -21.6857171043536 0.991059054261331 -21.6857171043537 0.114195988948193 67.1387698855345 
! Gamma         0                0                0                0                
! Port Impedance         50               0                50               0                
47.3                           0.11441542212338 67.0937037699014 0.991031493416272 -21.7310966217624 0.991031493416274 -21.7310966217624 0.11441520559589 67.0946281957962 
! Gamma         0                0                0                0                
! Port Impedance         50               0                50               0                
47.4                           0.114634514618604 67.0495592752255 0.991003901290794 -21.7764736599949 0.991003901290795 -21.7764736599949 0.114634297600619 67.0504857896138 
! Gamma         0                0                0                0                
! Port Impedance         50               0                50               0                
47.5                           0.114853482282808 67.0054140839955 0.990976277973403 -21.8218482172188 0.990976277973405 -21.8218482172188 0.114853264774967 67.0063426868623 
! Gamma         0                0                0                0                
! Port Impedance         50               0                50               0                
47.6                           0.115072324928725 66.9612682158443 0.990948623552769 -21.8672202916086 0.99094862355277 -21.8672202916086 0.115072106931661 66.9621989071729 
! Gamma         0                0                0                0                
! Port Impedance         50               0                50               0                
47.7                           0.11529104236923 66.9171216901633 0.990920938117717 -21.9125898813458 0.990920938117718 -21.9125898813459 0.11529082388357 66.9180544699349 
! Gamma         0                0                0                0                
! Port Impedance         50               0                50               0                
47.8                           0.115509634417335 66.8729745261049 0.990893221757234 -21.9579569846192 0.990893221757235 -21.9579569846192 0.115509415443702 66.8739093942989 
! Gamma         0                0                0                0                
! Port Impedance         50               0                50               0                
47.9                           0.11572810088619 66.828826742585  0.990865474560466 -22.0033215996245 0.990865474560467 -22.0033215996245 0.115727881425201 66.829763699179  
! Gamma         0                0                0                0                
! Port Impedance         50               0                50               0                
48                             0.115946441589078 66.7846783582853 0.990837696616717 -22.0486837245648 0.990837696616718 -22.0486837245648 0.115946221641344 66.7856174032553 
! Gamma         0                0                0                0                
! Port Impedance         50               0                50               0                
48.1                           0.116164656339414 66.7405293916562 0.990809888015449 -22.0940433576503 0.990809888015451 -22.0940433576503 0.11616443590554 66.7414705249764 
! Gamma         0                0                0                0                
! Port Impedance         50               0                50               0                
48.2                           0.116382744950743 66.6963798609188 0.990782048846285 -22.1394004970987 0.990782048846287 -22.1394004970987 0.116382524031326 66.697323082562  
! Gamma         0                0                0                0                
! Port Impedance         50               0                50               0                
48.3                           0.116600707236735 66.6522297840677 0.990754179199004 -22.1847551411349 0.990754179199006 -22.184755141135 0.116600485832369 66.6531750940051 
! Gamma         0                0                0                0                
! Port Impedance         50               0                50               0                
48.4                           0.116818543011186 66.6080791788733 0.990726279163544 -22.2301072879916 0.990726279163545 -22.2301072879916 0.116818321122458 66.6090265770745 
! Gamma         0                0                0                0                
! Port Impedance         50               0                50               0                
48.5                           0.117036252088016 66.5639280628841 0.990698348829999 -22.2754569359087 0.990698348830001 -22.2754569359087 0.117036029715505 66.5648775493173 
! Gamma         0                0                0                0                
! Port Impedance         50               0                50               0                
48.6                           0.117253834281263 66.5197764534291 0.990670388288624 -22.3208040831336 0.990670388288626 -22.3208040831337 0.117253611425543 66.5207280280614 
! Gamma         0                0                0                0                
! Port Impedance         50               0                50               0                
48.7                           0.117471289405085 66.4756243676204 0.990642397629829 -22.3661487279217 0.99064239762983 -22.3661487279218 0.117471066066722 66.4765780304175 
! Gamma         0                0                0                0                
! Port Impedance         50               0                50               0                
48.8                           0.117688617273755 66.4314718223554 0.990614376944181 -22.4114908685359 0.990614376944182 -22.4114908685359 0.117688393453308 66.4324275732817 
! Gamma         0                0                0                0                
! Port Impedance         50               0                50               0                
48.9                           0.117905817701659 66.387318834319  0.990586326322404 -22.4568305032466 0.990586326322406 -22.4568305032467 0.117905593399681 66.3882766733378 
! Gamma         0                0                0                0                
! Port Impedance         50               0                50               0                
49                             0.118122890503297 66.3431654199861 0.990558245855381 -22.5021676303326 0.990558245855382 -22.5021676303326 0.118122665720333 66.3441253470595 
! Gamma         0                0                0                0                
! Port Impedance         50               0                50               0                
49.1                           0.118339835493275 66.299011595624  0.990530135634148 -22.54750224808  0.99053013563415 -22.54750224808  0.118339610229864 66.2999736107132 
! Gamma         0                0                0                0                
! Port Impedance         50               0                50               0                
49.2                           0.118556652486308 66.2548573772942 0.9905019957499  -22.5928343547831 0.990501995749901 -22.5928343547831 0.118556426742981 66.2558214803594 
! Gamma         0                0                0                0                
! Port Impedance         50               0                50               0                
49.3                           0.118773341297217 66.2107027808553 0.990473826293984 -22.6381639487442 0.990473826293986 -22.6381639487442 0.118773115074496 66.2116689718558 
! Gamma         0                0                0                0                
! Port Impedance         50               0                50               0                
49.4                           0.118989901740924 66.1665478219649 0.990445627357908 -22.6834910282735 0.990445627357909 -22.6834910282736 0.118989675039325 66.1675161008591 
! Gamma         0                0                0                0                
! Port Impedance         50               0                50               0                
49.5                           0.119206333632452 66.1223925160818 0.990417399033329 -22.7288155916896 0.990417399033331 -22.7288155916897 0.119206106452483 66.1233628828274 
! Gamma         0                0                0                0                
! Port Impedance         50               0                50               0                
49.6                           0.119422636786925 66.0782368784684 0.990389141412066 -22.774137637319 0.990389141412067 -22.7741376373191 0.119422409129086 66.0792093330224 
! Gamma         0                0                0                0                
! Port Impedance         50               0                50               0                
49.7                           0.119638811019559 66.0340809241928 0.990360854586086 -22.8194571634966 0.990360854586087 -22.8194571634966 0.119638582884342 66.0350554665115 
! Gamma         0                0                0                0                
! Port Impedance         50               0                50               0                
49.8                           0.11985485614567 65.989924668131  0.990332538647514 -22.8647741685653 0.990332538647515 -22.8647741685653 0.119854627533557 65.99090129817   
! Gamma         0                0                0                0                
! Port Impedance         50               0                50               0                
49.9                           0.120070771980661 65.945768124969  0.990304193688629 -22.9100886508767 0.990304193688631 -22.9100886508767 0.120070542892129 65.9467468426836 
! Gamma         0                0                0                0                
! Port Impedance         50               0                50               0                
50                             0.120286558340029 65.9016113092052 0.990275819801863 -22.9554006087906 0.990275819801864 -22.9554006087906 0.120286328775546 65.9025921145501 
! Gamma         0                0                0                0                
! Port Impedance         50               0                50               0                
50.1                           0.120502215039358 65.8574542351523 0.990247417079801 -23.0007100406753 0.990247417079803 -23.0007100406754 0.120501984999381 65.8584371280818 
! Gamma         0                0                0                0                
! Port Impedance         50               0                50               0                
50.2                           0.120717741894319 65.8132969169394 0.990218985615183 -23.0460169449077 0.990218985615184 -23.0460169449077 0.120717511379298 65.8142818974075 
! Gamma         0                0                0                0                
! Port Impedance         50               0                50               0                
50.3                           0.120933138720666 65.7691393685142 0.990190525500898 -23.0913213198732 0.9901905255009  -23.0913213198732 0.120932907731042 65.7701264364748 
! Gamma         0                0                0                0                
! Port Impedance         50               0                50               0                
50.4                           0.121148405334235 65.7249816036454 0.990162036829993 -23.1366231639657 0.990162036829994 -23.1366231639657 0.12114817387044 65.7259707590519 
! Gamma         0                0                0                0                
! Port Impedance         50               0                50               0                
50.5                           0.121363541550943 65.6808236359241 0.990133519695662 -23.1819224755881 0.990133519695663 -23.1819224755881 0.121363309613402 65.6818148787299 
! Gamma         0                0                0                0                
! Port Impedance         50               0                50               0                
50.6                           0.121578547186787 65.6366654787665 0.990104974191253 -23.2272192531518 0.990104974191254 -23.2272192531518 0.121578314775912 65.637658808925  
! Gamma         0                0                0                0                
! Port Impedance         50               0                50               0                
50.7                           0.121793422057836 65.5925071454156 0.990076400410266 -23.2725134950771 0.990076400410267 -23.2725134950772 0.121793189174033 65.5935025628801 
! Gamma         0                0                0                0                
! Port Impedance         50               0                50               0                
50.8                           0.122008165980237 65.5483486489433 0.990047798446349 -23.3178051997932 0.990047798446351 -23.3178051997932 0.122007932623902 65.5493461536673 
! Gamma         0                0                0                0                
! Port Impedance         50               0                50               0                
50.9                           0.122222778770208 65.5041900022527 0.990019168393306 -23.3630943657381 0.990019168393307 -23.3630943657382 0.122222544941727 65.5051895941896 
! Gamma         0                0                0                0                
! Port Impedance         50               0                50               0                
51                             0.122437260244037 65.4600312180795 0.989990510345085 -23.408380991359 0.989990510345086 -23.408380991359 0.122437025943786 65.4610328971831 
! Gamma         0                0                0                0                
! Port Impedance         50               0                50               0                
51.1                           0.122651610218081 65.4158723089945 0.989961824395788 -23.4536650751117 0.98996182439579 -23.4536650751118 0.122651375446428 65.4168760752188 
! Gamma         0                0                0                0                
! Port Impedance         50               0                50               0                
51.2                           0.122865828508764 65.3717132874057 0.989933110639667 -23.4989466154617 0.989933110639668 -23.4989466154617 0.122865593266066 65.3727191407049 
! Gamma         0                0                0                0                
! Port Impedance         50               0                50               0                
51.3                           0.123079914932575 65.3275541655595 0.989904369171119 -23.5442256108831 0.98990436917112 -23.5442256108831 0.123079679219179 65.3285621058884 
! Gamma         0                0                0                0                
! Port Impedance         50               0                50               0                
51.4                           0.123293869306063 65.2833949555435 0.989875600084695 -23.5895020598595 0.989875600084696 -23.5895020598595 0.123293633122307 65.2844049828572 
! Gamma         0                0                0                0                
! Port Impedance         50               0                50               0                
51.5                           0.123507691445842 65.2392356692881 0.989846803475089 -23.6347759608836 0.989846803475091 -23.6347759608836 0.123507454792053 65.2402477835423 
! Gamma         0                0                0                0                
! Port Impedance         50               0                50               0                
51.6                           0.123721381168583 65.1950763185682 0.989817979437148 -23.6800473124576 0.989817979437149 -23.6800473124576 0.123721144045079 65.1960905197191 
! Gamma         0                0                0                0                
! Port Impedance         50               0                50               0                
51.7                           0.123934938291014 65.1509169150055 0.989789128065863 -23.7253161130929 0.989789128065864 -23.7253161130929 0.123934700698101 65.15193320301   
! Gamma         0                0                0                0                
! Port Impedance         50               0                50               0                
51.8                           0.12414836262992 65.10675747007   0.989760249456373 -23.7705823613104 0.989760249456374 -23.7705823613104 0.124148124567895 65.1077758448858 
! Gamma         0                0                0                0                
! Port Impedance         50               0                50               0                
51.9                           0.124361654002138 65.0625979950823 0.989731343703964 -23.8158460556404 0.989731343703966 -23.8158460556404 0.124361415471287 65.0636184566678 
! Gamma         0                0                0                0                
! Port Impedance         50               0                50               0                
52                             0.124574812224558 65.0184385012152 0.989702410904069 -23.8611071946229 0.98970241090407 -23.8611071946229 0.124574573225157 65.0194610495297 
! Gamma         0                0                0                0                
! Port Impedance         50               0                50               0                
52.1                           0.124787837114121 64.9742789994956 0.989673451152265 -23.9063657768072 0.989673451152267 -23.9063657768073 0.124787597646434 64.9753036344992 
! Gamma         0                0                0                0                
! Port Impedance         50               0                50               0                
52.2                           0.125000728487813 64.9301195008063 0.989644464544277 -23.9516218007526 0.989644464544278 -23.9516218007526 0.125000488552095 64.9311462224603 
! Gamma         0                0                0                0                
! Port Impedance         50               0                50               0                
52.3                           0.125213486162671 64.8859600158881 0.989615451175971 -23.9968752650278 0.989615451175972 -23.9968752650278 0.125213245759165 64.8869888241547 
! Gamma         0                0                0                0                
! Port Impedance         50               0                50               0                
52.4                           0.125426109955774 64.8418005553412 0.989586411143362 -24.0421261682114 0.989586411143363 -24.0421261682114 0.125425869084712 64.8428314501836 
! Gamma         0                0                0                0                
! Port Impedance         50               0                50               0                
52.5                           0.125638599684245 64.7976411296272 0.989557344542605 -24.0873745088917 0.989557344542606 -24.0873745088917 0.125638358345848 64.7986741110101 
! Gamma         0                0                0                0                
! Port Impedance         50               0                50               0                
52.6                           0.125850955165248 64.7534817490711 0.989528251470003 -24.132620285667 0.989528251470004 -24.132620285667 0.125850713359727 64.7545168169602 
! Gamma         0                0                0                0                
! Port Impedance         50               0                50               0                
52.7                           0.126063176215988 64.7093224238626 0.989499132021997 -24.1778634971453 0.989499132021998 -24.1778634971454 0.126062933943542 64.7103595782251 
! Gamma         0                0                0                0                
! Port Impedance         50               0                50               0                
52.8                           0.126275262653708 64.6651631640584 0.989469986295176 -24.2231041419449 0.989469986295177 -24.2231041419449 0.126275019914524 64.6662024048627 
! Gamma         0                0                0                0                
! Port Impedance         50               0                50               0                
52.9                           0.126487214295686 64.6210039795837 0.989440814386266 -24.2683422186936 0.989440814386268 -24.2683422186937 0.126486971089941 64.6220453067997 
! Gamma         0                0                0                0                
! Port Impedance         50               0                50               0                
53                             0.126699030959235 64.5768448802337 0.98941161639214 -24.3135777260298 0.989411616392141 -24.3135777260298 0.126698787287094 64.5778882938329 
! Gamma         0                0                0                0                
! Port Impedance         50               0                50               0                
53.1                           0.126910712461704 64.5326858756757 0.989382392409809 -24.3588106626017 0.98938239240981 -24.3588106626017 0.12691046832332 64.5337313756312 
! Gamma         0                0                0                0                
! Port Impedance         50               0                50               0                
53.2                           0.127122258620471 64.4885269754509 0.989353142536424 -24.4040410270677 0.989353142536425 -24.4040410270677 0.127122014015986 64.4895745617372 
! Gamma         0                0                0                0                
! Port Impedance         50               0                50               0                
53.3                           0.127333669252943 64.4443681889754 0.989323866869278 -24.4492688180965 0.98932386686928 -24.4492688180966 0.127333424182487 64.4454178615691 
! Gamma         0                0                0                0                
! Port Impedance         50               0                50               0                
53.4                           0.127544944176559 64.4002095255429 0.989294565505806 -24.4944940343671 0.989294565505807 -24.4944940343672 0.12754469864025 64.4012612844221 
! Gamma         0                0                0                0                
! Port Impedance         50               0                50               0                
53.5                           0.127756083208781 64.3560509943256 0.989265238543577 -24.5397166745688 0.989265238543578 -24.5397166745688 0.127755837206726 64.3571048394703 
! Gamma         0                0                0                0                
! Port Impedance         50               0                50               0                
53.6                           0.1279670861671  64.3118926043761 0.989235886080304 -24.5849367374011 0.989235886080305 -24.5849367374011 0.127966839699392 64.3129485357683 
! Gamma         0                0                0                0                
! Port Impedance         50               0                50               0                
53.7                           0.128177952869028 64.2677343646293 0.989206508213835 -24.6301542215741 0.989206508213836 -24.6301542215742 0.128177705935751 64.2687923822528 
! Gamma         0                0                0                0                
! Port Impedance         50               0                50               0                
53.8                           0.128388683132099 64.2235762839036 0.989177105042157 -24.6753691258085 0.989177105042158 -24.6753691258085 0.128388435733323 64.2246363877445 
! Gamma         0                0                0                0                
! Port Impedance         50               0                50               0                
53.9                           0.128599276773871 64.1794183709029 0.989147676663395 -24.7205814488353 0.989147676663396 -24.7205814488353 0.128599028909654 64.1804805609492 
! Gamma         0                0                0                0                
! Port Impedance         50               0                50               0                
54                             0.128809733611918 64.1352606342182 0.98911822317581 -24.765791189396 0.989118223175811 -24.7657911893961 0.128809485282307 64.1363249104602 
! Gamma         0                0                0                0                
! Port Impedance         50               0                50               0                
54.1                           0.129020053463833 64.0911030823289 0.989088744677799 -24.8109983462431 0.9890887446778  -24.8109983462432 0.129019804668861 64.0921694447591 
! Gamma         0                0                0                0                
! Port Impedance         50               0                50               0                
54.2                           0.129230236147225 64.0469457236046 0.989059241267895 -24.8562029181395 0.989059241267896 -24.8562029181395 0.129229986886913 64.0480141722179 
! Gamma         0                0                0                0                
! Port Impedance         50               0                50               0                
54.3                           0.129440281479719 64.002788566307  0.989029713044767 -24.9014049038588 0.989029713044769 -24.9014049038589 0.129440031754076 64.0038591011005 
! Gamma         0                0                0                0                
! Port Impedance         50               0                50               0                
54.4                           0.12965018927895 63.9586316185909 0.989000160107219 -24.9466043021856 0.98900016010722 -24.9466043021856 0.129649939087974 63.9597042395642 
! Gamma         0                0                0                0                
! Port Impedance         50               0                50               0                
54.5                           0.12985995936257 63.9144748885061 0.988970582554187 -24.9918011119151 0.988970582554188 -24.9918011119151 0.129859708706244 63.9155495956614 
! Gamma         0                0                0                0                
! Port Impedance         50               0                50               0                
54.6                           0.130069591548238 63.8703183839989 0.988940980484743 -25.0369953318535 0.988940980484744 -25.0369953318535 0.130069340426534 63.871395177341  
! Gamma         0                0                0                0                
! Port Impedance         50               0                50               0                
54.7                           0.130279085653623 63.8261621129137 0.988911353998091 -25.0821869608178 0.988911353998092 -25.0821869608178 0.1302788340665  63.8272409924499 
! Gamma         0                0                0                0                
! Port Impedance         50               0                50               0                
54.8                           0.130488441496402 63.7820060829945 0.988881703193568 -25.1273759976362 0.988881703193569 -25.1273759976362 0.130488189443806 63.7830870487349 
! Gamma         0                0                0                0                
! Port Impedance         50               0                50               0                
54.9                           0.13069765889426 63.7378503018863 0.988852028170642 -25.1725624411476 0.988852028170644 -25.1725624411476 0.130697406376124 63.7389333538436 
! Gamma         0                0                0                0                
! Port Impedance         50               0                50               0                
55                             0.130906737664884 63.6936947771367 0.988822329028915 -25.2177462902023 0.988822329028916 -25.2177462902023 0.130906484681129 63.6947799153268 
! Gamma         0                0                0                0                
! Port Impedance         50               0                50               0                
55.1                           0.131115677625967 63.6495395161977 0.988792605868118 -25.2629275436615 0.988792605868119 -25.2629275436615 0.131115424176501 63.6506267406391 
! Gamma         0                0                0                0                
! Port Impedance         50               0                50               0                
55.2                           0.131324478595204 63.6053845264266 0.988762858788112 -25.3081062003975 0.988762858788113 -25.3081062003976 0.131324224679922 63.6064738371407 
! Gamma         0                0                0                0                
! Port Impedance         50               0                50               0                
55.3                           0.131533140390292 63.5612298150878 0.988733087888889 -25.3532822592942 0.98873308788889 -25.3532822592942 0.131532886009076 63.5623212120994 
! Gamma         0                0                0                0                
! Port Impedance         50               0                50               0                
55.4                           0.131741662828927 63.5170753893546 0.98870329327057 -25.3984557192462 0.988703293270571 -25.3984557192462 0.131741407981646 63.5181688726912 
! Gamma         0                0                0                0                
! Port Impedance         50               0                50               0                
55.5                           0.131950045728804 63.4729212563099 0.988673475033405 -25.4436265791598 0.988673475033406 -25.4436265791598 0.131949790415313 63.4740168260024 
! Gamma         0                0                0                0                
! Port Impedance         50               0                50               0                
55.6                           0.132158288907615 63.4287674229485 0.988643633277771 -25.4887948379525 0.988643633277772 -25.4887948379525 0.132158033127757 63.4298650790309 
! Gamma         0                0                0                0                
! Port Impedance         50               0                50               0                
55.7                           0.132366392183049 63.3846138961777 0.988613768104175 -25.5339604945532 0.988613768104176 -25.5339604945532 0.132366135936654 63.3857136386874 
! Gamma         0                0                0                0                
! Port Impedance         50               0                50               0                
55.8                           0.132574355372788 63.3404606828195 0.988583879613247 -25.5791235479024 0.988583879613248 -25.5791235479024 0.132574098659673 63.3415625117973 
! Gamma         0                0                0                0                
! Port Impedance         50               0                50               0                
55.9                           0.132782178294512 63.2963077896115 0.988553967905748 -25.6242839969518 0.988553967905749 -25.6242839969518 0.13278192111448 63.2974117051014 
! Gamma         0                0                0                0                
! Port Impedance         50               0                50               0                
56                             0.132989860765888 63.2521552232085 0.988524033082562 -25.6694418406648 0.988524033082563 -25.6694418406648 0.132989603118729 63.2532612252582 
! Gamma         0                0                0                0                
! Port Impedance         50               0                50               0                
56.1                           0.13319740260458 63.208002990184  0.988494075244699 -25.7145970780164 0.9884940752447  -25.7145970780164 0.133197144490071 63.2091110788446 
! Gamma         0                0                0                0                
! Port Impedance         50               0                50               0                
56.2                           0.133404803628238 63.1638510970314 0.988464094493293 -25.7597497079932 0.988464094493294 -25.7597497079932 0.133404545046143 63.1649612723576 
! Gamma         0                0                0                0                
! Port Impedance         50               0                50               0                
56.3                           0.133612063654504 63.1196995501654 0.988434090929605 -25.8048997295933 0.988434090929606 -25.8048997295934 0.133611804604572 63.1208118122157 
! Gamma         0                0                0                0                
! Port Impedance         50               0                50               0                
56.4                           0.133819182501005 63.0755483559235 0.988404064655015 -25.8500471418269 0.988404064655016 -25.8500471418269 0.133818922982975 63.0766627047602 
! Gamma         0                0                0                0                
! Port Impedance         50               0                50               0                
56.5                           0.134026159985359 63.0313975205673 0.98837401577103 -25.8951919437155 0.988374015771031 -25.8951919437155 0.134025899998952 63.0325139562563 
! Gamma         0                0                0                0                
! Port Impedance         50               0                50               0                
56.6                           0.134232995925166 62.987247050284  0.988343944379277 -25.9403341342926 0.988343944379277 -25.9403341342927 0.134232735470093 62.9883655728951 
! Gamma         0                0                0                0                
! Port Impedance         50               0                50               0                
56.7                           0.134439690138012 62.9430969511872 0.988313850581505 -25.9854737126037 0.988313850581506 -25.9854737126037 0.134439429213971 62.9442175607942 
! Gamma         0                0                0                0                
! Port Impedance         50               0                50               0                
56.8                           0.134646242441469 62.8989472293191 0.988283734479585 -26.0306106777059 0.988283734479586 -26.030610677706 0.134645981048141 62.9000699259998 
! Gamma         0                0                0                0                
! Port Impedance         50               0                50               0                
56.9                           0.134852652653087 62.854797890651  0.988253596175509 -26.0757450286685 0.98825359617551 -26.0757450286685 0.134852390790144 62.8559226744872 
! Gamma         0                0                0                0                
! Port Impedance         50               0                50               0                
57                             0.135058920590402 62.8106489410852 0.988223435771387 -26.1208767645725 0.988223435771388 -26.1208767645725 0.135058658257499 62.8117758121628 
! Gamma         0                0                0                0                
! Port Impedance         50               0                50               0                
57.1                           0.135265046070929 62.7665003864559 0.98819325336945 -26.1660058845111 0.988193253369451 -26.1660058845111 0.135264783267708 62.7676293448651 
! Gamma         0                0                0                0                
! Port Impedance         50               0                50               0                
57.2                           0.135471028912161 62.7223522325309 0.988163049072047 -26.2111323875894 0.988163049072047 -26.2111323875895 0.135470765638252 62.723483278366  
! Gamma         0                0                0                0                
! Port Impedance         50               0                50               0                
57.3                           0.135676868931572 62.6782044850125 0.988132822981645 -26.2562562729249 0.988132822981646 -26.2562562729249 0.135676605186591 62.6793376183722 
! Gamma         0                0                0                0                
! Port Impedance         50               0                50               0                
57.4                           0.135882565946613 62.6340571495389 0.988102575200828 -26.3013775396469 0.988102575200829 -26.301377539647 0.135882301730162 62.6351923705262 
! Gamma         0                0                0                0                
! Port Impedance         50               0                50               0                
57.5                           0.136088119774711 62.5899102316858 0.9880723058323  -26.3464961868971 0.988072305832301 -26.3464961868972 0.136087855086378 62.5910475404081 
! Gamma         0                0                0                0                
! Port Impedance         50               0                50               0                
57.6                           0.13629353023327 62.545763736967  0.988042014978878 -26.3916122138294 0.988042014978878 -26.3916122138294 0.136293265072629 62.5469031335364 
! Gamma         0                0                0                0                
! Port Impedance         50               0                50               0                
57.7                           0.136498797139666 62.5016176708364 0.988011702743494 -26.4367256196098 0.988011702743495 -26.4367256196098 0.136498531506281 62.5027591553692 
! Gamma         0                0                0                0                
! Port Impedance         50               0                50               0                
57.8                           0.136703920311254 62.4574720386886 0.987981369229199 -26.4818364034167 0.987981369229199 -26.4818364034168 0.13670365420467 62.458615611306  
! Gamma         0                0                0                0                
! Port Impedance         50               0                50               0                
57.9                           0.136908899565356 62.4133268458605 0.987951014539154 -26.526944564441 0.987951014539155 -26.5269445644411 0.136908632985109 62.4144725066883 
! Gamma         0                0                0                0                
! Port Impedance         50               0                50               0                
58                             0.137113734719272 62.3691820976326 0.987920638776638 -26.5720501018859 0.987920638776639 -26.5720501018859 0.137113467664882 62.3703298468012 
! Gamma         0                0                0                0                
! Port Impedance         50               0                50               0                
58.1                           0.137318425590269 62.3250377992299 0.987890242045039 -26.6171530149668 0.98789024204504 -26.6171530149668 0.137318158061244 62.3261876368747 
! Gamma         0                0                0                0                
! Port Impedance         50               0                50               0                
58.2                           0.137522971995586 62.2808939558232 0.987859824447861 -26.6622533029119 0.987859824447862 -26.6622533029119 0.137522703991419 62.2820458820844 
! Gamma         0                0                0                0                
! Port Impedance         50               0                50               0                
58.3                           0.137727373752433 62.2367505725307 0.987829386088718 -26.7073509649617 0.987829386088719 -26.7073509649617 0.137727105272604 62.2379045875532 
! Gamma         0                0                0                0                
! Port Impedance         50               0                50               0                
58.4                           0.137931630677988 62.1926076544185 0.987798927071335 -26.7524460003694 0.987798927071336 -26.7524460003694 0.137931361721962 62.1937637583523 
! Gamma         0                0                0                0                
! Port Impedance         50               0                50               0                
58.5                           0.138135742589395 62.1484652065023 0.98776844749955 -26.7975384084006 0.98776844749955 -26.7975384084006 0.138135473156626 62.1496233995026 
! Gamma         0                0                0                0                
! Port Impedance         50               0                50               0                
58.6                           0.138339709303768 62.1043232337486 0.987737947477307 -26.8426281883337 0.987737947477308 -26.8426281883337 0.138339439393696 62.1054835159755 
! Gamma         0                0                0                0                
! Port Impedance         50               0                50               0                
58.7                           0.138543530638188 62.0601817410754 0.987707427108664 -26.8877153394597 0.987707427108665 -26.8877153394598 0.138543260250237 62.0613441126942 
! Gamma         0                0                0                0                
! Port Impedance         50               0                50               0                
58.8                           0.138747206409698 62.0160407333538 0.987676886497784 -26.9327998610823 0.987676886497784 -26.9327998610823 0.138746935543281 62.0172051945351 
! Gamma         0                0                0                0                
! Port Impedance         50               0                50               0                
58.9                           0.13895073643531 61.9719002154092 0.987646325748939 -26.977881752518 0.98764632574894 -26.977881752518 0.138950465089825 61.9730667663286 
! Gamma         0                0                0                0                
! Port Impedance         50               0                50               0                
59                             0.139154120531998 61.9277601920219 0.98761574496651 -27.0229610130959 0.987615744966511 -27.0229610130959 0.139153848706832 61.9289288328606 
! Gamma         0                0                0                0                
! Port Impedance         50               0                50               0                
59.1                           0.139357358516702 61.8836206679288 0.987585144254984 -27.0680376421581 0.987585144254984 -27.0680376421581 0.139357086211225 61.8847913988733 
! Gamma         0                0                0                0                
! Port Impedance         50               0                50               0                
59.2                           0.139560450206323 61.8394816478244 0.987554523718952 -27.1131116390595 0.987554523718953 -27.1131116390595 0.139560177419893 61.8406544690666 
! Gamma         0                0                0                0                
! Port Impedance         50               0                50               0                
59.3                           0.139763395417724 61.7953431363617 0.987523883463114 -27.1581830031679 0.987523883463114 -27.1581830031679 0.139763122149687 61.796518048099  
! Gamma         0                0                0                0                
! Port Impedance         50               0                50               0                
59.4                           0.139966193967731 61.7512051381534 0.987493223592272 -27.2032517338641 0.987493223592273 -27.2032517338641 0.139965920217418 61.7523821405888 
! Gamma         0                0                0                0                
! Port Impedance         50               0                50               0                
59.5                           0.14016884567313 61.7070676577733 0.987462544211334 -27.2483178305417 0.987462544211335 -27.2483178305417 0.140168571439859 61.7082467511154 
! Gamma         0                0                0                0                
! Port Impedance         50               0                50               0                
59.6                           0.14037135035067 61.6629306997568 0.987431845425311 -27.2933812926075 0.987431845425311 -27.2933812926075 0.140371075633745 61.6641118842199 
! Gamma         0                0                0                0                
! Port Impedance         50               0                50               0                
59.7                           0.140573707817055 61.6187942686029 0.987401127339315 -27.3384421194812 0.987401127339316 -27.3384421194812 0.140573432615769 61.6199775444068 
! Gamma         0                0                0                0                
! Port Impedance         50               0                50               0                
59.8                           0.140775917888953 61.574658368774  0.987370390058564 -27.3835003105956 0.987370390058564 -27.3835003105956 0.140775642202583 61.5758437361447 
! Gamma         0                0                0                0                
! Port Impedance         50               0                50               0                
59.9                           0.140977980382988 61.5305230046984 0.987339633688374 -27.4285558653967 0.987339633688374 -27.4285558653967 0.140977704210798 61.5317104638674 
! Gamma         0                0                0                0                
! Port Impedance         50               0                50               0                
60                             0.141179895115743 61.4863881807702 0.987308858334163 -27.4736087833435 0.987308858334164 -27.4736087833435 0.141179618456986 61.487577731975  
! Gamma         0                0                0                0                
! Port Impedance         50               0                50               0                
60.1                           0.141381661903757 61.4422539013509 0.987278064101451 -27.5186590639084 0.987278064101452 -27.5186590639085 0.141381384757672 61.443445544835  
! Gamma         0                0                0                0                
! Port Impedance         50               0                50               0                
60.2                           0.14158328056353 61.3981201707707 0.987247251095856 -27.5637067065769 0.987247251095857 -27.5637067065769 0.14158300292934 61.3993139067834 
! Gamma         0                0                0                0                
! Port Impedance         50               0                50               0                
60.3                           0.141784750911513 61.3539869933288 0.987216419423094 -27.6087517108477 0.987216419423095 -27.6087517108477 0.141784472788432 61.3551828221258 
! Gamma         0                0                0                0                
! Port Impedance         50               0                50               0                
60.4                           0.141986072764118 61.3098543732951 0.987185569188981 -27.6537940762329 0.987185569188981 -27.6537940762329 0.141985794151345 61.3110522951379 
! Gamma         0                0                0                0                
! Port Impedance         50               0                50               0                
60.5                           0.14218724593771 61.2657223149108 0.987154700499429 -27.6988338022578 0.98715470049943 -27.6988338022578 0.14218696683443 61.2669223300673 
! Gamma         0                0                0                0                
! Port Impedance         50               0                50               0                
60.6                           0.142388270248609 61.2215908223899 0.987123813460449 -27.7438708884612 0.987123813460449 -27.7438708884612 0.142387990653996 61.2227929311341 
! Gamma         0                0                0                0                
! Port Impedance         50               0                50               0                
60.7                           0.14258914551309 61.1774598999197 0.987092908178146 -27.7889053343953 0.987092908178147 -27.7889053343953 0.142588865426305 61.1786641025318 
! Gamma         0                0                0                0                
! Port Impedance         50               0                50               0                
60.8                           0.142789871547383 61.1333295516621 0.987061984758722 -27.8339371396256 0.987061984758723 -27.8339371396256 0.142789590967573 61.1345358484287 
! Gamma         0                0                0                0                
! Port Impedance         50               0                50               0                
60.9                           0.142990448167672 61.0891997817544 0.987031043308474 -27.8789663037312 0.987031043308474 -27.8789663037312 0.142990167093971 61.0904081729686 
! Gamma         0                0                0                0                
! Port Impedance         50               0                50               0                
61                             0.143190875190093 61.0450705943106 0.987000083933791 -27.9239928263045 0.987000083933792 -27.9239928263045 0.143190593621623 61.0462810802718 
! Gamma         0                0                0                0                
! Port Impedance         50               0                50               0                
61.1                           0.143391152430735 61.0009419934222 0.986969106741159 -27.9690167069517 0.98696910674116 -27.9690167069517 0.143390870366605 61.0021545744363 
! Gamma         0                0                0                0                
! Port Impedance         50               0                50               0                
61.2                           0.143591279705641 60.9568139831591 0.986938111837155 -28.0140379452925 0.986938111837156 -28.0140379452925 0.143590997144948 60.9580286595385 
! Gamma         0                0                0                0                
! Port Impedance         50               0                50               0                
61.3                           0.143791256830806 60.9126865675706 0.986907099328448 -28.0590565409599 0.986907099328448 -28.0590565409599 0.143790973772634 60.9139033396345 
! Gamma         0                0                0                0                
! Port Impedance         50               0                50               0                
61.4                           0.143991083622176 60.8685597506865 0.986876069321798 -28.1040724936009 0.986876069321799 -28.1040724936009 0.143990800065596 60.8697786187605 
! Gamma         0                0                0                0                
! Port Impedance         50               0                50               0                
61.5                           0.14419075989565 60.8244335365181 0.986845021924059 -28.1490858028761 0.986845021924059 -28.149085802876 0.14419047583972 60.8256545009346 
! Gamma         0                0                0                0                
! Port Impedance         50               0                50               0                
61.6                           0.144390285467076 60.7803079290588 0.98681395724217 -28.1940964684595 0.986813957242171 -28.1940964684595 0.144390000910845 60.781530990157  
! Gamma         0                0                0                0                
! Port Impedance         50               0                50               0                
61.7                           0.144589660152257 60.7361829322855 0.986782875383165 -28.2391044900393 0.986782875383165 -28.2391044900393 0.144589375094757 60.7374080904113 
! Gamma         0                0                0                0                
! Port Impedance         50               0                50               0                
61.8                           0.144788883766943 60.6920585501591 0.986751776454162 -28.2841098673171 0.986751776454163 -28.2841098673171 0.144788598207197 60.6932858056652 
! Gamma         0                0                0                0                
! Port Impedance         50               0                50               0                
61.9                           0.144987956126836 60.6479347866258 0.986720660562372 -28.3291126000084 0.986720660562372 -28.3291126000083 0.144987670063854 60.6491641398719 
! Gamma         0                0                0                0                
! Port Impedance         50               0                50               0                
62                             0.145186877047589 60.6038116456178 0.986689527815088 -28.3741126878425 0.986689527815089 -28.3741126878425 0.145186590480367 60.6050430969705 
! Gamma         0                0                0                0                
! Port Impedance         50               0                50               0                
62.1                           0.145385646344803 60.5596891310543 0.986658378319695 -28.4191101305626 0.986658378319696 -28.4191101305626 0.145385359272329 60.5609226808872 
! Gamma         0                0                0                0                
! Port Impedance         50               0                50               0                
62.2                           0.145584263834032 60.5155672468423 0.986627212183661 -28.4641049279258 0.986627212183661 -28.4641049279258 0.145583976255278 60.5168028955361 
! Gamma         0                0                0                0                
! Port Impedance         50               0                50               0                
62.3                           0.145782729330776 60.4714459968777 0.986596029514539 -28.5090970797031 0.98659602951454 -28.5090970797031 0.145782441244705 60.4726837448201 
! Gamma         0                0                0                0                
! Port Impedance         50               0                50               0                
62.4                           0.145981042650488 60.4273253850462 0.98656483041997 -28.5540865856794 0.98656483041997 -28.5540865856794 0.145980754056048 60.4285652326321 
! Gamma         0                0                0                0                
! Port Impedance         50               0                50               0                
62.5                           0.146179203608567 60.3832054152237 0.986533615007675 -28.5990734456536 0.986533615007675 -28.5990734456536 0.146178914504698 60.3844473628552 
! Gamma         0                0                0                0                
! Port Impedance         50               0                50               0                
62.6                           0.146377212020363 60.3390860912781 0.986502383385461 -28.6440576594386 0.986502383385461 -28.6440576594386 0.146376922405991 60.3403301393644 
! Gamma         0                0                0                0                
! Port Impedance         50               0                50               0                
62.7                           0.146575067701174 60.2949674170691 0.986471135661216 -28.6890392268615 0.986471135661217 -28.6890392268614 0.146574777575215 60.2962135660269 
! Gamma         0                0                0                0                
! Port Impedance         50               0                50               0                
62.8                           0.14677277046625 60.2508493964501 0.986439871942913 -28.7340181477631 0.986439871942914 -28.7340181477631 0.146772479827606 60.2520976467033 
! Gamma         0                0                0                0                
! Port Impedance         50               0                50               0                
62.9                           0.146970320130785 60.2067320332682 0.986408592338603 -28.7789944219987 0.986408592338603 -28.7789944219987 0.14697002897835 60.2079823852481 
! Gamma         0                0                0                0                
! Port Impedance         50               0                50               0                
63                             0.147167716509925 60.1626153313657 0.986377296956418 -28.8239680494376 0.986377296956418 -28.8239680494376 0.147167424842579 60.1638677855109 
! Gamma         0                0                0                0                
! Port Impedance         50               0                50               0                
63.1                           0.147364959418763 60.1184992945805 0.986345985904572 -28.868939029963 0.986345985904573 -28.868939029963 0.147364667235376 60.1197538513372 
! Gamma         0                0                0                0                
! Port Impedance         50               0                50               0                
63.2                           0.147562048672342 60.0743839267472 0.986314659291357 -28.9139073634727 0.986314659291357 -28.9139073634727 0.147561755971773 60.0756405865692 
! Gamma         0                0                0                0                
! Port Impedance         50               0                50               0                
63.3                           0.147758984085652 60.030269231698  0.986283317225142 -28.9588730498784 0.986283317225142 -28.9588730498784 0.147758690866749 60.0315279950465 
! Gamma         0                0                0                0                
! Port Impedance         50               0                50               0                
63.4                           0.147955765473632 59.9861552132632 0.986251959814377 -29.0038360891062 0.986251959814377 -29.0038360891061 0.147955471735232 59.987416080607  
! Gamma         0                0                0                0                
! Port Impedance         50               0                50               0                
63.5                           0.148152392651171 59.9420418752724 0.986220587167586 -29.0487964810963 0.986220587167587 -29.0487964810963 0.148152098392099 59.9433048470881 
! Gamma         0                0                0                0                
! Port Impedance         50               0                50               0                
63.6                           0.148348865433104 59.8979292215551 0.986189199393373 -29.0937542258036 0.986189199393373 -29.0937542258036 0.148348570652175 59.8991942983268 
! Gamma         0                0                0                0                
! Port Impedance         50               0                50               0                
63.7                           0.148545183634216 59.8538172559415 0.986157796600414 -29.1387093231968 0.986157796600414 -29.1387093231968 0.148544888330235 59.8550844381612 
! Gamma         0                0                0                0                
! Port Impedance         50               0                50               0                
63.8                           0.148741347069239 59.8097059822634 0.986126378897462 -29.1836617732594 0.986126378897462 -29.1836617732594 0.148741051241002 59.8109752704308 
! Gamma         0                0                0                0                
! Port Impedance         50               0                50               0                
63.9                           0.148937355552857 59.7655954043552 0.986094946393345 -29.2286115759889 0.986094946393345 -29.2286115759889 0.148937059199146 59.7668667989777 
! Gamma         0                0                0                0                
! Port Impedance         50               0                50               0                
64                             0.149133208899698 59.7214855260541 0.986063499196963 -29.2735587313976 0.986063499196963 -29.2735587313976 0.149132912019287 59.7227590276473 
! Gamma         0                0                0                0                
! Port Impedance         50               0                50               0                
64.1                           0.149328906924341 59.6773763512015 0.986032037417291 -29.318503239512 0.986032037417291 -29.318503239512 0.149328609515994 59.6786519602886 
! Gamma         0                0                0                0                
! Port Impedance         50               0                50               0                
64.2                           0.149524449441316 59.6332678836436 0.986000561163374 -29.363445100373 0.986000561163374 -29.363445100373 0.149524151503786 59.6345456007558 
! Gamma         0                0                0                0                
! Port Impedance         50               0                50               0                
64.3                           0.149719836265097 59.5891601272321 0.98596907054433 -29.4083843140363 0.98596907054433 -29.4083843140362 0.149719537797128 59.5904399529086 
! Gamma         0                0                0                0                
! Port Impedance         50               0                50               0                
64.4                           0.149915067210111 59.5450530858247 0.985937565669349 -29.4533208805717 0.985937565669349 -29.4533208805717 0.149914768210437 59.5463350206129 
! Gamma         0                0                0                0                
! Port Impedance         50               0                50               0                
64.5                           0.150110142090733 59.5009467632867 0.985906046647689 -29.4982548000639 0.985906046647689 -29.4982548000639 0.150109842558077 59.5022308077418 
! Gamma         0                0                0                0                
! Port Impedance         50               0                50               0                
64.6                           0.150305060721287 59.4568411634907 0.985874513588678 -29.5431860726121 0.985874513588679 -29.5431860726121 0.150304760654363 59.4581273181763 
! Gamma         0                0                0                0                
! Port Impedance         50               0                50               0                
64.7                           0.150499822916046 59.4127362903183 0.985842966601715 -29.5881146983299 0.985842966601715 -29.5881146983299 0.15049952231356 59.4140245558059 
! Gamma         0                0                0                0                
! Port Impedance         50               0                50               0                
64.8                           0.150694428489233 59.3686321476602 0.985811405796263 -29.6330406773458 0.985811405796263 -29.6330406773458 0.150694127349881 59.3699225245296 
! Gamma         0                0                0                0                
! Port Impedance         50               0                50               0                
64.9                           0.150888877255022 59.3245287394173 0.985779831281857 -29.6779640098028 0.985779831281857 -29.6779640098027 0.15088857557749 59.3258212282565 
! Gamma         0                0                0                0                
! Port Impedance         50               0                50               0                
65                             0.151083169027536 59.2804260695012 0.985748243168095 -29.7228846958585 0.985748243168096 -29.7228846958584 0.151082866810501 59.2817206709065 
! Gamma         0                0                0                0                
! Port Impedance         50               0                50               0                
65.1                           0.151277303620847 59.2363241418351 0.985716641564645 -29.7678027356853 0.985716641564645 -29.7678027356853 0.151277000862978 59.2376208564112 
! Gamma         0                0                0                0                
! Port Impedance         50               0                50               0                
65.2                           0.15147128084898 59.1922229603546 0.985685026581235 -29.8127181294704 0.985685026581235 -29.8127181294704 0.151470977548937 59.1935217887143 
! Gamma         0                0                0                0                
! Port Impedance         50               0                50               0                
65.3                           0.15166510052591 59.1481225290082 0.985653398327663 -29.8576308774156 0.985653398327663 -29.8576308774156 0.151664796682343 59.1494234717728 
! Gamma         0                0                0                0                
! Port Impedance         50               0                50               0                
65.4                           0.151858762465561 59.1040228517579 0.985621756913788 -29.9025409797376 0.985621756913788 -29.9025409797376 0.151858458077113 59.1053259095572 
! Gamma         0                0                0                0                
! Port Impedance         50               0                50               0                
65.5                           0.152052266481812 59.0599239325805 0.985590102449533 -29.9474484366679 0.985590102449533 -29.9474484366678 0.152051961547117 59.0612291060527 
! Gamma         0                0                0                0                
! Port Impedance         50               0                50               0                
65.6                           0.15224561238849 59.0158257754677 0.985558435044882 -29.9923532484526 0.985558435044882 -29.9923532484526 0.152245306906174 59.0171330652595 
! Gamma         0                0                0                0                
! Port Impedance         50               0                50               0                
65.7                           0.152438799999376 58.9717283844271 0.985526754809885 -30.037255415353 0.985526754809885 -30.0372554153529 0.152438493968056 58.9730377911936 
! Gamma         0                0                0                0                
! Port Impedance         50               0                50               0                
65.8                           0.152631829128202 58.9276317634827 0.985495061854648 -30.0821549376449 0.985495061854648 -30.0821549376449 0.152631522546489 58.9289432878878 
! Gamma         0                0                0                0                
! Port Impedance         50               0                50               0                
65.9                           0.152824699588655 58.8835359166758 0.985463356289341 -30.1270518156194 0.985463356289341 -30.1270518156194 0.152824392455149 58.8848495593918 
! Gamma         0                0                0                0                
! Port Impedance         50               0                50               0                
66                             0.153017411194371 58.8394408480657 0.985431638224193 -30.1719460495822 0.985431638224193 -30.1719460495822 0.153017103507668 58.8407566097737 
! Gamma         0                0                0                0                
! Port Impedance         50               0                50               0                
66.1                           0.153209963758944 58.79534656173   0.985399907769491 -30.2168376398541 0.985399907769491 -30.2168376398541 0.153209655517628 58.7966644431197 
! Gamma         0                0                0                0                
! Port Impedance         50               0                50               0                
66.2                           0.153402357095917 58.7512530617658 0.985368165035581 -30.2617265867708 0.985368165035581 -30.2617265867707 0.153402048298569 58.7525730635355 
! Gamma         0                0                0                0                
! Port Impedance         50               0                50               0                
66.3                           0.15359459101879 58.7071603522899 0.985336410132868 -30.306612890683 0.985336410132869 -30.3066128906829 0.153594281663982 58.7084824751468 
! Gamma         0                0                0                0                
! Port Impedance         50               0                50               0                
66.4                           0.153786665341017 58.6630684374399 0.985304643171812 -30.3514965519564 0.985304643171813 -30.3514965519563 0.153786355427313 58.6643926820997 
! Gamma         0                0                0                0                
! Port Impedance         50               0                50               0                
66.5                           0.153978579876006 58.6189773213743 0.985272864262931 -30.3963775709718 0.985272864262931 -30.3963775709718 0.153978269401965 58.6203036885619 
! Gamma         0                0                0                0                
! Port Impedance         50               0                50               0                
66.6                           0.154170334437123 58.5748870082737 0.985241073516796 -30.4412559481251 0.985241073516796 -30.4412559481251 0.154170023401295 58.5762154987225 
! Gamma         0                0                0                0                
! Port Impedance         50               0                50               0                
66.7                           0.154361928837685 58.5307975023412 0.985209271044035 -30.4861316838271 0.985209271044035 -30.4861316838271 0.154361617238615 58.5321281167937 
! Gamma         0                0                0                0                
! Port Impedance         50               0                50               0                
66.8                           0.15455336289097 58.4867088078029 0.985177456955331 -30.5310047785039 0.985177456955331 -30.5310047785039 0.154553050727196 58.4880415470103 
! Gamma         0                0                0                0                
! Port Impedance         50               0                50               0                
66.9                           0.154744636410211 58.442620928909  0.985145631361418 -30.5758752325966 0.985145631361418 -30.5758752325965 0.154744323680264 58.4439557936315 
! Gamma         0                0                0                0                
! Port Impedance         50               0                50               0                
67                             0.154935749208597 58.3985338699337 0.985113794373084 -30.6207430465615 0.985113794373084 -30.6207430465614 0.154935435911003 58.3998708609406 
! Gamma         0                0                0                0                
! Port Impedance         50               0                50               0                
67.1                           0.155126701099276 58.3544476351766 0.98508194610117 -30.66560822087  0.985081946101169 -30.6656082208699 0.155126387232555 58.3557867532459 
! Gamma         0                0                0                0                
! Port Impedance         50               0                50               0                
67.2                           0.155317491895355 58.3103622289628 0.985050086656565 -30.7104707560087 0.985050086656565 -30.7104707560087 0.15531717745802 58.3117034748818 
! Gamma         0                0                0                0                
! Port Impedance         50               0                50               0                
67.3                           0.155508121409899 58.2662776556438 0.985018216150214 -30.7553306524797 0.985018216150214 -30.7553306524796 0.155507806400458 58.2676210302087 
! Gamma         0                0                0                0                
! Port Impedance         50               0                50               0                
67.4                           0.155698589455932 58.2221939195977 0.984986334693108 -30.8001879107999 0.984986334693108 -30.8001879107998 0.155698273872887 58.2235394236138 
! Gamma         0                0                0                0                
! Port Impedance         50               0                50               0                
67.5                           0.155888895846438 58.1781110252304 0.984954442396289 -30.8450425315016 0.984954442396289 -30.8450425315016 0.155888579688287 58.1794586595122 
! Gamma         0                0                0                0                
! Port Impedance         50               0                50               0                
67.6                           0.156079040394362 58.1340289769758 0.984922539370846 -30.8898945151326 0.984922539370846 -30.8898945151326 0.156078723659597 58.1353787423468 
! Gamma         0                0                0                0                
! Port Impedance         50               0                50               0                
67.7                           0.15626902291261 58.0899477792965 0.984890625727917 -30.9347438622558 0.984890625727917 -30.9347438622557 0.156268705599718 58.0912996765893 
! Gamma         0                0                0                0                
! Port Impedance         50               0                50               0                
67.8                           0.15645884321405 58.0458674366843 0.984858701578688 -30.9795905734493 0.984858701578688 -30.9795905734493 0.156458525321513 58.0472214667409 
! Gamma         0                0                0                0                
! Port Impedance         50               0                50               0                
67.9                           0.156648501111512 58.0017879536608 0.98482676703439 -31.0244346493068 0.98482676703439 -31.0244346493068 0.156648182637808 58.0031441173323 
! Gamma         0                0                0                0                
! Port Impedance         50               0                50               0                
68                             0.156837996417789 57.9577093347783 0.984794822206301 -31.0692760904373 0.984794822206301 -31.0692760904372 0.15683767736139 57.9590676329251 
! Gamma         0                0                0                0                
! Port Impedance         50               0                50               0                
68.1                           0.157027328945636 57.9136315846198 0.984762867205743 -31.1141148974649 0.984762867205743 -31.1141148974649 0.157027009305013 57.9149920181115 
! Gamma         0                0                0                0                
! Port Impedance         50               0                50               0                
68.2                           0.157216498507776 57.8695547078002 0.984730902144083 -31.1589510710295 0.984730902144083 -31.1589510710295 0.157216178281392 57.8709172775158 
! Gamma         0                0                0                0                
! Port Impedance         50               0                50               0                
68.3                           0.157405504916893 57.8254787089664 0.984698927132732 -31.2037846117862 0.984698927132732 -31.2037846117861 0.157405184103211 57.826843415794  
! Gamma         0                0                0                0                
! Port Impedance         50               0                50               0                
68.4                           0.15759434798564 57.7814035927977 0.984666942283144 -31.2486155204055 0.984666942283143 -31.2486155204055 0.157594026583115 57.7827704376351 
! Gamma         0                0                0                0                
! Port Impedance         50               0                50               0                
68.5                           0.157783027526634 57.7373293640073 0.984634947706814 -31.2934437975736 0.984634947706814 -31.2934437975735 0.157782705533721 57.7386983477613 
! Gamma         0                0                0                0                
! Port Impedance         50               0                50               0                
68.6                           0.157971543352459 57.6932560273418 0.98460294351528 -31.3382694439918 0.98460294351528 -31.3382694439918 0.157971220767608 57.6946271509287 
! Gamma         0                0                0                0                
! Port Impedance         50               0                50               0                
68.7                           0.158159895275668 57.6491835875821 0.984570929820121 -31.3830924603773 0.984570929820121 -31.3830924603772 0.158159572097327 57.6505568519278 
! Gamma         0                0                0                0                
! Port Impedance         50               0                50               0                
68.8                           0.158348083108783 57.6051120495442 0.984538906732956 -31.4279128474624 0.984538906732956 -31.4279128474623 0.158347759335395 57.6064874555839 
! Gamma         0                0                0                0                
! Port Impedance         50               0                50               0                
68.9                           0.158536106664294 57.5610414180796 0.984506874365443 -31.4727306059953 0.984506874365443 -31.4727306059953 0.158535782294301 57.5624189667578 
! Gamma         0                0                0                0                
! Port Impedance         50               0                50               0                
69                             0.15872396575466 57.5169716980755 0.984474832829279 -31.5175457367396 0.984474832829279 -31.5175457367396 0.158723640786501 57.5183513903465 
! Gamma         0                0                0                0                
! Port Impedance         50               0                50               0                
69.1                           0.158911660192314 57.4729028944557 0.984442782236201 -31.5623582404745 0.984442782236201 -31.5623582404744 0.158911334624425 57.4742847312832 
! Gamma         0                0                0                0                
! Port Impedance         50               0                50               0                
69.2                           0.159099189789657 57.4288350121813 0.984410722697979 -31.6071681179947 0.984410722697979 -31.6071681179946 0.159098863620474 57.4302189945384 
! Gamma         0                0                0                0                
! Port Impedance         50               0                50               0                
69.3                           0.159286554359066 57.3847680562505 0.984378654326425 -31.6519753701106 0.984378654326425 -31.6519753701105 0.159286227587019 57.3861541851199 
! Gamma         0                0                0                0                
! Port Impedance         50               0                50               0                
69.4                           0.159473753712888 57.3407020316998 0.984346577233384 -31.6967799976481 0.984346577233384 -31.6967799976481 0.159473426336409 57.3420903080739 
! Gamma         0                0                0                0                
! Port Impedance         50               0                50               0                
69.5                           0.159660787663446 57.2966369436043 0.984314491530737 -31.741582001449 0.984314491530737 -31.741582001449 0.159660459680963 57.2980273684849 
! Gamma         0                0                0                0                
! Port Impedance         50               0                50               0                
69.6                           0.159847656023037 57.2525727970779 0.984282397330399 -31.7863813823706 0.984282397330399 -31.7863813823705 0.159847327432978 57.2539653714766 
! Gamma         0                0                0                0                
! Port Impedance         50               0                50               0                
69.7                           0.160034358603934 57.2085095972745 0.984250294744321 -31.8311781412858 0.984250294744321 -31.8311781412857 0.160034029404726 57.2099043222123 
! Gamma         0                0                0                0                
! Port Impedance         50               0                50               0                
69.8                           0.160220895218388 57.1644473493876 0.984218183884486 -31.8759722790832 0.984218183884486 -31.8759722790832 0.160220565408456 57.1658442258953 
! Gamma         0                0                0                0                
! Port Impedance         50               0                50               0                
69.9                           0.160407265678624 57.1203860586515 0.984186064862909 -31.9207637966674 0.984186064862908 -31.9207637966673 0.160406935256393 57.1217850877696 
! Gamma         0                0                0                0                
! Port Impedance         50               0                50               0                
70                             0.16059346979685 57.0763257303415 0.984153937791637 -31.9655526949584 0.984153937791637 -31.9655526949583 0.160593138760743 57.0777269131201 
! Gamma         0                0                0                0                
! Port Impedance         50               0                50               0                
70.1                           0.160779507385249 57.0322663697745 0.984121802782751 -32.0103389748921 0.98412180278275 -32.010338974892 0.16077917573369 57.0336697072734 
! Gamma         0                0                0                0                
! Port Impedance         50               0                50               0                
70.2                           0.160965378255987 56.9882079823092 0.984089659948358 -32.0551226374202 0.984089659948358 -32.0551226374201 0.1609650459874  56.9896134755979 
! Gamma         0                0                0                0                
! Port Impedance         50               0                50               0                
70.3                           0.16115108222121 56.9441505733469 0.984057509400598 -32.09990368351  0.984057509400598 -32.0999036835098 0.161150749334019 56.9455582235047 
! Gamma         0                0                0                0                
! Port Impedance         50               0                50               0                
70.4                           0.161336619093047 56.9000941483318 0.98402535125164 -32.1446821141447 0.984025351251639 -32.1446821141446 0.161336285585675 56.9015039564477 
! Gamma         0                0                0                0                
! Port Impedance         50               0                50               0                
70.5                           0.161521988683609 56.8560387127516 0.98399318561368 -32.1894579303234 0.983993185613679 -32.1894579303233 0.161521654554481 56.8574506799243 
! Gamma         0                0                0                0                
! Port Impedance         50               0                50               0                
70.6                           0.161707190804991 56.8119842721377 0.983961012598943 -32.2342311330611 0.983961012598943 -32.234231133061 0.161706856052533 56.8133983994758 
! Gamma         0                0                0                0                
! Port Impedance         50               0                50               0                
70.7                           0.161892225269275 56.7679308320659 0.98392883231968 -32.2790017233882 0.98392883231968 -32.2790017233882 0.161891889891912 56.7693471206878 
! Gamma         0                0                0                0                
! Port Impedance         50               0                50               0                
70.8                           0.162077091888526 56.7238783981569 0.98389664488817 -32.3237697023516 0.98389664488817 -32.3237697023515 0.162076755884686 56.7252968491906 
! Gamma         0                0                0                0                
! Port Impedance         50               0                50               0                
70.9                           0.162261790474798 56.6798269760763 0.983864450416717 -32.3685350710135 0.983864450416716 -32.3685350710134 0.162261453842909 56.68124759066   
! Gamma         0                0                0                0                
! Port Impedance         50               0                50               0                
71                             0.162446320840133 56.6357765715356 0.983832249017648 -32.4132978304524 0.983832249017648 -32.4132978304523 0.162445983578625 56.637199350817  
! Gamma         0                0                0                0                
! Port Impedance         50               0                50               0                
71.1                           0.162630682796561 56.5917271902924 0.983800040803318 -32.4580579817624 0.983800040803318 -32.4580579817623 0.162630344903867 56.5931521354291 
! Gamma         0                0                0                0                
! Port Impedance         50               0                50               0                
71.2                           0.162814876156103 56.5476788381507 0.983767825886103 -32.5028155260539 0.983767825886103 -32.5028155260538 0.162814537630657 56.5491059503104 
! Gamma         0                0                0                0                
! Port Impedance         50               0                50               0                
71.3                           0.162998900730772 56.5036315209617 0.983735604378403 -32.5475704644528 0.983735604378403 -32.5475704644527 0.162998561571009 56.5050608013216 
! Gamma         0                0                0                0                
! Port Impedance         50               0                50               0                
71.4                           0.16318275633257 56.4595852446237 0.98370337639264 -32.5923227981013 0.983703376392639 -32.5923227981012 0.16318241653693 56.4610166943711 
! Gamma         0                0                0                0                
! Port Impedance         50               0                50               0                
71.5                           0.163366442773495 56.4155400150829 0.983671142041257 -32.6370725281575 0.983671142041257 -32.6370725281574 0.16336610234042 56.4169736354151 
! Gamma         0                0                0                0                
! Port Impedance         50               0                50               0                
71.6                           0.16354995986554 56.3714958383339 0.983638901436719 -32.6818196557953 0.983638901436718 -32.6818196557952 0.163549618793474 56.3729316304579 
! Gamma         0                0                0                0                
! Port Impedance         50               0                50               0                
71.7                           0.163733307420692 56.3274527204198 0.98360665469151 -32.7265641822048 0.98360665469151 -32.7265641822047 0.163732965708082 56.3288906855526 
! Gamma         0                0                0                0                
! Port Impedance         50               0                50               0                
71.8                           0.163916485250934 56.2834106674327 0.983574401918136 -32.7713061085921 0.983574401918136 -32.771306108592 0.163916142896232 56.2848508068013 
! Gamma         0                0                0                0                
! Port Impedance         50               0                50               0                
71.9                           0.164099493168248 56.2393696855142 0.983542143229119 -32.8160454361792 0.983542143229118 -32.8160454361791 0.164099150169909 56.2408120003554 
! Gamma         0                0                0                0                
! Port Impedance         50               0                50               0                
72                             0.164282330984614 56.195329780856  0.983509878737   -32.8607821662042 0.983509878736999 -32.8607821662041 0.164281987341097 56.1967742724165 
! Gamma         0                0                0                0                
! Port Impedance         50               0                50               0                
72.1                           0.164464998512014 56.1512909596996 0.983477608554338 -32.9055162999214 0.983477608554337 -32.9055162999213 0.164464654221781 56.1527376292363 
! Gamma         0                0                0                0                
! Port Impedance         50               0                50               0                
72.2                           0.164647495562428 56.1072532283376 0.983445332793708 -32.950247838601 0.983445332793708 -32.9502478386009 0.164647150623947 56.1087020771172 
! Gamma         0                0                0                0                
! Port Impedance         50               0                50               0                
72.3                           0.164829821947842 56.0632165931133 0.983413051567703 -32.9949767835293 0.983413051567703 -32.9949767835292 0.164829476359584 56.0646676224125 
! Gamma         0                0                0                0                
! Port Impedance         50               0                50               0                
72.4                           0.165011977480242 56.0191810604216 0.98338076498893 -33.0397031360088 0.983380764988929 -33.0397031360086 0.165011631240684 56.020634271527  
! Gamma         0                0                0                0                
! Port Impedance         50               0                50               0                
72.5                           0.16519396197162 55.9751466367092 0.98334847317001 -33.084426897358 0.983348473170009 -33.0844268973579 0.165193615079244 55.9766020309175 
! Gamma         0                0                0                0                
! Port Impedance         50               0                50               0                
72.6                           0.165375775233976 55.931113328475  0.983316176223578 -33.1291480689116 0.983316176223578 -33.1291480689115 0.165375427687269 55.9325709070928 
! Gamma         0                0                0                0                
! Port Impedance         50               0                50               0                
72.7                           0.165557417079315 55.8870811422703 0.983283874262286 -33.1738666520205 0.983283874262286 -33.1738666520204 0.165557068876769 55.8885409066144 
! Gamma         0                0                0                0                
! Port Impedance         50               0                50               0                
72.8                           0.16573888731965 55.8430500846996 0.983251567398795 -33.2185826480516 0.983251567398794 -33.2185826480515 0.165738538459764 55.8445120360965 
! Gamma         0                0                0                0                
! Port Impedance         50               0                50               0                
72.9                           0.165920185767004 55.7990201624205 0.983219255745778 -33.263296058388 0.983219255745778 -33.2632960583879 0.165919836248283 55.8004843022068 
! Gamma         0                0                0                0                
! Port Impedance         50               0                50               0                
73                             0.166101312233413 55.7549913821442 0.983186939415922 -33.3080068844292 0.983186939415922 -33.308006884429 0.166100962054367 55.7564577116666 
! Gamma         0                0                0                0                
! Port Impedance         50               0                50               0                
73.1                           0.166282266530922 55.7109637506361 0.983154618521922 -33.3527151275905 0.983154618521922 -33.3527151275904 0.166281915690068 55.7124322712513 
! Gamma         0                0                0                0                
! Port Impedance         50               0                50               0                
73.2                           0.166463048471591 55.6669372747159 0.983122293176485 -33.3974207893038 0.983122293176485 -33.3974207893036 0.166462696967455 55.6684079877906 
! Gamma         0                0                0                0                
! Port Impedance         50               0                50               0                
73.3                           0.166643657867496 55.622911961258  0.983089963492327 -33.4421238710169 0.983089963492326 -33.4421238710168 0.166643305698607 55.6243848681688 
! Gamma         0                0                0                0                
! Port Impedance         50               0                50               0                
73.4                           0.166824094530726 55.5788878171918 0.98305762958217 -33.4868243741941 0.98305762958217 -33.486824374194 0.166823741695623 55.5803629193255 
! Gamma         0                0                0                0                
! Port Impedance         50               0                50               0                
73.5                           0.167004358273389 55.5348648495023 0.983025291558749 -33.5315223003157 0.983025291558749 -33.5315223003156 0.167004004770618 55.5363421482557 
! Gamma         0                0                0                0                
! Port Impedance         50               0                50               0                
73.6                           0.167184448907611 55.49084306523   0.982992949534802 -33.5762176508785 0.982992949534801 -33.5762176508784 0.167184094735727 55.4923225620098 
! Gamma         0                0                0                0                
! Port Impedance         50               0                50               0                
73.7                           0.16736436624554 55.4468224714718 0.982960603623074 -33.6209104273953 0.982960603623074 -33.6209104273952 0.167364011403104 55.4483041676948 
! Gamma         0                0                0                0                
! Port Impedance         50               0                50               0                
73.8                           0.167544110099341 55.4028030753806 0.982928253936319 -33.6656006313955 0.982928253936318 -33.6656006313953 0.167543754584924 55.4042869724738 
! Gamma         0                0                0                0                
! Port Impedance         50               0                50               0                
73.9                           0.167723680281207 55.3587848841664 0.982895900587293 -33.7102882644244 0.982895900587293 -33.7102882644243 0.167723324093388 55.3602709835666 
! Gamma         0                0                0                0                
! Port Impedance         50               0                50               0                
74                             0.167903076603351 55.3147679050961 0.98286354368876 -33.754973328044 0.982863543688759 -33.7549733280438 0.167902719740716 55.3162562082502 
! Gamma         0                0                0                0                
! Port Impedance         50               0                50               0                
74.1                           0.168082298878012 55.270752145494  0.982831183353483 -33.7996558238322 0.982831183353483 -33.7996558238321 0.168081941339159 55.272242653859  
! Gamma         0                0                0                0                
! Port Impedance         50               0                50               0                
74.2                           0.168261346917456 55.2267376127422 0.982798819694233 -33.8443357533838 0.982798819694233 -33.8443357533836 0.168260988700991 55.228230327785  
! Gamma         0                0                0                0                
! Port Impedance         50               0                50               0                
74.3                           0.168440220533979 55.1827243142808 0.982766452823782 -33.8890131183093 0.982766452823781 -33.8890131183092 0.168439861638518 55.1842192374784 
! Gamma         0                0                0                0                
! Port Impedance         50               0                50               0                
74.4                           0.168618919539904 55.138712257608  0.982734082854903 -33.9336879202359 0.982734082854902 -33.9336879202358 0.168618559964071 55.1402093904475 
! Gamma         0                0                0                0                
! Port Impedance         50               0                50               0                
74.5                           0.168797443747585 55.0947014502809 0.98270170990037 -33.9783601608073 0.98270170990037 -33.9783601608071 0.168797083490018 55.0962007942593 
! Gamma         0                0                0                0                
! Port Impedance         50               0                50               0                
74.6                           0.168975792969411 55.0506918999155 0.98266933407296 -34.0230298416831 0.98266933407296 -34.023029841683 0.168975432028754 55.0521934565399 
! Gamma         0                0                0                0                
! Port Impedance         50               0                50               0                
74.7                           0.169153967017801 55.0066836141869 0.982636955485449 -34.0676969645397 0.982636955485448 -34.0676969645396 0.169153605392712 55.0081873849744 
! Gamma         0                0                0                0                
! Port Impedance         50               0                50               0                
74.8                           0.169331965705212 54.9626766008298 0.98260457425061 -34.1123615310698 0.98260457425061 -34.1123615310697 0.169331603394358 54.9641825873076 
! Gamma         0                0                0                0                
! Port Impedance         50               0                50               0                
74.9                           0.169509788844137 54.9186708676387 0.982572190481218 -34.1570235429824 0.982572190481217 -34.1570235429823 0.169509425846197 54.9201790713439 
! Gamma         0                0                0                0                
! Port Impedance         50               0                50               0                
75                             0.169687436247107 54.8746664224684 0.982539804290043 -34.201683002003 0.982539804290042 -34.2016830020028 0.169687072560771 54.876176844948  
! Gamma         0                0                0                0                
! Port Impedance         50               0                50               0                
75.1                           0.169864907726691 54.8306632732337 0.982507415789853 -34.2463399098734 0.982507415789853 -34.2463399098733 0.169864543350662 54.8321759160451 
! Gamma         0                0                0                0                
! Port Impedance         50               0                50               0                
75.2                           0.170042203095503 54.7866614279105 0.982475025093415 -34.290994268352 0.982475025093415 -34.2909942683519 0.170041838028495 54.7881762926206 
! Gamma         0                0                0                0                
! Port Impedance         50               0                50               0                
75.3                           0.170219322166196 54.7426608945353 0.982442632313489 -34.3356460792137 0.982442632313488 -34.3356460792135 0.170218956406934 54.7441779827214 
! Gamma         0                0                0                0                
! Port Impedance         50               0                50               0                
75.4                           0.170396264751467 54.698661681206  0.982410237562831 -34.3802953442495 0.982410237562831 -34.3802953442494 0.170395898298691 54.7001809944552 
! Gamma         0                0                0                0                
! Port Impedance         50               0                50               0                
75.5                           0.170573030664062 54.6546637960821 0.982377840954193 -34.4249420652673 0.982377840954192 -34.4249420652672 0.170572663516523 54.6561853359915 
! Gamma         0                0                0                0                
! Port Impedance         50               0                50               0                
75.6                           0.17074961971677 54.6106672473846 0.982345442600318 -34.4695862440912 0.982345442600318 -34.469586244091 0.170749251873233 54.6121910155613 
! Gamma         0                0                0                0                
! Port Impedance         50               0                50               0                
75.7                           0.170926031722432 54.5666720433967 0.982313042613946 -34.5142278825618 0.982313042613945 -34.5142278825616 0.170925663181675 54.5681980414577 
! Gamma         0                0                0                0                
! Port Impedance         50               0                50               0                
75.8                           0.171102266493937 54.5226781924639 0.982280641107806 -34.5588669825363 0.982280641107806 -34.5588669825362 0.171101897254752 54.5242064220362 
! Gamma         0                0                0                0                
! Port Impedance         50               0                50               0                
75.9                           0.171278323844227 54.4786857029941 0.982248238194622 -34.6035035458885 0.982248238194622 -34.6035035458883 0.171277953905418 54.4802161657148 
! Gamma         0                0                0                0                
! Port Impedance         50               0                50               0                
76                             0.171454203586295 54.4346945834581 0.982215833987108 -34.6481375745084 0.982215833987108 -34.6481375745083 0.171453832946684 54.436227280974  
! Gamma         0                0                0                0                
! Port Impedance         50               0                50               0                
76.1                           0.171629905533192 54.3907048423898 0.982183428597968 -34.6927690703028 0.982183428597967 -34.6927690703026 0.171629534191611 54.3922397763578 
! Gamma         0                0                0                0                
! Port Impedance         50               0                50               0                
76.2                           0.171805429498024 54.3467164883863 0.982151022139896 -34.7373980351949 0.982151022139896 -34.7373980351947 0.171805057453323 54.3482536604732 
! Gamma         0                0                0                0                
! Port Impedance         50               0                50               0                
76.3                           0.171980775293954 54.3027295301083 0.982118614725577 -34.7820244711244 0.982118614725576 -34.7820244711243 0.171980402544996 54.3042689419906 
! Gamma         0                0                0                0                
! Port Impedance         50               0                50               0                
76.4                           0.172155942734205 54.2587439762801 0.982086206467683 -34.8266483800478 0.982086206467683 -34.8266483800477 0.17215556927987 54.2602856296446 
! Gamma         0                0                0                0                
! Port Impedance         50               0                50               0                
76.5                           0.172330931632063 54.2147598356903 0.982053797478875 -34.8712697639379 0.982053797478874 -34.8712697639377 0.172330557471246 54.2163037322334 
! Gamma         0                0                0                0                
! Port Impedance         50               0                50               0                
76.6                           0.172505741800874 54.1707771171915 0.9820213878718  -34.9158886247841 0.9820213878718  -34.9158886247839 0.172505366932485 54.1723232586196 
! Gamma         0                0                0                0                
! Port Impedance         50               0                50               0                
76.7                           0.172680373054052 54.126795829701  0.981988977759094 -34.9605049645925 0.981988977759093 -34.9605049645924 0.172679997477017 54.1283442177303 
! Gamma         0                0                0                0                
! Port Impedance         50               0                50               0                
76.8                           0.172854825205072 54.0828159822005 0.981956567253376 -35.0051187853858 0.981956567253375 -35.0051187853856 0.172854448918336 54.0843666185571 
! Gamma         0                0                0                0                
! Port Impedance         50               0                50               0                
76.9                           0.173029098067482 54.038837583737  0.981924156467253 -35.049730089203 0.981924156467253 -35.0497300892029 0.173028721070003 54.0403904701569 
! Gamma         0                0                0                0                
! Port Impedance         50               0                50               0                
77                             0.173203191454896 53.9948606434223 0.981891745513316 -35.0943388781002 0.981891745513315 -35.0943388781   0.173202813745651 53.9964157816512 
! Gamma         0                0                0                0                
! Port Impedance         50               0                50               0                
77.1                           0.173377105181   53.9508851704338 0.981859334504139 -35.1389451541496 0.981859334504138 -35.1389451541494 0.173376726758983 53.9524425622274 
! Gamma         0                0                0                0                
! Port Impedance         50               0                50               0                
77.2                           0.173550839059552 53.9069111740144 0.98182692355228 -35.1835489194403 0.98182692355228 -35.1835489194402 0.173550459923775 53.908470821138  
! Gamma         0                0                0                0                
! Port Impedance         50               0                50               0                
77.3                           0.173724392904386 53.8629386634727 0.981794512770282 -35.2281501760781 0.981794512770281 -35.228150176078 0.173724013053878 53.8645005677015 
! Gamma         0                0                0                0                
! Port Impedance         50               0                50               0                
77.4                           0.17389776652941 53.8189676481834 0.981762102270666 -35.2727489261852 0.981762102270665 -35.2727489261851 0.173897385963217 53.8205318113025 
! Gamma         0                0                0                0                
! Port Impedance         50               0                50               0                
77.5                           0.17407095974861 53.7749981375875 0.981729692165937 -35.3173451719006 0.981729692165937 -35.3173451719005 0.1740705784658  53.7765645613915 
! Gamma         0                0                0                0                
! Port Impedance         50               0                50               0                
77.6                           0.174243972376053 53.7310301411921 0.981697282568582 -35.3619389153799 0.981697282568581 -35.3619389153798 0.174243590375709 53.7325988274856 
! Gamma         0                0                0                0                
! Port Impedance         50               0                50               0                
77.7                           0.174416804225886 53.6870636685712 0.981664873591064 -35.4065301587954 0.981664873591064 -35.4065301587952 0.174416421507112 53.6886346191684 
! Gamma         0                0                0                0                
! Port Impedance         50               0                50               0                
77.8                           0.174589455112339 53.6430987293654 0.98163246534583 -35.451118904336 0.98163246534583 -35.4511189043358 0.174589071674257 53.6446719460903 
! Gamma         0                0                0                0                
! Port Impedance         50               0                50               0                
77.9                           0.174761924849725 53.5991353332824 0.981600057945304 -35.4957051542073 0.981600057945304 -35.4957051542072 0.174761540691477 53.6007108179686 
! Gamma         0                0                0                0                
! Port Impedance         50               0                50               0                
78                             0.174934213252447 53.555173490097  0.981567651501888 -35.5402889106317 0.981567651501888 -35.5402889106315 0.174933828373195 53.5567512445878 
! Gamma         0                0                0                0                
! Port Impedance         50               0                50               0                
78.1                           0.175106320134991 53.5112132096514 0.981535246127961 -35.584870175848 0.981535246127961 -35.5848701758478 0.175105934533918 53.5127932357999 
! Gamma         0                0                0                0                
! Port Impedance         50               0                50               0                
78.2                           0.175278245311938 53.4672545018554 0.981502841935881 -35.629448952112 0.981502841935881 -35.6294489521119 0.175277858988245 53.4688368015241 
! Gamma         0                0                0                0                
! Port Impedance         50               0                50               0                
78.3                           0.175449988597956 53.4232973766863 0.981470439037981 -35.6740252416961 0.98147043903798 -35.6740252416959 0.175449601550866 53.4248819517476 
! Gamma         0                0                0                0                
! Port Impedance         50               0                50               0                
78.4                           0.175621549807809 53.3793418441896 0.981438037546568 -35.7185990468893 0.981438037546568 -35.7185990468891 0.175621162036567 53.3809286965254 
! Gamma         0                0                0                0                
! Port Impedance         50               0                50               0                
78.5                           0.175792928756355 53.3353879144787 0.981405637573928 -35.7631703699975 0.981405637573927 -35.7631703699973 0.175792540260226 53.3369770459803 
! Gamma         0                0                0                0                
! Port Impedance         50               0                50               0                
78.6                           0.175964125258549 53.2914355977351 0.981373239232317 -35.8077392133432 0.981373239232317 -35.807739213343 0.17596373603682 53.2930270103038 
! Gamma         0                0                0                0                
! Port Impedance         50               0                50               0                
78.7                           0.176135139129445 53.2474849042091 0.981340842633969 -35.8523055792656 0.981340842633969 -35.8523055792654 0.176134749181424 53.2490785997553 
! Gamma         0                0                0                0                
! Port Impedance         50               0                50               0                
78.8                           0.176305970184197 53.2035358442192 0.981308447891087 -35.8968694701207 0.981308447891087 -35.8968694701205 0.176305579509215 53.2051318246632 
! Gamma         0                0                0                0                
! Port Impedance         50               0                50               0                
78.9                           0.176476618238061 53.1595884281528 0.98127605511585 -35.9414308882814 0.981276055115849 -35.9414308882812 0.176476226835472 53.1611866954241 
! Gamma         0                0                0                0                
! Port Impedance         50               0                50               0                
79                             0.176647083106397 53.1156426664661 0.981243664420406 -35.985989836137 0.981243664420405 -35.9859898361368 0.176646690975576 53.1172432225041 
! Gamma         0                0                0                0                
! Port Impedance         50               0                50               0                
79.1                           0.176817364604672 53.0716985696846 0.981211275916875 -36.0305463160939 0.981211275916875 -36.0305463160937 0.176816971745018 53.0733014164377 
! Gamma         0                0                0                0                
! Port Impedance         50               0                50               0                
79.2                           0.176987462548458 53.0277561484026 0.981178889717349 -36.075100330575 0.981178889717349 -36.0751003305748 0.176987068959394 53.0293612878289 
! Gamma         0                0                0                0                
! Port Impedance         50               0                50               0                
79.3                           0.17715737675344 52.9838154132841 0.981146505933889 -36.1196518820201 0.981146505933888 -36.1196518820199 0.177156982434411 52.9854228473511 
! Gamma         0                0                0                0                
! Port Impedance         50               0                50               0                
79.4                           0.177327107035411 52.9398763750624 0.981114124678523 -36.1642009728858 0.981114124678523 -36.1642009728856 0.177326711985888 52.941486105747  
! Gamma         0                0                0                0                
! Port Impedance         50               0                50               0                
79.5                           0.17749665321028 52.8959390445405 0.981081746063252 -36.2087476056455 0.981081746063251 -36.2087476056453 0.177496257429756 52.897551073829  
! Gamma         0                0                0                0                
! Port Impedance         50               0                50               0                
79.6                           0.177666015094069 52.8520034325911 0.981049370200041 -36.2532917827891 0.98104937020004 -36.2532917827889 0.177665618582062 52.8536177624792 
! Gamma         0                0                0                0                
! Port Impedance         50               0                50               0                
79.7                           0.177835192502917 52.8080695501571 0.981016997200824 -36.2978335068237 0.981016997200823 -36.2978335068235 0.177834795258971 52.8096861826496 
! Gamma         0                0                0                0                
! Port Impedance         50               0                50               0                
79.8                           0.178004185253082 52.764137408251  0.980984627177502 -36.342372780273 0.980984627177502 -36.3423727802728 0.178003787276765 52.7657563453623 
! Gamma         0                0                0                0                
! Port Impedance         50               0                50               0                
79.9                           0.178172993160944 52.7202070179558 0.980952260241942 -36.3869096056775 0.980952260241942 -36.3869096056773 0.17817259445185 52.7218282617095 
! Gamma         0                0                0                0                
! Port Impedance         50               0                50               0                
80                             0.178341616043004 52.6762783904248 0.980919896505976 -36.4314439855944 0.980919896505976 -36.4314439855942 0.178341216600751 52.6779019428537 
! Gamma         0                0                0                0                
! Port Impedance         50               0                50               0                
80.1                           0.178510053715888 52.6323515368816 0.980887536081402 -36.475975922598 0.980887536081401 -36.4759759225978 0.178509653540121 52.6339774000277 
! Gamma         0                0                0                0                
! Port Impedance         50               0                50               0                
80.2                           0.178678305996346 52.5884264686205 0.980855179079979 -36.5205054192792 0.980855179079978 -36.520505419279 0.178677905086739 52.5900546445351 
! Gamma         0                0                0                0                
! Port Impedance         50               0                50               0                
80.3                           0.178846372701261 52.5445031970064 0.980822825613433 -36.5650324782458 0.980822825613432 -36.5650324782456 0.178845971057509 52.54613368775   
! Gamma         0                0                0                0                
! Port Impedance         50               0                50               0                
80.4                           0.179014253647641 52.500581733475  0.980790475793451 -36.6095571021224 0.980790475793451 -36.6095571021222 0.17901385126947 52.5022145411171 
! Gamma         0                0                0                0                
! Port Impedance         50               0                50               0                
80.5                           0.179181948652628 52.456662089533  0.980758129731685 -36.6540792935504 0.980758129731684 -36.6540792935502 0.179181545539791 52.4582972161524 
! Gamma         0                0                0                0                
! Port Impedance         50               0                50               0                
80.6                           0.1793494575335  52.412744276758  0.980725787539744 -36.6985990551881 0.980725787539743 -36.6985990551879 0.179349053685774 52.4143817244425 
! Gamma         0                0                0                0                
! Port Impedance         50               0                50               0                
80.7                           0.179516780107666 52.3688283067988 0.980693449329202 -36.7431163897107 0.980693449329201 -36.7431163897105 0.179516375524861 52.3704680776454 
! Gamma         0                0                0                0                
! Port Impedance         50               0                50               0                
80.8                           0.179683916192679 52.3249141913755 0.980661115211591 -36.7876312998101 0.980661115211591 -36.7876312998099 0.179683510874628 52.3265562874901 
! Gamma         0                0                0                0                
! Port Impedance         50               0                50               0                
80.9                           0.179850865606225 52.2810019422795 0.980628785298406 -36.8321437881952 0.980628785298405 -36.832143788195 0.179850459552792 52.282646365777  
! Gamma         0                0                0                0                
! Port Impedance         50               0                50               0                
81                             0.180017628166137 52.2370915713736 0.980596459701096 -36.8766538575917 0.980596459701096 -36.8766538575915 0.180017221377215 52.2387383243781 
! Gamma         0                0                0                0                
! Port Impedance         50               0                50               0                
81.1                           0.180184203690389 52.1931830905922 0.980564138531075 -36.9211615107421 0.980564138531074 -36.9211615107419 0.180183796165898 52.1948321752366 
! Gamma         0                0                0                0                
! Port Impedance         50               0                50               0                
81.2                           0.180350591997101 52.1492765119415 0.980531821899708 -36.9656667504059 0.980531821899708 -36.9656667504057 0.180350183736991 52.1509279303675 
! Gamma         0                0                0                0                
! Port Impedance         50               0                50               0                
81.3                           0.180516792904541 52.105371847499  0.980499509918323 -37.0101695793593 0.980499509918323 -37.0101695793591 0.180516383908792 52.1070256018576 
! Gamma         0                0                0                0                
! Port Impedance         50               0                50               0                
81.4                           0.180682806231125 52.0614691094146 0.980467202698202 -37.0546700003955 0.980467202698202 -37.0546700003953 0.180682396499746 52.0631252018652 
! Gamma         0                0                0                0                
! Port Impedance         50               0                50               0                
81.5                           0.180848631795422 52.0175683099096 0.980434900350583 -37.0991680163246 0.980434900350583 -37.0991680163244 0.180848221328453 52.0192267426209 
! Gamma         0                0                0                0                
! Port Impedance         50               0                50               0                
81.6                           0.181014269416153 51.9736694612777 0.980402602986661 -37.1436636299735 0.98040260298666 -37.1436636299733 0.181013858213665 51.9753302364268 
! Gamma         0                0                0                0                
! Port Impedance         50               0                50               0                
81.7                           0.181179718912197 51.9297725758844 0.980370310717583 -37.1881568441861 0.980370310717582 -37.1881568441859 0.18117930697429 51.9314356956575 
! Gamma         0                0                0                0                
! Port Impedance         50               0                50               0                
81.8                           0.181344980102588 51.8858776661676 0.980338023654452 -37.232647661823 0.980338023654452 -37.2326476618228 0.181344567429394 51.8875431327594 
! Gamma         0                0                0                0                
! Port Impedance         50               0                50               0                
81.9                           0.181510052806519 51.8419847446372 0.980305741908326 -37.2771360857619 0.980305741908325 -37.2771360857617 0.181509639398201 51.8436525602512 
! Gamma         0                0                0                0                
! Port Impedance         50               0                50               0                
82                             0.181674936843347 51.7980938238757 0.980273465590213 -37.3216221188973 0.980273465590212 -37.3216221188971 0.181674522700099 51.7997639907241 
! Gamma         0                0                0                0                
! Port Impedance         50               0                50               0                
82.1                           0.181839632032589 51.7542049165376 0.980241194811075 -37.3661057641406 0.980241194811074 -37.3661057641404 0.181839217154639 51.7558774368413 
! Gamma         0                0                0                0                
! Port Impedance         50               0                50               0                
82.2                           0.182004138193931 51.7103180353503 0.980208929681825 -37.4105870244201 0.980208929681825 -37.4105870244199 0.182003722581537 51.7119929113387 
! Gamma         0                0                0                0                
! Port Impedance         50               0                50               0                
82.3                           0.182168455147225 51.6664331931134 0.980176670313329 -37.4550659026811 0.980176670313328 -37.4550659026809 0.182168038800677 51.6681104270246 
! Gamma         0                0                0                0                
! Port Impedance         50               0                50               0                
82.4                           0.18233258271249 51.6225504026993 0.9801444168164  -37.4995424018857 0.9801444168164  -37.4995424018855 0.182332165632113 51.6242299967797 
! Gamma         0                0                0                0                
! Port Impedance         50               0                50               0                
82.5                           0.18249652070992 51.5786696770529 0.980112169301804 -37.544016525013 0.980112169301804 -37.5440165250128 0.182496102896072 51.5803516335577 
! Gamma         0                0                0                0                
! Port Impedance         50               0                50               0                
82.6                           0.182660268959882 51.5347910291918 0.980079927880255 -37.588488275059 0.980079927880254 -37.5884882750588 0.182659850412952 51.5364753503847 
! Gamma         0                0                0                0                
! Port Impedance         50               0                50               0                
82.7                           0.182823827282916 51.4909144722065 0.980047692662415 -37.6329576550366 0.980047692662415 -37.6329576550364 0.182823408003328 51.4926011603595 
! Gamma         0                0                0                0                
! Port Impedance         50               0                50               0                
82.8                           0.182987195499742 51.4470400192604 0.980015463758896 -37.6774246679756 0.980015463758895 -37.6774246679754 0.182986775487955 51.4487290766537 
! Gamma         0                0                0                0                
! Port Impedance         50               0                50               0                
82.9                           0.183150373431259 51.4031676835894 0.979983241280254 -37.7218893169229 0.979983241280254 -37.7218893169227 0.183149952687765 51.404859112512  
! Gamma         0                0                0                0                
! Port Impedance         50               0                50               0                
83                             0.183313360898547 51.3592974785027 0.979951025336997 -37.766351604942 0.979951025336997 -37.7663516049418 0.183312939423874 51.3609912812517 
! Gamma         0                0                0                0                
! Port Impedance         50               0                50               0                
83.1                           0.183476157722871 51.3154294173823 0.979918816039574 -37.8108115351137 0.979918816039573 -37.8108115351135 0.183475735517581 51.3171255962631 
! Gamma         0                0                0                0                
! Port Impedance         50               0                50               0                
83.2                           0.183638763725682 51.2715635136832 0.979886613498381 -37.8552691105356 0.979886613498381 -37.8552691105354 0.18363834079037 51.2732620710096 
! Gamma         0                0                0                0                
! Port Impedance         50               0                50               0                
83.3                           0.183801178728617 51.2276997809336 0.979854417823762 -37.899724334322 0.979854417823762 -37.8997243343218 0.183800755063917 51.2294007190274 
! Gamma         0                0                0                0                
! Port Impedance         50               0                50               0                
83.4                           0.183963402553504 51.1838382327346 0.979822229126002 -37.9441772096046 0.979822229126001 -37.9441772096044 0.183962978160084 51.1855415539261 
! Gamma         0                0                0                0                
! Port Impedance         50               0                50               0                
83.5                           0.184125435022364 51.1399788827606 0.97979004751533 -37.9886277395317 0.97979004751533 -37.9886277395315 0.184125009900927 51.1416845893879 
! Gamma         0                0                0                0                
! Port Impedance         50               0                50               0                
83.6                           0.18428727595741 51.0961217447591 0.97975787310192 -38.0330759272687 0.97975787310192 -38.0330759272685 0.184286850108698 51.0978298391686 
! Gamma         0                0                0                0                
! Port Impedance         50               0                50               0                
83.7                           0.184448925181053 51.0522668325508 0.979725705995887 -38.0775217759979 0.979725705995887 -38.0775217759977 0.184448498605843 51.053977317097  
! Gamma         0                0                0                0                
! Port Impedance         50               0                50               0                
83.8                           0.184610382515901 51.0084141600296 0.979693546307289 -38.1219652889185 0.979693546307289 -38.1219652889183 0.184609955215008 51.010127037075  
! Gamma         0                0                0                0                
! Port Impedance         50               0                50               0                
83.9                           0.184771647784764 50.9645637411628 0.979661394146124 -38.1664064692468 0.979661394146124 -38.1664064692466 0.184771219759038 50.9662790130777 
! Gamma         0                0                0                0                
! Port Impedance         50               0                50               0                
84                             0.184932720810653 50.9207155899907 0.979629249622332 -38.2108453202159 0.979629249622331 -38.2108453202157 0.184932292060984 50.9224332591537 
! Gamma         0                0                0                0                
! Port Impedance         50               0                50               0                
84.1                           0.185093601416785 50.8768697206272 0.979597112845792 -38.2552818450761 0.979597112845792 -38.2552818450759 0.185093171944099 50.8785897894247 
! Gamma         0                0                0                0                
! Port Impedance         50               0                50               0                
84.2                           0.185254289426581 50.8330261472593 0.979564983926324 -38.2997160470943 0.979564983926323 -38.2997160470941 0.185253859231844 50.8347486180855 
! Gamma         0                0                0                0                
! Port Impedance         50               0                50               0                
84.3                           0.185414784663674 50.7891848841476 0.979532862973685 -38.3441479295547 0.979532862973685 -38.3441479295545 0.185414353747888 50.7909097594045 
! Gamma         0                0                0                0                
! Port Impedance         50               0                50               0                
84.4                           0.185575086951906 50.7453459456258 0.979500750097572 -38.3885774957583 0.979500750097572 -38.3885774957581 0.185574655316114 50.7470732277233 
! Gamma         0                0                0                0                
! Port Impedance         50               0                50               0                
84.5                           0.185735196115332 50.7015093461011 0.97946864540762 -38.4330047490231 0.979468645407619 -38.4330047490229 0.185734763760615 50.7032390374569 
! Gamma         0                0                0                0                
! Port Impedance         50               0                50               0                
84.6                           0.185895111978224 50.6576751000541 0.979436549013398 -38.4774296926841 0.979436549013398 -38.4774296926838 0.185894678905701 50.6594072030935 
! Gamma         0                0                0                0                
! Port Impedance         50               0                50               0                
84.7                           0.186054834365068 50.6138432220387 0.979404461024415 -38.5218523300931 0.979404461024415 -38.5218523300929 0.1860544005759  50.6155777391947 
! Gamma         0                0                0                0                
! Port Impedance         50               0                50               0                
84.8                           0.186214363100573 50.5700137266823 0.979372381550115 -38.5662726646192 0.979372381550115 -38.566272664619 0.186213928595959 50.5717506603956 
! Gamma         0                0                0                0                
! Port Impedance         50               0                50               0                
84.9                           0.186373698009666 50.5261866286856 0.979340310699877 -38.6106906996481 0.979340310699876 -38.6106906996479 0.186373262790847 50.5279259814044 
! Gamma         0                0                0                0                
! Port Impedance         50               0                50               0                
85                             0.186532838917501 50.4823619428229 0.979308248583013 -38.6551064385829 0.979308248583013 -38.6551064385827 0.186532402985757 50.4841037170029 
! Gamma         0                0                0                0                
! Port Impedance         50               0                50               0                
85.1                           0.186691785649456 50.4385396839416 0.979276195308773 -38.6995198848432 0.979276195308772 -38.699519884843 0.186691349006108 50.4402838820461 
! Gamma         0                0                0                0                
! Port Impedance         50               0                50               0                
85.2                           0.186850538031137 50.3947198669627 0.979244150986337 -38.743931041866 0.979244150986336 -38.7439310418658 0.186850100677547 50.3964664914625 
! Gamma         0                0                0                0                
! Port Impedance         50               0                50               0                
85.3                           0.187009095888379 50.3509025068807 0.979212115724819 -38.788339913105 0.979212115724819 -38.7883399131048 0.187008657825952 50.3526515602538 
! Gamma         0                0                0                0                
! Port Impedance         50               0                50               0                
85.4                           0.187167459047253 50.3070876187632 0.979180089633268 -38.832746502031 0.979180089633267 -38.8327465020308 0.187167020277432 50.3088391034952 
! Gamma         0                0                0                0                
! Port Impedance         50               0                50               0                
85.5                           0.18732562733406 50.2632752177513 0.979148072820659 -38.8771508121318 0.979148072820659 -38.8771508121316 0.187325187858333 50.2650291363352 
! Gamma         0                0                0                0                
! Port Impedance         50               0                50               0                
85.6                           0.18748360057534 50.2194653190597 0.979116065395904 -38.9215528469121 0.979116065395903 -38.9215528469119 0.187483160395237 50.2212216739954 
! Gamma         0                0                0                0                
! Port Impedance         50               0                50               0                
85.7                           0.187641378597871 50.175657937976  0.979084067467841 -38.9659526098936 0.979084067467841 -38.9659526098934 0.187640937714963 50.1774167317711 
! Gamma         0                0                0                0                
! Port Impedance         50               0                50               0                
85.8                           0.187798961228673 50.1318530898616 0.979052079145243 -39.0103501046152 0.979052079145243 -39.010350104615 0.187798519644574 50.1336143250305 
! Gamma         0                0                0                0                
! Port Impedance         50               0                50               0                
85.9                           0.187956348295006 50.0880507901509 0.979020100536807 -39.0547453346323 0.979020100536807 -39.0547453346321 0.187955906011374 50.0898144692153 
! Gamma         0                0                0                0                
! Port Impedance         50               0                50               0                
86                             0.188113539624379 50.0442510543518 0.978988131751162 -39.0991383035179 0.978988131751162 -39.0991383035177 0.188113096642915 50.0460171798405 
! Gamma         0                0                0                0                
! Port Impedance         50               0                50               0                
86.1                           0.188270535044545 50.0004538980453 0.978956172896865 -39.1435290148614 0.978956172896865 -39.1435290148612 0.188270091366994 50.0022224724942 
! Gamma         0                0                0                0                
! Port Impedance         50               0                50               0                
86.2                           0.18842733438351 49.9566593368857 0.978924224082399 -39.1879174722696 0.978924224082399 -39.1879174722694 0.188426890011659 49.9584303628377 
! Gamma         0                0                0                0                
! Port Impedance         50               0                50               0                
86.3                           0.188583937469528 49.9128673866006 0.978892285416176 -39.2323036793662 0.978892285416176 -39.232303679366 0.18858349240521 49.9146408666056 
! Gamma         0                0                0                0                
! Port Impedance         50               0                50               0                
86.4                           0.188740344131109 49.8690780629909 0.978860357006534 -39.2766876397917 0.978860357006533 -39.2766876397915 0.188739898376202 49.8708539996055 
! Gamma         0                0                0                0                
! Port Impedance         50               0                50               0                
86.5                           0.188896554197019 49.8252913819303 0.978828438961734 -39.3210693572039 0.978828438961734 -39.3210693572037 0.188896107753445 49.8270697777182 
! Gamma         0                0                0                0                
! Port Impedance         50               0                50               0                
86.6                           0.189052567496282 49.781507359366  0.978796531389968 -39.3654488352772 0.978796531389967 -39.365448835277 0.189052120366008 49.7832882168977 
! Gamma         0                0                0                0                
! Port Impedance         50               0                50               0                
86.7                           0.189208383858182 49.7377260113181 0.978764634399346 -39.4098260777034 0.978764634399346 -39.4098260777032 0.18920793604322 49.7395093331707 
! Gamma         0                0                0                0                
! Port Impedance         50               0                50               0                
86.8                           0.189364003112266 49.6939473538798 0.978732748097908 -39.454201088191 0.978732748097908 -39.4542010881908 0.189363554614673 49.6957331426373 
! Gamma         0                0                0                0                
! Port Impedance         50               0                50               0                
86.9                           0.189519425088346 49.6501714032173 0.978700872593614 -39.4985738704656 0.978700872593614 -39.4985738704654 0.189518975910227 49.6519596614703 
! Gamma         0                0                0                0                
! Port Impedance         50               0                50               0                
87                             0.1896746496165  49.60639817557   0.978669007994348 -39.5429444282698 0.978669007994348 -39.5429444282696 0.189674199760005 49.6081889059157 
! Gamma         0                0                0                0                
! Port Impedance         50               0                50               0                
87.1                           0.189829676527077 49.5626276872497 0.978637154407916 -39.5873127653632 0.978637154407915 -39.5873127653629 0.189829225994402 49.564420892292  
! Gamma         0                0                0                0                
! Port Impedance         50               0                50               0                
87.2                           0.189984505650695 49.5188599546417 0.978605311942046 -39.6316788855222 0.978605311942045 -39.631678885522 0.189984054444083 49.520655636991  
! Gamma         0                0                0                0                
! Port Impedance         50               0                50               0                
87.3                           0.190139136818247 49.4750949942039 0.978573480704387 -39.6760427925405 0.978573480704387 -39.6760427925403 0.190138684939989 49.4768931564768 
! Gamma         0                0                0                0                
! Port Impedance         50               0                50               0                
87.4                           0.190293569860903 49.4313328224667 0.97854166080251 -39.7204044902286 0.978541660802509 -39.7204044902283 0.190293117313336 49.4331334672867 
! Gamma         0                0                0                0                
! Port Impedance         50               0                50               0                
87.5                           0.190447804610108 49.3875734560337 0.978509852343903 -39.7647639824139 0.978509852343903 -39.7647639824137 0.190447351395617 49.3893765860303 
! Gamma         0                0                0                0                
! Port Impedance         50               0                50               0                
87.6                           0.190601840897589 49.343816911581  0.978478055435977 -39.8091212729411 0.978478055435976 -39.8091212729409 0.190601387018607 49.3456225293902 
! Gamma         0                0                0                0                
! Port Impedance         50               0                50               0                
87.7                           0.190755678555355 49.3000632058572 0.978446270186059 -39.8534763656717 0.978446270186058 -39.8534763656715 0.190755224014363 49.3018713141213 
! Gamma         0                0                0                0                
! Port Impedance         50               0                50               0                
87.8                           0.190909317415699 49.2563123556836 0.978414496701396 -39.897829264484 0.978414496701395 -39.8978292644838 0.190908862215228 49.258122957051  
! Gamma         0                0                0                0                
! Port Impedance         50               0                50               0                
87.9                           0.191062757311203 49.2125643779541 0.978382735089151 -39.9421799732737 0.978382735089151 -39.9421799732735 0.191062301453829 49.2143774750795 
! Gamma         0                0                0                0                
! Port Impedance         50               0                50               0                
88                             0.191215998074736 49.1688192896348 0.978350985456407 -39.9865284959531 0.978350985456407 -39.9865284959529 0.191215541563086 49.170634885179  
! Gamma         0                0                0                0                
! Port Impedance         50               0                50               0                
88.1                           0.191369039539457 49.1250771077645 0.978319247910161 -40.0308748364517 0.978319247910161 -40.0308748364515 0.191368582376209 49.1268952043944 
! Gamma         0                0                0                0                
! Port Impedance         50               0                50               0                
88.2                           0.191521881538821 49.081337849454  0.978287522557327 -40.075218998716 0.978287522557327 -40.0752189987158 0.1915214237267  49.0831584498424 
! Gamma         0                0                0                0                
! Port Impedance         50               0                50               0                
88.3                           0.191674523906578 49.0376015318866 0.978255809504734 -40.1195609867094 0.978255809504734 -40.1195609867092 0.19167406544836 49.0394246387124 
! Gamma         0                0                0                0                
! Port Impedance         50               0                50               0                
88.4                           0.191826966476775 48.9938681723176 0.978224108859126 -40.1639008044122 0.978224108859126 -40.163900804412 0.191826507375284 48.9956937882657 
! Gamma         0                0                0                0                
! Port Impedance         50               0                50               0                
88.5                           0.191979209083759 48.9501377880746 0.978192420727162 -40.2082384558219 0.978192420727162 -40.2082384558217 0.191978749341873 48.9519659158355 
! Gamma         0                0                0                0                
! Port Impedance         50               0                50               0                
88.6                           0.19213125156218 48.9064103965572 0.978160745215413 -40.2525739449529 0.978160745215413 -40.2525739449527 0.192130791182824 48.9082410388274 
! Gamma         0                0                0                0                
! Port Impedance         50               0                50               0                
88.7                           0.192283093746992 48.8626860152367 0.978129082430365 -40.2969072758364 0.978129082430365 -40.2969072758362 0.192282632733144 48.8645191747184 
! Gamma         0                0                0                0                
! Port Impedance         50               0                50               0                
88.8                           0.192434735473456 48.8189646616567 0.978097432478415 -40.3412384525209 0.978097432478415 -40.3412384525207 0.192434273828144 48.8208003410578 
! Gamma         0                0                0                0                
! Port Impedance         50               0                50               0                
88.9                           0.192586176577142 48.7752463534322 0.978065795465873 -40.3855674790717 0.978065795465873 -40.3855674790714 0.192585714303446 48.7770845554663 
! Gamma         0                0                0                0                
! Port Impedance         50               0                50               0                
89                             0.19273741689393 48.7315311082503 0.978034171498961 -40.4298943595709 0.978034171498961 -40.4298943595707 0.192736953994982 48.7333718356366 
! Gamma         0                0                0                0                
! Port Impedance         50               0                50               0                
89.1                           0.192888456260015 48.6878189438694 0.97800256068381 -40.474219098118 0.97800256068381 -40.4742190981178 0.192887992738997 48.6896621993326 
! Gamma         0                0                0                0                
! Port Impedance         50               0                50               0                
89.2                           0.193039294511906 48.6441098781198 0.977970963126462 -40.5185416988291 0.977970963126462 -40.5185416988289 0.193038830372055 48.6459556643901 
! Gamma         0                0                0                0                
! Port Impedance         50               0                50               0                
89.3                           0.193189931486431 48.6004039289029 0.97793937893287 -40.5628621658375 0.977939378932869 -40.5628621658373 0.193189466731034 48.602252248716  
! Gamma         0                0                0                0                
! Port Impedance         50               0                50               0                
89.4                           0.193340367020738 48.5567011141918 0.977907808208893 -40.6071805032933 0.977907808208893 -40.6071805032931 0.193339901653135 48.5585519702887 
! Gamma         0                0                0                0                
! Port Impedance         50               0                50               0                
89.5                           0.193490600952296 48.5130014520308 0.977876251060303 -40.6514967153637 0.977876251060303 -40.6514967153635 0.193490134975881 48.5148548471578 
! Gamma         0                0                0                0                
! Port Impedance         50               0                50               0                
89.6                           0.193640633118899 48.4693049605353 0.977844707592777 -40.6958108062329 0.977844707592776 -40.6958108062327 0.19364016653712 48.4711608974441 
! Gamma         0                0                0                0                
! Port Impedance         50               0                50               0                
89.7                           0.193790463358668 48.4256116578919 0.977813177911898 -40.7401227801019 0.977813177911898 -40.7401227801017 0.193789996175024 48.4274701393393 
! Gamma         0                0                0                0                
! Port Impedance         50               0                50               0                
89.8                           0.193940091510054 48.3819215623582 0.977781662123161 -40.7844326411888 0.977781662123161 -40.7844326411886 0.193939623728098 48.3837825911062 
! Gamma         0                0                0                0                
! Port Impedance         50               0                50               0                
89.9                           0.194089517411835 48.3382346922626 0.977750160331963 -40.8287403937286 0.977750160331962 -40.8287403937284 0.194089049035177 48.3400982710785 
! Gamma         0                0                0                0                
! Port Impedance         50               0                50               0                
90                             0.194238740903128 48.2945510660046 0.977718672643607 -40.8730460419733 0.977718672643607 -40.8730460419731 0.194238271935429 48.2964171976604 
! Gamma         0                0                0                0                
! Port Impedance         50               0                50               0                
90.1                           0.194387761823381 48.2508707020541 0.977687199163304 -40.9173495901919 0.977687199163304 -40.9173495901917 0.194387292268358 48.2527393893269 
! Gamma         0                0                0                0                
! Port Impedance         50               0                50               0                
90.2                           0.194536580012382 48.2071936189518 0.977655739996167 -40.9616510426703 0.977655739996167 -40.9616510426701 0.194536109873806 48.2090648646238 
! Gamma         0                0                0                0                
! Port Impedance         50               0                50               0                
90.3                           0.194685195310259 48.1635198353088 0.977624295247214 -41.0059504037113 0.977624295247213 -41.0059504037111 0.194684724591956 48.1653936421669 
! Gamma         0                0                0                0                
! Port Impedance         50               0                50               0                
90.4                           0.194833607557481 48.1198493698067 0.977592865021366 -41.0502476776347 0.977592865021365 -41.0502476776345 0.194833136263333 48.1217257406427 
! Gamma         0                0                0                0                
! Port Impedance         50               0                50               0                
90.5                           0.194981816594862 48.0761822411973 0.977561449423447 -41.0945428687774 0.977561449423447 -41.0945428687772 0.194981344728806 48.0780611788077 
! Gamma         0                0                0                0                
! Port Impedance         50               0                50               0                
90.6                           0.195129822263563 48.0325184683026 0.977530048558185 -41.138835981493 0.977530048558185 -41.1388359814928 0.195129349829592 48.0343999754888 
! Gamma         0                0                0                0                
! Port Impedance         50               0                50               0                
90.7                           0.195277624405093 47.9888580700148 0.977498662530208 -41.1831270201523 0.977498662530208 -41.1831270201521 0.195277151407256 47.9907421495826 
! Gamma         0                0                0                0                
! Port Impedance         50               0                50               0                
90.8                           0.195425222861314 47.9452010652958 0.977467291444045 -41.2274159891428 0.977467291444045 -41.2274159891426 0.195424749303716 47.9470877200557 
! Gamma         0                0                0                0                
! Port Impedance         50               0                50               0                
90.9                           0.19557261747444 47.9015474731776 0.977435935404128 -41.2717028928691 0.977435935404128 -41.2717028928689 0.195572143361241 47.9034367059446 
! Gamma         0                0                0                0                
! Port Impedance         50               0                50               0                
91                             0.195719808087039 47.8578973127618 0.977404594514787 -41.3159877357526 0.977404594514787 -41.3159877357525 0.195719333422459 47.8597891263554 
! Gamma         0                0                0                0                
! Port Impedance         50               0                50               0                
91.1                           0.19586679454204 47.8142506032195 0.977373268880252 -41.360270522232 0.977373268880251 -41.3602705222318 0.195866319330354 47.8161450004638 
! Gamma         0                0                0                0                
! Port Impedance         50               0                50               0                
91.2                           0.19601357668273 47.7706073637916 0.977341958604652 -41.4045512567624 0.977341958604652 -41.4045512567622 0.19601310092827 47.7725043475147 
! Gamma         0                0                0                0                
! Port Impedance         50               0                50               0                
91.3                           0.196160154352757 47.726967613788  0.977310663792017 -41.4488299438163 0.977310663792016 -41.4488299438161 0.196159678059914 47.7288671868226 
! Gamma         0                0                0                0                
! Port Impedance         50               0                50               0                
91.4                           0.196306527396137 47.6833313725881 0.977279384546269 -41.4931065878829 0.977279384546269 -41.4931065878827 0.196306050569358 47.685233537771  
! Gamma         0                0                0                0                
! Port Impedance         50               0                50               0                
91.5                           0.19645269565725 47.6396986596404 0.977248120971235 -41.5373811934683 0.977248120971235 -41.5373811934681 0.19645221830104 47.6416034198125 
! Gamma         0                0                0                0                
! Port Impedance         50               0                50               0                
91.6                           0.196598658980845 47.5960694944622 0.977216873170633 -41.5816537650956 0.977216873170633 -41.5816537650954 0.196598181099768 47.5979768524687 
! Gamma         0                0                0                0                
! Port Impedance         50               0                50               0                
91.7                           0.196744417212043 47.5524438966399 0.977185641248079 -41.6259243073049 0.977185641248079 -41.6259243073047 0.19674393881072 47.5543538553299 
! Gamma         0                0                0                0                
! Port Impedance         50               0                50               0                
91.8                           0.196889970196337 47.5088218858284 0.977154425307085 -41.6701928246531 0.977154425307085 -41.6701928246529 0.19688949127945 47.5107344480551 
! Gamma         0                0                0                0                
! Port Impedance         50               0                50               0                
91.9                           0.197035317779597 47.4652034817514 0.977123225451059 -41.714459321714 0.977123225451059 -41.7144593217139 0.197034838351885 47.467118650372  
! Gamma         0                0                0                0                
! Port Impedance         50               0                50               0                
92                             0.197180459808069 47.421588704201  0.977092041783303 -41.7587238030785 0.977092041783303 -41.7587238030783 0.197179979874332 47.4235064820764 
! Gamma         0                0                0                0                
! Port Impedance         50               0                50               0                
92.1                           0.197325396128381 47.3779775730375 0.977060874407011 -41.8029862733542 0.977060874407011 -41.802986273354 0.197324915693476 47.3798979630326 
! Gamma         0                0                0                0                
! Port Impedance         50               0                50               0                
92.2                           0.19747012658754 47.3343701081897 0.977029723425274 -41.8472467371657 0.977029723425274 -41.8472467371656 0.197469645656385 47.336293113173  
! Gamma         0                0                0                0                
! Port Impedance         50               0                50               0                
92.3                           0.197614651032942 47.2907663296541 0.976998588941073 -41.8915051991545 0.976998588941073 -41.8915051991544 0.197614169610514 47.292691952498  
! Gamma         0                0                0                0                
! Port Impedance         50               0                50               0                
92.4                           0.197758969312364 47.2471662574954 0.976967471057284 -41.9357616639791 0.976967471057284 -41.9357616639789 0.197758487403701 47.2490945010758 
! Gamma         0                0                0                0                
! Port Impedance         50               0                50               0                
92.5                           0.197903081273976 47.203569911846  0.976936369876673 -41.9800161363146 0.976936369876673 -41.9800161363144 0.197902598884175 47.2055007790423 
! Gamma         0                0                0                0                
! Port Impedance         50               0                50               0                
92.6                           0.198046986766337 47.1599773129058 0.976905285501898 -42.0242686208533 0.976905285501898 -42.0242686208531 0.198046503900557 47.1619108066011 
! Gamma         0                0                0                0                
! Port Impedance         50               0                50               0                
92.7                           0.198190685638399 47.1163884809423 0.976874218035508 -42.0685191223043 0.976874218035508 -42.0685191223041 0.198190202301859 47.1183246040231 
! Gamma         0                0                0                0                
! Port Impedance         50               0                50               0                
92.8                           0.198334177739511 47.0728034362905 0.976843167579942 -42.1127676453936 0.976843167579941 -42.1127676453934 0.19833369393749 47.0747421916466 
! Gamma         0                0                0                0                
! Port Impedance         50               0                50               0                
92.9                           0.198477462919417 47.0292221993523 0.976812134237527 -42.157014194864 0.976812134237527 -42.1570141948638 0.198476978657258 47.0311635898769 
! Gamma         0                0                0                0                
! Port Impedance         50               0                50               0                
93                             0.198620541028264 46.9856447905969 0.976781118110483 -42.2012587754752 0.976781118110483 -42.2012587754751 0.198620056311367 46.9875888191864 
! Gamma         0                0                0                0                
! Port Impedance         50               0                50               0                
93.1                           0.198763411916597 46.9420712305602 0.976750119300916 -42.245501392004 0.976750119300916 -42.2455013920038 0.198762926750426 46.9440179001144 
! Gamma         0                0                0                0                
! Port Impedance         50               0                50               0                
93.2                           0.198906075435367 46.898501539845  0.976719137910819 -42.2897420492437 0.976719137910819 -42.2897420492436 0.19890558982545 46.9004508532666 
! Gamma         0                0                0                0                
! Port Impedance         50               0                50               0                
93.3                           0.199048531435933 46.8549357391206 0.976688174042076 -42.3339807520049 0.976688174042075 -42.3339807520047 0.199048045387856 46.8568876993156 
! Gamma         0                0                0                0                
! Port Impedance         50               0                50               0                
93.4                           0.19919077977006 46.8113738491229 0.976657227796454 -42.3782175051146 0.976657227796454 -42.3782175051144 0.199190293289473 46.8133284590001 
! Gamma         0                0                0                0                
! Port Impedance         50               0                50               0                
93.5                           0.199332820289924 46.7678158906538 0.97662629927561 -42.422452313417 0.97662629927561 -42.4224523134168 0.19933233338254 46.7697731531252 
! Gamma         0                0                0                0                
! Port Impedance         50               0                50               0                
93.6                           0.199474652848115 46.7242618845816 0.976595388581084 -42.4666851817731 0.976595388581084 -42.4666851817729 0.199474165519709 46.7262218025618 
! Gamma         0                0                0                0                
! Port Impedance         50               0                50               0                
93.7                           0.199616277297637 46.6807118518404 0.976564495814304 -42.5109161150607 0.976564495814304 -42.5109161150605 0.199615789554047 46.6826744282471 
! Gamma         0                0                0                0                
! Port Impedance         50               0                50               0                
93.8                           0.199757693491912 46.6371658134302 0.97653362107658 -42.5551451181744 0.97653362107658 -42.5551451181742 0.199757205339038 46.6391310511838 
! Gamma         0                0                0                0                
! Port Impedance         50               0                50               0                
93.9                           0.19989890128478 46.5936237904166 0.976502764469109 -42.5993721960258 0.976502764469109 -42.5993721960256 0.199898412728588 46.5955916924401 
! Gamma         0                0                0                0                
! Port Impedance         50               0                50               0                
94                             0.200039900530504 46.5500858039307 0.97647192609297 -42.6435973535433 0.97647192609297 -42.6435973535431 0.200039411577021 46.5520563731499 
! Gamma         0                0                0                0                
! Port Impedance         50               0                50               0                
94.1                           0.200180691083771 46.5065518751689 0.976441106049125 -42.687820595672 0.976441106049125 -42.6878205956718 0.200180201739089 46.508525114512  
! Gamma         0                0                0                0                
! Port Impedance         50               0                50               0                
94.2                           0.200321272799692 46.4630220253928 0.976410304438421 -42.732041927374 0.97641030443842 -42.7320419273739 0.200320783069966 46.4649979377906 
! Gamma         0                0                0                0                
! Port Impedance         50               0                50               0                
94.3                           0.200461645533807 46.4194962759289 0.976379521361583 -42.7762613536282 0.976379521361583 -42.7762613536281 0.200461155425257 46.4214748643147 
! Gamma         0                0                0                0                
! Port Impedance         50               0                50               0                
94.4                           0.200601809142087 46.3759746481686 0.976348756919222 -42.8204788794303 0.976348756919222 -42.8204788794301 0.200601318660996 46.377955915478  
! Gamma         0                0                0                0                
! Port Impedance         50               0                50               0                
94.5                           0.200741763480934 46.3324571635678 0.976318011211828 -42.8646945097928 0.976318011211828 -42.8646945097926 0.200741272633652 46.3344411127388 
! Gamma         0                0                0                0                
! Port Impedance         50               0                50               0                
94.6                           0.200881508407186 46.2889438436471 0.976287284339771 -42.9089082497451 0.976287284339771 -42.9089082497449 0.200881017200125 46.2909304776199 
! Gamma         0                0                0                0                
! Port Impedance         50               0                50               0                
94.7                           0.201021043778117 46.2454347099912 0.976256576403301 -42.9531201043333 0.976256576403301 -42.9531201043331 0.201020552217755 46.2474240317082 
! Gamma         0                0                0                0                
! Port Impedance         50               0                50               0                
94.8                           0.201160369451439 46.2019297842491 0.976225887502549 -42.9973300786204 0.976225887502549 -42.9973300786202 0.201159877544319 46.2039217966547 
! Gamma         0                0                0                0                
! Port Impedance         50               0                50               0                
94.9                           0.201299485285307 46.1584290881335 0.976195217737524 -43.0415381776861 0.976195217737524 -43.041538177686 0.201298993038037 46.1604237941744 
! Gamma         0                0                0                0                
! Port Impedance         50               0                50               0                
95                             0.201438391138316 46.114932643421  0.976164567208113 -43.0857444066272 0.976164567208112 -43.0857444066271 0.201437898557571 46.1169300460459 
! Gamma         0                0                0                0                
! Port Impedance         50               0                50               0                
95.1                           0.20157708686951 46.071440471952  0.97613393601408 -43.1299487705569 0.97613393601408 -43.1299487705568 0.201576593962028 46.0734405741113 
! Gamma         0                0                0                0                
! Port Impedance         50               0                50               0                
95.2                           0.201715572338377 46.0279525956299 0.97610332425507 -43.1741512746055 0.97610332425507 -43.1741512746054 0.201715079110965 46.0299554002761 
! Gamma         0                0                0                0                
! Port Impedance         50               0                50               0                
95.3                           0.201853847404858 45.9844690364217 0.976072732030601 -43.2183519239199 0.9760727320306  -43.2183519239198 0.201853353864385 45.9864745465089 
! Gamma         0                0                0                0                
! Port Impedance         50               0                50               0                
95.4                           0.201991911929342 45.9409898163573 0.976042159440067 -43.2625507236638 0.976042159440068 -43.2625507236637 0.201991418082747 45.9429980348415 
! Gamma         0                0                0                0                
! Port Impedance         50               0                50               0                
95.5                           0.202129765772674 45.8975149575294 0.976011606582742 -43.3067476790179 0.976011606582742 -43.3067476790177 0.202129271626962 45.8995258873681 
! Gamma         0                0                0                0                
! Port Impedance         50               0                50               0                
95.6                           0.202267408796155 45.8540444820934 0.975981073557771 -43.3509427951793 0.975981073557771 -43.3509427951792 0.202266914358396 45.8560581262459 
! Gamma         0                0                0                0                
! Port Impedance         50               0                50               0                
95.7                           0.202404840861543 45.8105784122673 0.975950560464175 -43.3951360773622 0.975950560464175 -43.3951360773621 0.202404346138874 45.8125947736944 
! Gamma         0                0                0                0                
! Port Impedance         50               0                50               0                
95.8                           0.202542061831058 45.7671167703314 0.97592006740085 -43.4393275307974 0.97592006740085 -43.4393275307973 0.202541566830683 45.7691358519952 
! Gamma         0                0                0                0                
! Port Impedance         50               0                50               0                
95.9                           0.202679071567379 45.7236595786279 0.975889594466564 -43.4835171607325 0.975889594466564 -43.4835171607324 0.202678576296571 45.7256813834922 
! Gamma         0                0                0                0                
! Port Impedance         50               0                50               0                
96                             0.202815869933654 45.6802068595612 0.975859141759959 -43.5277049724319 0.975859141759959 -43.5277049724318 0.20281537439975 45.6822313905909 
! Gamma         0                0                0                0                
! Port Impedance         50               0                50               0                
96.1                           0.202952456793492 45.6367586355973 0.97582870937955 -43.5718909711767 0.97582870937955 -43.5718909711766 0.2029519610039  45.6387858957587 
! Gamma         0                0                0                0                
! Port Impedance         50               0                50               0                
96.2                           0.203088832010976 45.5933149292637 0.975798297423724 -43.6160751622647 0.975798297423724 -43.6160751622646 0.203088335973169 45.5953449215242 
! Gamma         0                0                0                0                
! Port Impedance         50               0                50               0                
96.3                           0.203224995450657 45.5498757631494 0.975767905990738 -43.6602575510105 0.975767905990738 -43.6602575510104 0.203224499172176 45.5519084904777 
! Gamma         0                0                0                0                
! Port Impedance         50               0                50               0                
96.4                           0.203360946977558 45.5064411599044 0.975737535178722 -43.7044381427455 0.975737535178722 -43.7044381427454 0.203360450466014 45.5084766252701 
! Gamma         0                0                0                0                
! Port Impedance         50               0                50               0                
96.5                           0.203496686457178 45.4630111422397 0.975707185085674 -43.7486169428176 0.975707185085674 -43.7486169428175 0.203496189720249 45.4650493486136 
! Gamma         0                0                0                0                
! Port Impedance         50               0                50               0                
96.6                           0.203632213755493 45.419585732927  0.975676855809465 -43.7927939565918 0.975676855809465 -43.7927939565917 0.203631716800925 45.4216266832808 
! Gamma         0                0                0                0                
! Port Impedance         50               0                50               0                
96.7                           0.203767528738959 45.3761649547988 0.975646547447833 -43.8369691894494 0.975646547447833 -43.8369691894493 0.203767031574567 45.3782086521049 
! Gamma         0                0                0                0                
! Port Impedance         50               0                50               0                
96.8                           0.203902631274512 45.3327488307477 0.975616260098385 -43.8811426467887 0.975616260098385 -43.8811426467886 0.203902133908178 45.3347952779795 
! Gamma         0                0                0                0                
! Port Impedance         50               0                50               0                
96.9                           0.20403752122957 45.2893373837265 0.975585993858599 -43.9253143340246 0.975585993858599 -43.9253143340245 0.204037023669248 45.2913865838581 
! Gamma         0                0                0                0                
! Port Impedance         50               0                50               0                
97                             0.204172198472039 45.245930636748  0.975555748825817 -43.9694842565888 0.975555748825817 -43.9694842565887 0.20417170072575 45.2479825927542 
! Gamma         0                0                0                0                
! Port Impedance         50               0                50               0                
97.1                           0.204306662870311 45.2025286128848 0.975525525097251 -44.0136524199296 0.97552552509725 -44.0136524199295 0.204306164946145 45.204583327741  
! Gamma         0                0                0                0                
! Port Impedance         50               0                50               0                
97.2                           0.204440914293267 45.1591313352691 0.975495322769978 -44.0578188295119 0.975495322769978 -44.0578188295118 0.204440416199383 45.1611888119511 
! Gamma         0                0                0                0                
! Port Impedance         50               0                50               0                
97.3                           0.20457495261028 45.1157388270921 0.975465141940944 -44.1019834908176 0.975465141940944 -44.1019834908175 0.204574454354908 45.1177990685764 
! Gamma         0                0                0                0                
! Port Impedance         50               0                50               0                
97.4                           0.204708777691216 45.0723511116045 0.975434982706958 -44.1461464093449 0.975434982706958 -44.1461464093448 0.204708279282655 45.0744141208679 
! Gamma         0                0                0                0                
! Port Impedance         50               0                50               0                
97.5                           0.204842389406438 45.0289682121157 0.975404845164696 -44.1903075906089 0.975404845164695 -44.1903075906088 0.204841890853057 45.0310339921355 
! Gamma         0                0                0                0                
! Port Impedance         50               0                50               0                
97.6                           0.204975787626805 44.9855901519941 0.975374729410696 -44.2344670401414 0.975374729410696 -44.2344670401413 0.204975288937042 44.9876587057475 
! Gamma         0                0                0                0                
! Port Impedance         50               0                50               0                
97.7                           0.205108972223677 44.9422169546662 0.975344635541365 -44.2786247634907 0.975344635541364 -44.2786247634907 0.20510847340604 44.944288285131  
! Gamma         0                0                0                0                
! Port Impedance         50               0                50               0                
97.8                           0.205241943068915 44.8988486436171 0.975314563652968 -44.322780766222 0.975314563652968 -44.3227807662219 0.205241444131983 44.9009227537711 
! Gamma         0                0                0                0                
! Port Impedance         50               0                50               0                
97.9                           0.205374700034884 44.85548524239   0.975284513841638 -44.3669350539169 0.975284513841637 -44.3669350539168 0.205374200987305 44.8575621352109 
! Gamma         0                0                0                0                
! Port Impedance         50               0                50               0                
98                             0.205507242994453 44.8121267745856 0.975254486203367 -44.4110876321737 0.975254486203367 -44.4110876321736 0.205506743844947 44.8142064530514 
! Gamma         0                0                0                0                
! Port Impedance         50               0                50               0                
98.1                           0.205639571821002 44.7687732638627 0.975224480834013 -44.4552385066075 0.975224480834012 -44.4552385066075 0.20563907257836 44.7708557309511 
! Gamma         0                0                0                0                
! Port Impedance         50               0                50               0                
98.2                           0.205771686388418 44.7254247339372 0.975194497829291 -44.4993876828499 0.975194497829291 -44.4993876828498 0.205771187061501 44.727509992626  
! Gamma         0                0                0                0                
! Port Impedance         50               0                50               0                
98.3                           0.205903586571102 44.6820812085825 0.975164537284781 -44.5435351665491 0.975164537284781 -44.5435351665491 0.205903087168841 44.684169261849  
! Gamma         0                0                0                0                
! Port Impedance         50               0                50               0                
98.4                           0.206035272243967 44.6387427116287 0.975134599295922 -44.5876809633701 0.975134599295922 -44.58768096337  0.206034772775365 44.6408335624502 
! Gamma         0                0                0                0                
! Port Impedance         50               0                50               0                
98.5                           0.206166743282443 44.5954092669629 0.975104683958012 -44.6318250789942 0.975104683958012 -44.6318250789942 0.206166243756574 44.5975029183163 
! Gamma         0                0                0                0                
! Port Impedance         50               0                50               0                
98.6                           0.206297999562477 44.5520808985287 0.975074791366211 -44.6759675191197 0.975074791366211 -44.6759675191197 0.206297499988487 44.5541773533905 
! Gamma         0                0                0                0                
! Port Impedance         50               0                50               0                
98.7                           0.206429040960536 44.508757630326  0.975044921615536 -44.7201082894612 0.975044921615535 -44.7201082894612 0.206428541347642 44.5108568916721 
! Gamma         0                0                0                0                
! Port Impedance         50               0                50               0                
98.8                           0.20655986735361 44.4654394864109 0.975015074800863 -44.7642473957501 0.975015074800862 -44.76424739575  0.206559367711099 44.4675415572169 
! Gamma         0                0                0                0                
! Port Impedance         50               0                50               0                
98.9                           0.20669047861921 44.4221264908953 0.974985251016927 -44.8083848437342 0.974985251016926 -44.8083848437342 0.206689978956444 44.4242313741359 
! Gamma         0                0                0                0                
! Port Impedance         50               0                50               0                
99                             0.206820874635376 44.3788186679468 0.974955450358319 -44.852520639178 0.974955450358318 -44.852520639178 0.206820374961786 44.3809263665962 
! Gamma         0                0                0                0                
! Port Impedance         50               0                50               0                
99.1                           0.206951055280673 44.3355160417885 0.974925672919488 -44.8966547878627 0.974925672919488 -44.8966547878626 0.206950555605763 44.3376265588202 
! Gamma         0                0                0                0                
! Port Impedance         50               0                50               0                
99.2                           0.207081020434198 44.2922186366985 0.974895918794739 -44.9407872955857 0.974895918794739 -44.9407872955857 0.207080520767544 44.2943319750852 
! Gamma         0                0                0                0                
! Port Impedance         50               0                50               0                
99.3                           0.207210769975578 44.2489264770102 0.974866188078234 -44.9849181681614 0.974866188078233 -44.9849181681614 0.207210270326827 44.2510426397236 
! Gamma         0                0                0                0                
! Port Impedance         50               0                50               0                
99.4                           0.207340303784973 44.2056395871116 0.974836480863988 -45.0290474114206 0.974836480863988 -45.0290474114205 0.207339804163847 44.2077585771224 
! Gamma         0                0                0                0                
! Port Impedance         50               0                50               0                
99.5                           0.207469621743081 44.1623579914451 0.974806797245875 -45.0731750312104 0.974806797245874 -45.0731750312104 0.207469122159372 44.1644798117232 
! Gamma         0                0                0                0                
! Port Impedance         50               0                50               0                
99.6                           0.207598723731135 44.1190817145078 0.974777137317619 -45.1173010333948 0.974777137317619 -45.1173010333948 0.207598224194709 44.1212063680218 
! Gamma         0                0                0                0                
! Port Impedance         50               0                50               0                
99.7                           0.207727609630908 44.0758107808503 0.974747501172801 -45.1614254238543 0.9747475011728  -45.1614254238543 0.207727110151703 44.0779382705679 
! Gamma         0                0                0                0                
! Port Impedance         50               0                50               0                
99.8                           0.207856279324716 44.0325452150775 0.974717888904853 -45.2055482084857 0.974717888904853 -45.2055482084857 0.207855779912743 44.034675543965  
! Gamma         0                0                0                0                
! Port Impedance         50               0                50               0                
99.9                           0.207984732695417 43.9892850418477 0.974688300607063 -45.2496693932025 0.974688300607063 -45.2496693932025 0.207984233360759 43.9914182128701 
! Gamma         0                0                0                0                
! Port Impedance         50               0                50               0                
100                            0.208112969626413 43.9460302858727 0.974658736372569 -45.2937889839347 0.974658736372568 -45.2937889839347 0.208112470379228 43.9481663019936 
! Gamma         -0               -0               0                0                
! Port Impedance         50               0                50               0                
