! Touchstone file exported from HFSS 2026.1.0
!        File:           C:/ffzhzh/LocalFiles/Ansys_Project_Files/temp_train_TSV_RDL_1387_1783349194_4416.aedt
!        Generated:      10:59:31 PM Jul  6, 2026
!        Design:         TSV_RDL
!        Project:        temp_train_TSV_RDL_1387_1783349194_4416
!
! Variables:
!        h_bsmrdl = 3.89um
!        h_ox = 20um
!        h_rdl = 5um
!        h_sub = 70.39um
!        h_tmrdl = 4.61um
!        h_tsv = 70.39um
!        h_via = 3um
!        l_bsmrdl = 173.4um
!        l_sub = 4987.08um
!        l_tmrdl = 997.16um
!        m_sub = 200um
!        pitch = 54.25um
!        r_tsv = 13.09um
!        s_tmrdl = 10um
!        w_bsmrdl = 11.43um
!        w_sub = 500um
!        w_tmrdl = 14.65um
!        x_tsv_center1 = 1004.485um
!        x_tsv_center2 = 1189.315um
!        x_tsv_center3 = 2201.125um
!        x_tsv_center4 = 2385.955um
!        x_tsv_center5 = 3397.765um
!        x_tsv_center6 = 3582.595um
!
# GHz S MA R 50.000000
! Terminal data exported
! Port[1] = TM_RDL1_1_T1
! Port[2] = TM_RDL5_1_T1
0.1                            0.0342641293543573 39.9108128256259 0.974234732308236 -1.99024163808364 0.974234732308235 -1.99024163808365 0.0342641395293068 39.9108240714699 
! Gamma         0                0                0                0                
! Port Impedance         50               0                50               0                
0.2                            0.0523328420077305 56.1444858120466 0.972881341759514 -3.95737343824557 0.972881341759513 -3.95737343824572 0.0523328504535094 56.1445069465202 
! Gamma         0                0                0                0                
! Port Impedance         50               0                50               0                
0.3                            0.0724739474580319 62.4661638564453 0.971022794131317 -5.89884984116874 0.971022794131312 -5.89884984116894 0.0724739451715506 62.4662038627955 
! Gamma         0                0                0                0                
! Port Impedance         50               0                50               0                
0.4                            0.0930559341298126 65.1433644836141 0.968804066126079 -7.82126363561083 0.968804066126072 -7.82126363561091 0.0930559192563648 65.1434302273391 
! Gamma         0                0                0                0                
! Port Impedance         50               0                50               0                
0.5                            0.11368318251142 66.1751428392272 0.966248894025008 -9.72920947240446 0.966248894025001 -9.72920947240437 0.113683160931427 66.1752370757528 
! Gamma         0                0                0                0                
! Port Impedance         50               0                50               0                
0.6                            0.134212406634018 66.3273463849078 0.963351860743098 -11.6241932599009 0.963351860743092 -11.6241932599007 0.134212388856545 66.3274689574379 
! Gamma         0                0                0                0                
! Port Impedance         50               0                50               0                
0.7                            0.15455954956742 65.9535485734477 0.960110867516976 -13.5060628559844 0.960110867516972 -13.5060628559841 0.154559547765225 65.9536978380816 
! Gamma         0                0                0                0                
! Port Impedance         50               0                50               0                
0.8                            0.174660598084744 65.2416247830717 0.956531966406294 -15.3739932493503 0.956531966406292 -15.37399324935  0.174660624193871 65.2417985713833 
! Gamma         0                0                0                0                
! Port Impedance         50               0                50               0                
0.9                            0.194462704205747 64.3018403874356 0.95262774027446 -17.2269345712491 0.95262774027446 -17.2269345712489 0.194462768943246 64.3020365407012 
! Gamma         0                0                0                0                
! Port Impedance         50               0                50               0                
1                              0.213921364275897 63.2036620780762 0.948415295249819 -19.0637945246487 0.948415295249819 -19.0637945246485 0.21392147677009 63.2038787041537 
! Gamma         0                0                0                0                
! Port Impedance         50               0                50               0                
1.1                            0.23299895265178 61.9932096384245 0.943914854113518 -20.8835137697151 0.943914854113518 -20.883513769715 0.23299912043685 61.9934452087016 
! Gamma         0                0                0                0                
! Port Impedance         50               0                50               0                
1.2                            0.251663701819769 60.7023682991736 0.939148836466663 -22.6851008803451 0.939148836466663 -22.685100880345 0.251663931021597 60.7026216594574 
! Gamma         0                0                0                0                
! Port Impedance         50               0                50               0                
1.3                            0.269888930598134 59.3539079380021 0.934141217421872 -24.4676515443732 0.934141217421872 -24.4676515443732 0.269889226198401 59.3541782771575 
! Gamma         0                0                0                0                
! Port Impedance         50               0                50               0                
1.4                            0.287652447359635 57.9645255292921 0.928917032618807 -26.2303605153505 0.928917032618807 -26.2303605153505 0.287652813469677 57.9648123308347 
! Gamma         0                0                0                0                
! Port Impedance         50               0                50               0                
1.5                            0.3049360792118  56.5467356223076 0.923501964073701 -27.9725291775954 0.9235019640737  -27.9725291775954 0.304936519319222 56.5470386128475 
! Gamma         0                0                0                0                
! Port Impedance         50               0                50               0                
1.6                            0.32172528830394 55.1100884602111 0.917921979019466 -29.6935697957077 0.917921979019465 -29.6935697957077 0.32172580547595 55.1104075618175 
! Gamma         0                0                0                0                
! Port Impedance         50               0                50               0                
1.7                            0.338008845640969 53.6619792656558 0.912203011592475 -31.3930070197131 0.912203011592474 -31.3930070197132 0.33800944268123 53.6623145551786 
! Gamma         0                0                0                0                
! Port Impedance         50               0                50               0                
1.8                            0.35377854133515 52.2082004173098 0.906370684314843 -33.0704770977346 0.906370684314842 -33.0704770977346 0.353779220897973 52.2085520934181 
! Gamma         0                0                0                0                
! Port Impedance         50               0                50               0                
1.9                            0.369028917387762 50.7533272854679 0.900450068475211 -34.7257252155713 0.90045006847521 -34.7257252155713 0.369029682056558 50.7536956429808 
! Gamma         0                0                0                0                
! Port Impedance         50               0                50               0                
2                              0.383757014587945 49.3009937872346 0.894465482632348 -36.3586013556828 0.894465482632346 -36.3586013556829 0.383757866925656 49.3013791977891 
! Gamma         0                0                0                0                
! Port Impedance         50               0                50               0                
2.1                            0.397962129047122 47.8540932302427 0.88844032790478 -37.9690550322216 0.888440327904779 -37.9690550322216 0.397963071625823 47.8544961281869 
! Gamma         0                0                0                0                
! Port Impedance         50               0                50               0                
2.2                            0.411645576520967 46.414927539981  0.882396958040868 -39.557129216438 0.882396958040867 -39.557129216438 0.41164661193677 46.4153484124251 
! Gamma         0                0                0                0                
! Port Impedance         50               0                50               0                
2.3                            0.424810464307815 44.985320172107  0.87635658170351 -41.1229537226359 0.876356581703508 -41.1229537226359 0.424811595185948 44.9857595521906 
! Gamma         0                0                0                0                
! Port Impedance         50               0                50               0                
2.4                            0.437461471425305 43.5667030311525 0.870339194012748 -42.666738282204 0.870339194012746 -42.666738282204 0.437462700419094 43.56716149375   
! Gamma         0                0                0                0                
! Port Impedance         50               0                50               0                
2.5                            0.449604638179628 42.1601844721935 0.864363534166386 -44.1887654938614 0.864363534166385 -44.1887654938614 0.449605967966053 42.1606626314357 
! Gamma         0                0                0                0                
! Port Impedance         50               0                50               0                
2.6                            0.461247166325922 40.7666033110715 0.858447065879867 -45.689383802875 0.858447065879865 -45.689383802875 0.461248599599643 40.7671018192009 
! Gamma         0                0                0                0                
! Port Impedance         50               0                50               0                
2.7                            0.472397230901285 39.3865723207863 0.85260597742327 -47.1690006307806 0.852605977423268 -47.1690006307806 0.472398770368359 39.3870918679809 
! Gamma         0                0                0                0                
! Port Impedance         50               0                50               0                
2.8                            0.48306380458371 38.0205137033027 0.846855198157708 -48.6280757499389 0.846855198157706 -48.6280757499389 0.483065452955776 38.0210550181979 
! Gamma         0                0                0                0                
! Port Impedance         50               0                50               0                
2.9                            0.493256495153108 36.6686883426614 0.841208428660981 -50.0671149738164 0.841208428660979 -50.0671149738165 0.493258255142451 36.6692521933741 
! Gamma         0                0                0                0                
! Port Impedance         50               0                50               0                
3                              0.502985396345191 35.3312201671605 0.835678181762374 -51.4866642138962 0.835678181762372 -51.4866642138962 0.502987270660887 35.3318073626742 
! Gamma         0                0                0                0                
! Port Impedance         50               0                50               0                
3.1                            0.512260952120924 34.0081166100125 0.830275832061619 -52.8873039372751 0.830275832061618 -52.8873039372751 0.512262943466091 34.0087280018286 
! Gamma         0                0                0                0                
! Port Impedance         50               0                50               0                
3.2                            0.521093834137917 32.6992859158046 0.825011671773501 -54.2696440449759 0.8250116717735  -54.2696440449759 0.521095945207991 32.699922399795  
! Gamma         0                0                0                0                
! Port Impedance         50               0                50               0                
3.3                            0.529494832012498 31.4045518650013 0.819894971006391 -55.6343191794971 0.819894971006389 -55.6343191794971 0.529497065494431 31.4052143834224 
! Gamma         0                0                0                0                
! Port Impedance         50               0                50               0                
3.4                            0.537474755804217 30.1236663607224 0.814934040841973 -56.9819844608351 0.814934040841971 -56.9819844608352 0.53747711437643 30.1243559043671 
! Gamma         0                0                0                0                
! Port Impedance         50               0                50               0                
3.5                            0.545044350036676 28.8563202274049 0.810136297828532 -58.313311642886 0.810136297828531 -58.313311642886 0.545046836369612 28.8570378378828 
! Gamma         0                0                0                0                
! Port Impedance         50               0                50               0                
3.6                            0.552214218486598 27.6021525002135 0.805508328727355 -59.6289856764785 0.805508328727354 -59.6289856764785 0.552216835243721 27.6028992723587 
! Gamma         0                0                0                0                
! Port Impedance         50               0                50               0                
3.7                            0.558994758922557 26.3607584305571 0.801055954558602 -60.9297016610935 0.8010559545586  -60.9297016610935 0.558997508761662 26.3615355149682 
! Gamma         0                0                0                0                
! Port Impedance         50               0                50               0                
3.8                            0.565396106950992 25.1316963921037 0.796784293178182 -62.2161621643355 0.79678429317818 -62.2161621643355 0.565398992525699 25.1325049978273 
! Gamma         0                0                0                0                
! Port Impedance         50               0                50               0                
3.9                            0.571428088125247 23.9144938399332 0.792697819780513 -63.4890748862578 0.792697819780512 -63.4890748862579 0.571431112086581 23.9153352373046 
! Gamma         0                0                0                0                
! Port Impedance         50               0                50               0                
4                              0.577100177489006 22.7086524505497 0.788800424864092 -64.7491506445109 0.78880042486409 -64.7491506445109 0.577103342486978 22.7095279742068 
! Gamma         0                0                0                0                
! Port Impedance         50               0                50               0                
4.1                            0.582421465754458 21.5136525506627 0.785095469318555 -65.9971016558221 0.785095469318553 -65.9971016558221 0.582424774439586 21.514563602752  
! Gamma         0                0                0                0                
! Port Impedance         50               0                50               0                
4.2                            0.587400631354381 20.328956926708  0.781585836394892 -67.2336400893917 0.78158583639489 -67.2336400893917 0.587404086379114 20.3299049803033 
! Gamma         0                0                0                0                
! Port Impedance         50               0                50               0                
4.3                            0.592045917653027 19.154014094099  0.778273980406126 -68.4594768682725 0.778273980406124 -68.4594768682725 0.592049521673028 19.1550006968538 
! Gamma         0                0                0                0                
! Port Impedance         50               0                50               0                
4.4                            0.596365114650665 17.9882610945056 0.775161972076027 -69.6753206955911 0.775161972076025 -69.6753206955911 0.596368870325948 17.989287872563  
! Gamma         0                0                0                0                
! Port Impedance         50               0                50               0                
4.5                            0.600365544568918 16.8311258805684 0.77225154050986 -70.8818772834812 0.772251540509858 -70.8818772834812 0.600369454564833 16.832194542753  
! Gamma         0                0                0                0                
! Port Impedance         50               0                50               0                
4.6                            0.604054050756984 15.6820293399856 0.769544111805572 -72.0798487637546 0.76954411180557 -72.0798487637546 0.604058117745063 15.6831416823043 
! Gamma         0                0                0                0                
! Port Impedance         50               0                50               0                
4.7                            0.607436989411239 14.5403870045962 0.767040844357732 -73.2699332605807 0.76704084435773 -73.2699332605806 0.607441216069901 14.5415449150759 
! Gamma         0                0                0                0                
! Port Impedance         50               0                50               0                
4.8                            0.610520223651612 13.4056104847016 0.764742660931564 -74.4528246067273 0.764742660931562 -74.4528246067273 0.610524612666777 13.4068159485944 
! Gamma         0                0                0                0                
! Port Impedance         50               0                50               0                
4.9                            0.613309119546984 12.2771086642674 0.762650277601709 -75.6292121861992 0.762650277601707 -75.6292121861992 0.613313673612597 12.2783637696574 
! Gamma         0                0                0                0                
! Port Impedance         50               0                50               0                
5                              0.61580854372814 11.1542886886964 0.760764229661391 -76.7997808873611 0.760764229661389 -76.7997808873611 0.615813265546661 11.1555956325418 
! Gamma         0                0                0                0                
! Port Impedance         50               0                50               0                
5.1                            0.618022862270352 10.0365567734657 0.759084894613274 -77.9652111518328 0.759084894613272 -77.9652111518327 0.618027754553238 10.0379178681176 
! Gamma         0                0                0                0                
! Port Impedance         50               0                50               0                
5.2                            0.619955940568393 8.92331885900242 0.757612512354608 -79.1261791055705 0.757612512354606 -79.1261791055705 0.619961006036612 8.92473653924184 
! Gamma         0                0                0                0                
! Port Impedance         50               0                50               0                
5.3                            0.621611143964641 7.81398113466601 0.75634720266701 -80.2833567595921 0.756347202667008 -80.283356759592 0.621616385349275 7.81545796530676 
! Gamma         0                0                0                0                
! Port Impedance         50               0                50               0                
5.4                            0.622991338926146 6.70795045256791 0.755288980116104 -81.437412268755 0.755288980116103 -81.4374122687549 0.622996758969116 6.70948913667699 
! Gamma         0                0                0                0                
! Port Impedance         50               0                50               0                
5.5                            0.62409889459916 5.60463465014452 0.75443776645892 -82.589010237848 0.754437766458918 -82.589010237848 0.624104496054137 5.60623803793767 
! Gamma         0                0                0                0                
! Port Impedance         50               0                50               0                
5.6                            0.624935684600032 4.50344279888315 0.753793400647845 -83.7388120650054 0.753793400647843 -83.7388120650053 0.62494147023357 4.50511389735928 
! Gamma         0                0                0                0                
! Port Impedance         50               0                50               0                
5.7                            0.625503088929655 3.40378539534996 0.753355646509579 -84.8874763130991 0.753355646509577 -84.887476313099 0.625509061522619 3.40552737873531 
! Gamma         0                0                0                0                
! Port Impedance         50               0                50               0                
5.8                            0.625801995925267 2.3050745096674  0.753124198166213 -86.035659100303 0.753124198166211 -86.0356591003029 0.625808158274607 2.30689073074848 
! Gamma         0                0                0                0                
! Port Impedance         50               0                50               0                
5.9                            0.625832804188534 1.20672390581937 0.753098683253652 -87.1840145014591 0.753098683253651 -87.1840145014591 0.625839159109466 1.20861790825316 
! Gamma         0                0                0                0                
! Port Impedance         50               0                50               0                
6                              0.625595424452849 0.10814914761164 0.75327866398034 -88.3331949522071 0.753278663980339 -88.333194952207 0.625601974781514 0.110124679311893 
! Gamma         0                0                0                0                
! Port Impedance         50               0                50               0                
6.1                            0.625089281375954 -0.99123229622326 0.753663636056889 -89.4838516480701 0.753663636056888 -89.48385164807  0.625096029972624 -0.989171268512549 
! Gamma         0                0                0                0                
! Port Impedance         50               0                50               0                
6.2                            0.624313315266679 -2.09200093442162 0.754253025514987 -90.6366349308198 0.754253025514986 -90.6366349308197 0.624320265019593 -2.08985020924041 
! Gamma         0                0                0                0                
! Port Impedance         50               0                50               0                
6.3                            0.623265983777071 -3.1947351096592 0.755046183422045 -91.7921946544773 0.755046183422044 -91.7921946544772 0.623273137606985 -3.19249023349261 
! Gamma         0                0                0                0                
! Port Impedance         50               0                50               0                
6.4                            0.621945263613764 -4.30001081539736 0.75604237848668 -92.9511805232466 0.756042378486679 -92.9511805232466 0.621952624479301 -4.29766706372457 
! Gamma         0                0                0                0                
! Port Impedance         50               0                50               0                
6.5                            0.620348652345424 -5.40840145892267 0.757240787539481 -94.114242393523 0.75724078753948 -94.114242393523 0.620356223249341 -5.40595381547339 
! Gamma         0                0                0                0                
! Port Impedance         50               0                50               0                
6.6                            0.618473170406787 -6.52047755569867 0.758640483863872 -95.2820305318783 0.758640483863872 -95.2820305318783 0.618480954403273 -6.51792068971268 
! Gamma         0                0                0                0                
! Port Impedance         50               0                50               0                
6.7                            0.616315363424405 -7.63680633922244 0.760240423343397 -96.455195820601 0.760240423343397 -96.4551958206009 0.616323363627531 -7.63413458047956 
! Gamma         0                0                0                0                
! Port Impedance         50               0                50               0                
6.8                            0.613871305015026 -8.75795126940837 0.762039428384826 -97.6343899019579 0.762039428384825 -97.6343899019579 0.613879524608508 -8.75515858076386 
! Gamma         0                0                0                0                
! Port Impedance         50               0                50               0                
6.9                            0.611136600234746 -9.88447142108813 0.764036169571293 -98.82026525187  0.764036169571292 -98.82026525187  0.611145042483182 -9.88155136821035 
! Gamma         0                0                0                0                
! Port Impedance         50               0                50               0                
7                              0.608106389885866 -11.0169207324912 0.766229144996718 -100.013475173139 0.766229144996718 -100.013475173139 0.608115058147644 -11.0138664504546 
! Gamma         0                0                0                0                
! Port Impedance         50               0                50               0                
7.1                            0.604775355918931 -12.1558470915219 0.768616657232312 -101.214673697755 0.768616657232312 -101.214673697755 0.60478425366103 -12.1526512478561 
! Gamma         0                0                0                0                
! Port Impedance         50               0                50               0                
7.2                            0.601137728199765 -13.3017912352321 0.771196787878611 -102.424515387161 0.771196787878611 -102.424515387161 0.601146859014695 -13.2984459889683 
! Gamma         0                0                0                0                
! Port Impedance         50               0                50               0                
7.3                            0.597187292945476 -14.4552854350537 0.773967369662686 -103.643655018644 0.773967369662686 -103.643655018644 0.59719666057067 -14.4517823912374 
! Gamma         0                0                0                0                
! Port Impedance         50               0                50               0                
7.4                            0.592917403169359 -15.616851937029 0.776925956050551 -104.872747145304 0.776925956050552 -104.872747145304 0.592927011509347 -15.6131820960836 
! Gamma         0                0                0                0                
! Port Impedance         50               0                50               0                
7.5                            0.588320991512118 -16.7870011223745 0.780069788359971 -106.112445516356 0.780069788359971 -106.112445516356 0.588330844663894 -16.7831548236028 
! Gamma         0                0                0                0                
! Port Impedance         50               0                50               0                
7.6                            0.583390585875636 -17.9662293491314 0.783395760379678 -107.363402343776 0.783395760379678 -107.363402343776 0.583400688157681 -17.9621962075199 
! Gamma         0                0                0                0                
! Port Impedance         50               0                50               0                
7.7                            0.578118328315125 -19.1550164302375 0.786900380528093 -108.626267400699 0.786900380528093 -108.626267400699 0.578128684300647 -19.1507852655901 
! Gamma         0                0                0                0                
! Port Impedance         50               0                50               0                
7.8                            0.572495997685307 -20.3538226969349 0.790579731618931 -109.901686936373 0.790579731618931 -109.901686936373 0.572506612240348 -20.3493814541905 
! Gamma         0                0                0                0                
! Port Impedance         50               0                50               0                
7.9                            0.566515036575448 -21.5630855887522 0.794429428343399 -111.190302392054 0.794429428343398 -111.190302392054 0.566525914902627 -21.5584212481381 
! Gamma         0                0                0                0                
! Port Impedance         50               0                50               0                
8                              0.560166583105461 -22.7832157020655 0.798444572629907 -112.492748901928 0.798444572629906 -112.492748901928 0.560177730794279 -22.7783141774903 
! Gamma         0                0                0                0                
! Port Impedance         50               0                50               0                
8.1                            0.553441508189672 -24.0145922180318 0.802619707103132 -113.809653563128 0.802619707103132 -113.809653563128 0.553452931274467 -24.0094382418224 
! Gamma         0                0                0                0                
! Port Impedance         50               0                50               0                
8.2                            0.546330458904456 -25.2575576169595 0.806948766935688 -115.141633459112 0.806948766935687 -115.141633459112 0.546342163931323 -25.2521346086814 
! Gamma         0                0                0                0                
! Port Impedance         50               0                50               0                
8.3                            0.53882390861891 -26.512411569196 0.811425030468098 -116.489293421288 0.811425030468098 -116.489293421288 0.538835902723165 -26.5067014858454 
! Gamma         0                0                0                0                
! Port Impedance         50               0                50               0                
8.4                            0.530912214561803 -27.7794038713921 0.816041069066724 -117.853223514779 0.816041069066723 -117.853223514779 0.530924505557889 -27.7733870356992 
! Gamma         0                0                0                0                
! Port Impedance         50               0                50               0                
8.5                            0.522585683500613 -29.0587262702244 0.820788696794724 -119.233996235772 0.820788696794724 -119.233996235772 0.522598279986756 -29.0523811731178 
! Gamma         0                0                0                0                
! Port Impedance         50               0                50               0                
8.6                            0.5138346461968  -30.3505029814974 0.825658920587812 -120.632163410021 0.825658920587812 -120.632163410021 0.513847557677248 -30.3438060539273 
! Gamma         0                0                0                0                
! Port Impedance         50               0                50               0                
8.7                            0.504649541272628 -31.6547796685422 0.830641891753564 -122.048252784949 0.830641891753564 -122.048252784949 0.504662778300897 -31.647705016789 
! Gamma         0                0                0                0                
! Port Impedance         50               0                50               0                
8.8                            0.495021009075741 -32.9715105865513 0.835726859748833 -123.482764311394 0.835726859748833 -123.482764311394 0.49503458342315 -32.96402968379  
! Gamma         0                0                0                0                
! Port Impedance         50               0                50               0                
8.9                            0.484939996055744 -34.3005435241876 0.84090212933204 -124.936166115592 0.84090212933204 -124.936166115592 0.484953920910493 -34.2926248493612 
! Gamma         0                0                0                0                
! Port Impedance         50               0                50               0                
9                              0.474397870069697 -35.6416020738213 0.846155022332523 -126.408890167437 0.846155022332523 -126.408890167437 0.474412160273096 -35.63321068667  
! Gamma         0                0                0                0                
! Port Impedance         50               0                50               0                
9.1                            0.463386546909699 -36.9942646276557 0.851471845423173 -127.901327657579 0.851471845423173 -127.901327657579 0.463401219237802 -36.9853616659102 
! Gamma         0                0                0                0                
! Port Impedance         50               0                50               0                
9.2                            0.451898628195505 -38.357939315379 0.856837865419863 -129.413824103484 0.856837865419863 -129.413824103484 0.451913701696661 -38.3484813964206 
! Gamma         0                0                0                0                
! Port Impedance         50               0                50               0                
9.3                            0.43992755060149 -39.7318338504133 0.862237293754598 -130.946674213215 0.862237293754599 -130.946674213215 0.439943047003183 -39.7217723548559 
! Gamma         0                0                0                0                
! Port Impedance         50               0                50               0                
9.4                            0.427467746196373 -41.1149189080656 0.867653281870843 -132.500116545365 0.867653281870843 -132.500116545365 0.427483690398625 -41.1041991162773 
! Gamma         0                0                0                0                
! Port Impedance         50               0                50               0                
9.5                            0.414514813478041 -42.5058831781158 0.873067929359669 -134.074328014226 0.873067929359669 -134.074328014226 0.414531234155785 -42.4944432221007 
! Gamma         0                0                0                0                
! Port Impedance         50               0                50               0                
9.6                            0.401065698504428 -43.9030775540281 0.878462306683749 -135.669418300688 0.878462306683748 -135.669418300688 0.401082628848378 -43.8908471354483 
! Gamma         0                0                0                0                
! Port Impedance         50               0                50               0                
9.7                            0.387118885386654 -45.3044449458739 0.8838164943117  -137.285424241359 0.8838164943117  -137.285424241359 0.387136364021816 -45.2913437550896 
! Gamma         0                0                0                0                
! Port Impedance         50               0                50               0                
9.8                            0.372674595372242 -46.7074307871599 0.889109639996429 -138.922304280667 0.889109639996429 -138.922304280667 0.372692667506769 -46.6933665361417 
! Gamma         0                0                0                0                
! Port Impedance         50               0                50               0                
9.9                            0.357734993881898 -48.1088672156545 0.89432003576693 -140.579933082823 0.89432003576693 -140.579933082823 0.357753712758136 -48.0937331667371 
! Gamma         0                0                0                0                
! Port Impedance         50               0                50               0                
10                             0.342304405294318 -49.5048207738388 0.899425215953693 -142.258096412013 0.899425215953693 -142.258096412014 0.342323834041259 -49.4884926023687 
! Gamma         0                0                0                0                
! Port Impedance         50               0                50               0                
10.1                           0.326389536193339 -50.8903886875177 0.904402077225871 -143.956486399504 0.904402077225871 -143.956486399504 0.326409750219949 -50.8727204530271 
! Gamma         0                0                0                0                
! Port Impedance         50               0                50               0                
10.2                           0.309999709516743 -52.2594213212522 0.909227021179289 -145.674697324796 0.909227021179289 -145.674697324796 0.31002079964531 -52.2402402287422 
! Gamma         0                0                0                0                
! Port Impedance         50               0                50               0                
10.3                           0.293147115108247 -53.6041365213722 0.91387611947838 -147.412222043922 0.913876119478379 -147.412222043922 0.293169191737732 -53.5832360153555 
! Gamma         0                0                0                0                
! Port Impedance         50               0                50               0                
10.4                           0.275847087501736 -54.9145721352633 0.91832530092776 -149.168449200673 0.91832530092776 -149.168449200673 0.275870286232285 -54.8917026579058 
! Gamma         0                0                0                0                
! Port Impedance         50               0                50               0                
10.5                           0.258118431039603 -56.1777903689648 0.922550559142502 -150.942661355363 0.922550559142502 -150.942661355363 0.258142920414248 -56.1526467859336 
! Gamma         0                0                0                0                
! Port Impedance         50               0                50               0                
10.6                           0.23998382881231 -57.3766910980507 0.926528178719239 -152.734034159979 0.926528178719239 -152.734034159979 0.240009821200407 -57.3488952769556 
! Gamma         0                0                0                0                
! Port Impedance         50               0                50               0                
10.7                           0.221470401643315 -58.488189730811 0.93023497700961 -154.541636697833 0.93023497700961 -154.541636697833 0.221498168912796 -58.4572659193864 
! Gamma         0                0                0                0                
! Port Impedance         50               0                50               0                
10.8                           0.202610539323066 -59.4803255600758 0.93364855779636 -156.364433089757 0.93364855779636 -156.364433089757 0.202640436037479 -59.4456648332308 
! Gamma         0                0                0                0                
! Port Impedance         50               0                50               0                
10.9                           0.183443236607477 -60.3074957129249 0.936747572409854 -158.201285447431 0.936747572409854 -158.201285447431 0.183475735463009 -60.2683034628769 
! Gamma         0                0                0                0                
! Port Impedance         50               0                50               0                
11                             0.16401639614175 -60.9022460105529 0.939511983141945 -160.050958227763 0.939511983141945 -160.050958227763 0.164052144114665 -60.8574626477172 
! Gamma         0                0                0                0                
! Port Impedance         50               0                50               0                
11.1                           0.144391070647669 -61.1603797935825 0.94192332325974 -161.912124011009 0.941923323259741 -161.912124011009 0.144430981787349 -61.1085588308964 
! Gamma         0                0                0                0                
! Port Impedance         50               0                50               0                
11.2                           0.124649840626225 -60.9122336736075 0.943964947536795 -163.783370690214 0.943964947536796 -163.783370690214 0.124695256998001 -60.8513539446257 
! Gamma         0                0                0                0                
! Port Impedance         50               0                50               0                
11.3                           0.104914739929835 -59.863069730756 0.945622267041743 -165.663210021882 0.945622267041743 -165.663210021882 0.104967726016646 -59.7902614690725 
! Gamma         0                0                0                0                
! Port Impedance         50               0                50               0                
11.4                           0.0853895494677445 -57.4583746124896 0.946882961983586 -167.550087448941 0.946882961983587 -167.550087448941 0.0854534586085579 -57.369633284215 
! Gamma         0                0                0                0                
! Port Impedance         50               0                50               0                
11.5                           0.0664723081836938 -52.5509254810186 0.947737166726389 -169.442393068695 0.947737166726391 -169.442393068695 0.0665528855367112 -52.4415894891087 
! Gamma         0                0                0                0                
! Port Impedance         50               0                50               0                
11.6                           0.0490967510460083 -42.5429716343297 0.948177621656883 -171.338473582373 0.948177621656883 -171.338473582373 0.0492038078483001 -42.4143775656317 
! Gamma         0                0                0                0                
! Port Impedance         50               0                50               0                
11.7                           0.035808028066279 -21.9041959811439 0.948199787403616 -173.236645030761 0.948199787403616 -173.236645030761 0.0359520483944765 -21.8041314169449 
! Gamma         0                0                0                0                
! Port Impedance         50               0                50               0                
11.8                           0.0322770074825137 11.8677772137718 0.94780191793648 -175.135206094054 0.94780191793648 -175.135206094054 0.0324339202631097 11.8092130858471 
! Gamma         0                0                0                0                
! Port Impedance         50               0                50               0                
11.9                           0.041111893548806 40.475759899102  0.946985090276501 -177.032451714662 0.946985090276502 -177.032451714662 0.0412331214375531 40.3228624523945 
! Gamma         0                0                0                0                
! Port Impedance         50               0                50               0                
12                             0.0567551394164013 55.3386833058054 0.94575318986114 -178.926686790556 0.94575318986114 -178.926686790556 0.0568416033547466 55.194789523566  
! Gamma         0                0                0                0                
! Port Impedance         50               0                50               0                
12.1                           0.074976330404582 62.5270417156618 0.944112851974964 179.183760315758 0.944112851974964 179.183760315758 0.0750408155417214 62.4069410529154 
! Gamma         0                0                0                0                
! Port Impedance         50               0                50               0                
12.2                           0.0941866066320342 66.0846501401452 0.942073361000573 177.300524701097 0.942073361000574 177.300524701097 0.0942372335614153 65.9840370442239 
! Gamma         0                0                0                0                
! Port Impedance         50               0                50               0                
12.3                           0.113770755485377 67.7797883377929 0.939646510502766 175.425192511812 0.939646510502766 175.425192511812 0.113812144589656 67.6936457636797 
! Gamma         0                0                0                0                
! Port Impedance         50               0                50               0                
12.4                           0.133443613272275 68.4230634841695 0.936846428269163 173.559289411185 0.936846428269162 173.559289411185 0.133478511881769 68.3477126847499 
! Gamma         0                0                0                0                
! Port Impedance         50               0                50               0                
12.5                           0.153048287193748 68.4244001572552 0.933689371342549 171.704270105733 0.933689371342549 171.704270105733 0.153078429507353 68.3572832813264 
! Gamma         0                0                0                0                
! Port Impedance         50               0                50               0                
12.6                           0.172485564111409 68.0102517811537 0.930193496757931 169.861509078012 0.930193496757931 169.861509078012 0.172512104927595 67.9495722373595 
! Gamma         0                0                0                0                
! Port Impedance         50               0                50               0                
12.7                           0.191685771463263 67.3151086349612 0.926378614120317 168.032292636189 0.926378614120316 168.032292636189 0.191709514817993 67.2595740748914 
! Gamma         0                0                0                0                
! Port Impedance         50               0                50               0                
12.8                           0.210596251958941 66.4236711854167 0.922265926323674 166.217812351863 0.922265926323674 166.217812351863 0.210617778610808 66.3723279522178 
! Gamma         0                0                0                0                
! Port Impedance         50               0                50               0                
12.9                           0.229175262774558 65.3919014698169 0.917877764628611 164.419159919079 0.917877764628611 164.419159919079 0.22919500513541 65.3440288428594 
! Gamma         0                0                0                0                
! Port Impedance         50               0                50               0                
13                             0.247388768869157 64.2582652852475 0.913237324010942 162.63732343082  0.913237324010941 162.63732343082  0.247407057133921 64.2133068013866 
! Gamma         0                0                0                0                
! Port Impedance         50               0                50               0                
13.1                           0.265208636460469 63.0500866726247 0.908368404200001 160.873185035762 0.908368404199998 160.873185035761 0.265225728167532 63.0076044756557 
! Gamma         0                0                0                0                
! Port Impedance         50               0                50               0                
13.2                           0.282611542298443 61.7873164523487 0.903295161186138 159.127519908792 0.903295161186137 159.127519908792 0.282627641940042 61.746960204401  
! Gamma         0                0                0                0                
! Port Impedance         50               0                50               0                
13.3                           0.299578264464121 60.4848608485054 0.898041873235872 157.400996444437 0.898041873235869 157.400996444437 0.299593536893327 60.4463460614655 
! Gamma         0                0                0                0                
! Port Impedance         50               0                50               0                
13.4                           0.316093182920806 59.1540724017705 0.892632724655093 155.694177563287 0.892632724655091 155.694177563287 0.316107762762045 59.1171650066463 
! Gamma         0                0                0                0                
! Port Impedance         50               0                50               0                
13.5                           0.332143898117702 57.8037346881001 0.887091609727378 154.007523007855 0.887091609727376 154.007523007855 0.332157896527183 57.7682398290275 
! Gamma         0                0                0                0                
! Port Impedance         50               0                50               0                
13.6                           0.347720917428076 56.4407308842869 0.88144195846168 152.341392495852 0.881441958461678 152.341392495852 0.347734427051578 56.40648463434   
! Gamma         0                0                0                0                
! Port Impedance         50               0                50               0                
13.7                           0.362817381591899 55.0705090463086 0.875706585041805 150.696049595253 0.875706585041804 150.696049595253 0.362830480268228 55.0373721835454 
! Gamma         0                0                0                0                
! Port Impedance         50               0                50               0                
13.8                           0.377428815803371 53.6974132533825 0.869907559201109 149.071666186123 0.869907559201107 149.071666186123 0.377441569377105 53.665266515621  
! Gamma         0                0                0                0                
! Port Impedance         50               0                50               0                
13.9                           0.391552897179604 52.3249241731139 0.864066100165371 147.468327378465 0.864066100165369 147.468327378465 0.391565361669596 52.293664591463  
! Gamma         0                0                0                0                
! Port Impedance         50               0                50               0                
14                             0.405189234421556 50.9558371634699 0.858202492322905 145.88603676249  0.858202492322904 145.88603676249  0.405201457715655 50.9253751946163 
! Gamma         0                0                0                0                
! Port Impedance         50               0                50               0                
14.1                           0.418339157802327 49.5923964651348 0.852336021396101 144.324721877092 0.852336021396099 144.324721877092 0.418351180998374 49.5626537231905 
! Gamma         0                0                0                0                
! Port Impedance         50               0                50               0                
14.2                           0.431005518905155 48.2363979735476 0.846484929600031 142.784239793233 0.84648492960003 142.784239793233 0.431017377384061 48.2073054176204 
! Gamma         0                0                0                0                
! Port Impedance         50               0                50               0                
14.3                           0.443192500196941 46.8892691511071 0.840666388075098 141.264382720772 0.840666388075097 141.264382720772 0.443204224490283 46.860765623278  
! Gamma         0                0                0                0                
! Port Impedance         50               0                50               0                
14.4                           0.454905434812107 45.5521320450629 0.834896484762751 139.764883559538 0.834896484762749 139.764883559538 0.454917051310172 45.5241630806781 
! Gamma         0                0                0                0                
! Port Impedance         50               0                50               0                
14.5                           0.466150636987852 44.2258536324534 0.829190225845272 138.285421327604 0.829190225845272 138.285421327604 0.466162168522373 44.1983704841367 
! Gamma         0                0                0                0                
! Port Impedance         50               0                50               0                
14.6                           0.476935243531411 42.9110865222896 0.823561548881114 136.82562641153  0.823561548881112 136.82562641153  0.476946709858878 42.8840453532227 
! Gamma         0                0                0                0                
! Port Impedance         50               0                50               0                
14.7                           0.487267066573148 41.6083022197653 0.81802334582448 135.385085594418 0.818023345824479 135.385085594418 0.487278484778428 41.5816634321689 
! Gamma         0                0                0                0                
! Port Impedance         50               0                50               0                
14.8                           0.497154457704573 40.3178185775371 0.812587494211234 133.963346827851 0.812587494211233 133.963346827851 0.497165842539992 40.2915462500027 
! Gamma         0                0                0                0                
! Port Impedance         50               0                50               0                
14.9                           0.506606183441319 39.0398226468709 0.807264894912195 132.559923723004 0.807264894912194 132.559923723004 0.506617547613139 39.0138840599589 
! Gamma         0                0                0                0                
! Port Impedance         50               0                50               0                
15                             0.515631311802845 37.7743898447851 0.802065514991196 131.174299744406 0.802065514991196 131.174299744406 0.515642666214347 37.7487550787049 
! Gamma         0                0                0                0                
! Port Impedance         50               0                50               0                
15.1                           0.524239109670157 36.5215001375494 0.796998434350882 129.805932096875 0.796998434350881 129.805932096875 0.524250463628751 36.4961417290692 
! Gamma         0                0                0                0                
! Port Impedance         50               0                50               0                
15.2                           0.532438950475136 35.2810517821866 0.792071894998199 128.454255302228 0.792071894998198 128.454255302228 0.53245031186937 35.2559444305092 
! Gamma         0                0                0                0                
! Port Impedance         50               0                50               0                
15.3                           0.540240231690204 34.0528730497712 0.787293351908775 127.118684467389 0.787293351908774 127.118684467389 0.540251607141397 34.0279933631154 
! Gamma         0                0                0                0                
! Port Impedance         50               0                50               0                
15.4                           0.54765230152495 32.8367322658549 0.782669524611133 125.798618249624 0.782669524611132 125.798618249624 0.547663696517311 32.8120585420506 
! Gamma         0                0                0                0                
! Port Impedance         50               0                50               0                
15.5                           0.554684394195028 31.6323464362911 0.778206448745208 124.493441527938 0.778206448745208 124.493441527938 0.554695813187371 31.6078584719358 
! Gamma         0                0                0                0                
! Port Impedance         50               0                50               0                
15.6                           0.561345573105432 30.4393886754352 0.773909526973047 123.20252779214  0.773909526973047 123.20252779214  0.561357019627079 30.4150675991406 
! Gamma         0                0                0                0                
! Port Impedance         50               0                50               0                
15.7                           0.567644681283006 29.2574946139987 0.769783578731682 121.925241262999 0.769783578731682 121.925241262999 0.567656158015989 29.2333227400417 
! Gamma         0                0                0                0                
! Port Impedance         50               0                50               0                
15.8                           0.573590298398663 28.0862679328658 0.765832888418638 120.660938758186 0.765832888418639 120.660938758186 0.573601807248001 28.0622286321894 
! Gamma         0                0                0                0                
! Port Impedance         50               0                50               0                
15.9                           0.579190703735905 26.9252851447536 0.762061251689061 119.408971319526 0.76206125168906 119.408971319526 0.579202245889412 26.9013627307714 
! Gamma         0                0                0                0                
! Port Impedance         50               0                50               0                
16                             0.584453844486544 25.7740997261418 0.758472019620539 118.16868561751  0.758472019620541 118.16868561751  0.584465420465418 25.7502793532122 
! Gamma         0                0                0                0                
! Port Impedance         50               0                50               0                
16.1                           0.589387308784817 24.6322456862662 0.755068140567842 116.939425149119 0.755068140567842 116.939425149119 0.589398918486024 24.6085132590455 
! Gamma         0                0                0                0                
! Port Impedance         50               0                50               0                
16.2                           0.593998302925701 23.4992406472918 0.751852199585598 115.720531244856 0.751852199585599 115.720531244856 0.59400994565705 23.4755827394461 
! Gamma         0                0                0                0                
! Port Impedance         50               0                50               0                
16.3                           0.598293632250624 22.3745884994003 0.748826455343551 114.511343900527 0.748826455343551 114.511343900527 0.598305306759251 22.3509922803894 
! Gamma         0                0                0                0                
! Port Impedance         50               0                50               0                
16.4                           0.602279685222635 21.2577816859839 0.745992874496883 113.311202448799 0.745992874496885 113.311202448799 0.602291389717528 21.2342348548139 
! Gamma         0                0                0                0                
! Port Impedance         50               0                50               0                
16.5                           0.60596242025254 20.1483031670203 0.743353163504575 112.119446084974 0.743353163504574 112.119446084974 0.60597415242164 20.1247938920238 
! Gamma         0                0                0                0                
! Port Impedance         50               0                50               0                
16.6                           0.609347354876729 19.0456281027884 0.740908797912286 110.935414260709 0.740908797912287 110.935414260709 0.609359111899051 19.022144966616  
! Gamma         0                0                0                0                
! Port Impedance         50               0                50               0                
16.7                           0.612439556925813 17.949225295094  0.738661049134048 109.75844695873  0.738661049134049 109.75844695873  0.612451335478964 17.9257572442133 
! Gamma         0                0                0                0                
! Port Impedance         50               0                50               0                
16.8                           0.61524363736037 16.8585584189915 0.736611008779535 108.587884860833 0.736611008779536 108.587884860833 0.615255433623803 16.8350947170782 
! Gamma         0                0                0                0                
! Port Impedance         50               0                50               0                
16.9                           0.617763744485866 15.7730870744567 0.734759610581896 107.423069420764 0.734759610581895 107.423069420764 0.617775554140135 15.7496172591404 
! Gamma         0                0                0                0                
! Port Impedance         50               0                50               0                
17                             0.620003559292881 14.6922676844863 0.733107649985417 106.263342852868 0.733107649985418 106.263342852868 0.620015377515139 14.6687815269756 
! Gamma         0                0                0                0                
! Port Impedance         50               0                50               0                
17.1                           0.621966291701279 13.615554263607  0.731655801453486 105.108048046758 0.731655801453486 105.108048046758 0.621978113157215 13.5920417307711 
! Gamma         0                0                0                0                
! Port Impedance         50               0                50               0                
17.2                           0.623654677517745 12.5423990786869 0.730404633555685 103.956528417629 0.730404633555685 103.956528417629 0.623666496350143 12.5188502972196 
! Gamma         0                0                0                0                
! Port Impedance         50               0                50               0                
17.3                           0.625070975945462 11.4722532222304 0.729354621889094 102.80812770135  0.729354621889094 102.80812770135  0.625082785759519 11.4486584445528 
! Gamma         0                0                0                0                
! Port Impedance         50               0                50               0                
17.4                           0.6262169675126  10.4045671169366 0.7285061598831  101.662189702923 0.728506159883099 101.662189702923 0.626228761358148 10.3809166885312 
! Gamma         0                0                0                0                
! Port Impedance         50               0                50               0                
17.5                           0.627093952313079 9.33879096920888 0.727859567529817 100.518058006578 0.727859567529816 100.518058006578 0.627105722663814 9.31507529709805 
! Gamma         0                0                0                0                
! Port Impedance         50               0                50               0                
17.6                           0.627702748478801 8.27437518847363 0.727415098073721 99.375075655373  0.727415098073721 99.375075655373  0.627714487208643 8.25058471057788 
! Gamma         0                0                0                0                
! Port Impedance         50               0                50               0                
17.7                           0.628043690827664 7.21077078859427 0.727172942684608 98.2325848079793 0.727172942684607 98.2325848079793 0.628055389184337 7.18689594371954 
! Gamma         0                0                0                0                
! Port Impedance         50               0                50               0                
17.8                           0.628116629656236 6.14742978733709 0.72713323312776 97.089926380141  0.72713323312776 97.089926380141  0.628128278232169 6.12346098555139 
! Gamma         0                0                0                0                
! Port Impedance         50               0                50               0                
17.9                           0.6279209296704  5.08380561974558 0.72729604243445 95.9464396782271 0.727296042434448 95.9464396782271 0.627932518371058 5.05973321291306 
! Gamma         0                0                0                0                
! Port Impedance         50               0                50               0                
18                             0.627455469071795 4.01935358141202 0.727661383564657 94.8014620323089 0.727661383564654 94.8014620323089 0.627466987081541 3.9951678336545  
! Gamma         0                0                0                0                
! Port Impedance         50               0                50               0                
18.1                           0.626718638842734 2.95353131799354 0.728229206042662 93.65432843629   0.72822920604266 93.6543284362901 0.62673007458834 2.92922237585109 
! Gamma         0                0                0                0                
! Port Impedance         50               0                50               0                
18.2                           0.625708342297845 1.88579937791166 0.728999390534736 92.5043712028062 0.728999390534735 92.5043712028063 0.625719683409791 1.86135723996841 
! Gamma         0                0                0                0                
! Port Impedance         50               0                50               0                
18.3                           0.624421994997114 0.815621846001502 0.729971741327067 91.3509196408922 0.729971741327065 91.3509196408923 0.624433228268808 0.791036331735416 
! Gamma         0                0                0                0                
! Port Impedance         50               0                50               0                
18.4                           0.622856525142648 -0.257532923041727 0.73114597665132 90.1932997647846 0.731145976651317 90.1932997647847 0.622867636487753 -0.282272205438921 
! Gamma         0                0                0                0                
! Port Impedance         50               0                50               0                
18.5                           0.621008374610555 -1.33419145123174 0.732521716795149 89.0308340426939 0.732521716795147 89.0308340426941 0.621019349018611 -1.35909513833203 
! Gamma         0                0                0                0                
! Port Impedance         50               0                50               0                
18.6                           0.618873500800021 -2.41487414205842 0.734098469925794 87.8628411949364 0.73409846992579 87.8628411949365 0.618884322290586 -2.43995315026716 
! Gamma         0                0                0                0                
! Port Impedance         50               0                50               0                
18.7                           0.616447379514177 -3.50009411970214 0.735875615546957 86.688636051461  0.735875615546954 86.6886360514612 0.616458031089748 -3.52535968223282 
! Gamma         0                0                0                0                
! Port Impedance         50               0                50               0                
18.8                           0.613725009121798 -4.59035587666026 0.737852385502844 85.5075294795471 0.73785238550284 85.5075294795473 0.613735472719791 -4.61581958277033 
! Gamma         0                0                0                0                
! Port Impedance         50               0                50               0                
18.9                           0.610700916285319 -5.68615370109371 0.740027842438867 84.3188283932649 0.740027842438863 84.3188283932651 0.610711172729446 -5.71182753796916 
! Gamma         0                0                0                0                
! Port Impedance         50               0                50               0                
19                             0.607369163579087 -6.78796985210318 0.742400855626785 83.1218358571935 0.742400855626781 83.1218358571937 0.607379192530492 -6.81386624983423 
! Gamma         0                0                0                0                
! Port Impedance         50               0                50               0                
19.1                           0.603723359362065 -7.89627244754964 0.744970074063339 81.91585129786   0.744970074063335 81.9158512978603 0.603733139270596 -7.92240432769993 
! Gamma         0                0                0                0                
! Port Impedance         50               0                50               0                
19.2                           0.599756670311101 -9.01151302487143 0.747733896756523 80.700170837394  0.747733896756519 80.7001708373942 0.599766178367165 -9.03789385320653 
! Gamma         0                0                0                0                
! Port Impedance         50               0                50               0                
19.3                           0.59546183706406 -10.1341237304866 0.750690440123338 79.4740877649609 0.750690440123333 79.4740877649611 0.595471049151493 -10.1607675745246 
! Gamma         0                0                0                0                
! Port Impedance         50               0                50               0                
19.4                           0.590831193465862 -11.2645140877233 0.753837502437893 78.236893162637  0.753837502437891 78.2368931626373 0.590840084116279 -11.2914356798638 
! Gamma         0                0                0                0                
! Port Impedance         50               0                50               0                
19.5                           0.585856689954231 -12.403067286572 0.757172525290257 76.9878767034775 0.757172525290254 76.9878767034778 0.585865232303292 -12.4302820936896 
! Gamma         0                0                0                0                
! Port Impedance         50               0                50               0                
19.6                           0.58052992166443 -13.5501359307262 0.760692552045325 75.7263276405852 0.760692552045321 75.7263276405854 0.580538087410461 -13.5776602312575 
! Gamma         0                0                0                0                
! Port Impedance         50               0                50               0                
19.7                           0.574842161872397 -14.7060371680751 0.764394183328671 74.4515360069678 0.764394183328668 74.451536006968  0.57484992123769 -14.7338881378159 
! Gamma         0                0                0                0                
! Port Impedance         50               0                50               0                
19.8                           0.568784401431775 -15.8710471196524 0.768273529613745 73.1627940468216 0.768273529613742 73.1627940468218 0.56879172312683 -15.8992429276898 
! Gamma         0                0                0                0                
! Port Impedance         50               0                50               0                
19.9                           0.562347394890456 -17.0453945085695 0.772326161043472 71.8593978995445 0.772326161043469 71.8593978995445 0.56235424608123 -17.0739544250424 
! Gamma         0                0                0                0                
! Port Impedance         50               0                50               0                
20                             0.5555217139942  -18.2292533740129 0.776547054690398 70.54064955819   0.776547054690398 70.54064955819   0.55552806027219 -18.2581978917121 
! Gamma         -0               -0               -0               -0               
! Port Impedance         50               0                50               0                
