! Touchstone file exported from HFSS 2026.1.0
!        File:           C:/ffzhzh/LocalFiles/Ansys_Project_Files/temp_train_TSV_RDL_1246_1783324670_38704.aedt
!        Generated:      04:14:45 PM Jul  6, 2026
!        Design:         TSV_RDL
!        Project:        temp_train_TSV_RDL_1246_1783324670_38704
!
! Variables:
!        h_bsmrdl = 5.14um
!        h_ox = 20um
!        h_rdl = 5um
!        h_sub = 89.59um
!        h_tmrdl = 4.04um
!        h_tsv = 89.59um
!        h_via = 3um
!        l_bsmrdl = 959.56um
!        l_sub = 4305.1um
!        l_tmrdl = 219.27um
!        m_sub = 200um
!        pitch = 55.94um
!        r_tsv = 2.3um
!        s_tmrdl = 10um
!        w_bsmrdl = 22.21um
!        w_sub = 500um
!        w_tmrdl = 27.57um
!        x_tsv_center1 = 233.055um
!        x_tsv_center2 = 1214.825um
!        x_tsv_center3 = 1461.665um
!        x_tsv_center4 = 2443.435um
!        x_tsv_center5 = 2690.275um
!        x_tsv_center6 = 3672.045um
!
# GHz S MA R 50.000000
! Terminal data exported
! Port[1] = TM_RDL1_1_T1
! Port[2] = TM_RDL5_1_T1
0.1                            0.030462492190694 34.8468030351422 0.975359635695627 -1.6915077918766 0.975359635695625 -1.69150779187659 0.030462477461195 34.8467939733743 
! Gamma         0                0                0                0                
! Port Impedance         50               0                50               0                
0.2                            0.0436608725324237 51.4533427582305 0.974191147914958 -3.34734030596352 0.974191147914956 -3.34734030596341 0.0436606958890103 51.4532801987637 
! Gamma         0                0                0                0                
! Port Impedance         50               0                50               0                
0.3                            0.0587023452111024 59.015095173316  0.972887078505858 -4.97830774560373 0.972887078505858 -4.97830774560356 0.0587019848805663 59.015235108923  
! Gamma         0                0                0                0                
! Port Impedance         50               0                50               0                
0.4                            0.0743584853562001 62.8291224557401 0.971490056013077 -6.59899980223729 0.971490056013077 -6.59899980223712 0.0743580707946172 62.8294558787178 
! Gamma         0                0                0                0                
! Port Impedance         50               0                50               0                
0.5                            0.0902891772768615 64.7909884118283 0.969935525635009 -8.21461300407282 0.969935525635011 -8.21461300407267 0.0902888029179617 64.7914477291764 
! Gamma         0                0                0                0                
! Port Impedance         50               0                50               0                
0.6                            0.106334648328964 65.7016323415391 0.968176058010118 -9.82584873278179 0.96817605801012 -9.82584873278167 0.106334360925796 65.7021692307189 
! Gamma         0                0                0                0                
! Port Impedance         50               0                50               0                
0.7                            0.122394343548284 65.9603998003628 0.966188293418851 -11.4320059776035 0.966188293418853 -11.4320059776034 0.122394162895499 65.9609874663733 
! Gamma         0                0                0                0                
! Port Impedance         50               0                50               0                
0.8                            0.138397458231664 65.7898424248686 0.963964092513319 -13.0320408281836 0.963964092513321 -13.0320408281835 0.138397391541285 65.7904673013507 
! Gamma         0                0                0                0                
! Port Impedance         50               0                50               0                
0.9                            0.154291019404489 65.3239051071712 0.961504107647683 -14.6248846880071 0.961504107647685 -14.6248846880071 0.154291068569981 65.3245607911376 
! Gamma         0                0                0                0                
! Port Impedance         50               0                50               0                
1                              0.170033593922508 64.6479703324633 0.9588141896848  -16.209533496722 0.958814189684802 -16.209533496722 0.170033758903805 64.6486541569069 
! Gamma         0                0                0                0                
! Port Impedance         50               0                50               0                
1.1                            0.185591646755755 63.8189941974    0.955903425614894 -17.7850687942511 0.955903425614896 -17.7850687942511 0.185591927111306 63.8197054113979 
! Gamma         0                0                0                0                
! Port Impedance         50               0                50               0                
1.2                            0.200937347020761 62.8764115460508 0.952783021621106 -19.3506592942647 0.952783021621108 -19.3506592942648 0.20093774258113 62.8771503598134 
! Gamma         0                0                0                0                
! Port Impedance         50               0                50               0                
1.3                            0.216047205778198 61.8483905494698 0.949465623109058 -20.9055575688507 0.94946562310906 -20.9055575688508 0.216047716923126 61.8491576317904 
! Gamma         0                0                0                0                
! Port Impedance         50               0                50               0                
1.4                            0.230901203461441 60.7555906817838 0.945964867371045 -22.4490960401076 0.945964867371047 -22.4490960401077 0.230901831213533 60.7563868944262 
! Gamma         0                0                0                0                
! Port Impedance         50               0                50               0                
1.5                            0.245482210572626 59.613510277955  0.942295065902186 -23.9806832942934 0.942295065902187 -23.9806832942935 0.245482956606734 59.6143365354868 
! Gamma         0                0                0                0                
! Port Impedance         50               0                50               0                
1.6                            0.25977558654823 58.434002756643  0.93847096334056 -25.4998008057383 0.938470963340561 -25.4998008057383 0.259776453162994 58.4348599535186 
! Gamma         0                0                0                0                
! Port Impedance         50               0                50               0                
1.7                            0.273768888143974 57.2262847883923 0.934507545034856 -27.0059999335183 0.934507545034857 -27.0059999335183 0.273769878217307 57.2271737624571 
! Gamma         0                0                0                0                
! Port Impedance         50               0                50               0                
1.8                            0.287451645793727 55.9976240880696 0.930419878068004 -28.4988990407629 0.930419878068004 -28.498899040763 0.287452762732447 55.9985456038962 
! Gamma         0                0                0                0                
! Port Impedance         50               0                50               0                
1.9                            0.300815182531317 54.7538195431558 0.926222977272451 -29.9781806265348 0.926222977272452 -29.9781806265349 0.300816430219539 54.7547742861632 
! Gamma         0                0                0                0                
! Port Impedance         50               0                50               0                
2                              0.313852459848267 53.4995434098357 0.921931691332589 -31.4435884047271 0.92193169133259 -31.4435884047271 0.313853842596581 53.5005319861982 
! Gamma         0                0                0                0                
! Port Impedance         50               0                50               0                
2.1                            0.326557940891244 52.2385898694003 0.917560605971089 -32.8949243003536 0.917560605971089 -32.8949243003536 0.326559463387507 52.2396128089756 
! Gamma         0                0                0                0                
! Port Impedance         50               0                50               0                
2.2                            0.338927465167858 50.9740587477942 0.91312396222657 -34.3320453592544 0.913123962226571 -34.3320453592544 0.338929132429867 50.9751165085286 
! Gamma         0                0                0                0                
! Port Impedance         50               0                50               0                
2.3                            0.350958131297993 49.7084935279359 0.908635588357652 -35.7548605840965 0.908635588357652 -35.7548605840965 0.350959948628152 49.7095865008947 
! Gamma         0                0                0                0                
! Port Impedance         50               0                50               0                
2.4                            0.362648185839759 48.4439866044236 0.904108844174811 -37.163327719663 0.904108844174812 -37.163327719663 0.362650158781761 48.4451151189843 
! Gamma         0                0                0                0                
! Port Impedance         50               0                50               0                
2.5                            0.373996917151428 47.1822606998017 0.899556576729706 -38.5574500156203 0.899556576729706 -38.5574500156203 0.373999051448996 47.1834250287637 
! Gamma         0                0                0                0                
! Port Impedance         50               0                50               0                
2.6                            0.385004553821411 45.9247326834425 0.894991086350677 -39.9372729966824 0.894991086350678 -39.9372729966824 0.38500685537915 45.9259330479322 
! Gamma         0                0                0                0                
! Port Impedance         50               0                50               0                
2.7                            0.395672167533562 44.6725642240077 0.8904241020419  -41.3028812694654 0.8904241020419  -41.3028812694654 0.395674642380008 44.6738007981247 
! Gamma         0                0                0                0                
! Port Impedance         50               0                50               0                
2.8                            0.406001580416808 43.4267024638987 0.885866765283287 -42.6543953931488 0.885866765283287 -42.6543953931488 0.40600423466975 43.4279753790864 
! Gamma         0                0                0                0                
! Port Impedance         50               0                50               0                
2.9                            0.415995277010514 42.1879130389105 0.881329621289966 -43.9919688379614 0.881329621289966 -43.9919688379614 0.415998116844695 42.1892223880522 
! Gamma         0                0                0                0                
! Port Impedance         50               0                50               0                
3                              0.425656320996442 40.9568071559361 0.876822616819011 -45.3157850519029 0.876822616819011 -45.3157850519029 0.425659352613697 40.9581529971872 
! Gamma         0                0                0                0                
! Port Impedance         50               0                50               0                
3.1                            0.434988276829159 39.7338640057496 0.872355103648856 -46.6260546523397 0.872355103648856 -46.6260546523397 0.434991506431067 39.7352463661197 
! Gamma         0                0                0                0                
! Port Impedance         50               0                50               0                
3.2                            0.443995136355992 38.519449473207  0.867935846902967 -47.9230127553819 0.867935846902967 -47.9230127553819 0.443998570119065 38.5208683519065 
! Gamma         0                0                0                0                
! Port Impedance         50               0                50               0                
3.3                            0.452681250466319 37.3138318775972 0.863573037442668 -49.2069164524147 0.863573037442668 -49.2069164524147 0.452684894519748 37.3152872491629 
! Gamma         0                0                0                0                
! Port Impedance         50               0                50               0                
3.4                            0.461051265755661 36.1171953066938 0.859274307612557 -50.4780424399217 0.859274307612557 -50.4780424399217 0.461055126161586 36.1186871239053 
! Gamma         0                0                0                0                
! Port Impedance         50               0                50               0                
3.5                            0.469110066137458 34.92965098224   0.855046749683828 -51.7366848058533 0.855046749683828 -51.7366848058533 0.469114148873742 34.9311791788393 
! Gamma         0                0                0                0                
! Port Impedance         50               0                50               0                
3.6                            0.476862719287711 33.7512470001879 0.850896936404107 -52.9831529732819 0.850896936404107 -52.9831529732819 0.476867030233115 33.7528114934116 
! Gamma         0                0                0                0                
! Port Impedance         50               0                50               0                
3.7                            0.484314427766314 32.5819767175591 0.846830943125581 -54.2177697999599 0.846830943125581 -54.2177697999599 0.484318972688007 32.5835774104929 
! Gamma         0                0                0                0                
! Port Impedance         50               0                50               0                
3.8                            0.491470484624835 31.4217860032596 0.842854371044782 -55.4408698306358 0.842854371044782 -55.4408698306358 0.491475269168108 31.4234227870244 
! Gamma         0                0                0                0                
! Port Impedance         50               0                50               0                
3.9                            0.49833623328377 30.2705795282088 0.838972371146365 -56.6527976975636 0.838972371146366 -56.6527976975636 0.498341262963829 30.272252283985  
! Gamma         0                0                0                0                
! Port Impedance         50               0                50               0                
4                              0.504917031442536 29.1282262375721 0.835189668498803 -57.8539066635403 0.835189668498803 -57.8539066635403 0.504922311638238 29.1299348384712 
! Gamma         0                0                0                0                
! Port Impedance         50               0                50               0                
4.1                            0.511218218772312 27.994564122402  0.831510586601454 -59.0445573009796 0.831510586601455 -59.0445573009796 0.511223754721677 27.9963084351926 
! Gamma         0                0                0                0                
! Port Impedance         50               0                50               0                
4.2                            0.51724508813437 26.8694043878863 0.827939071529772 -60.2251162999506 0.827939071529772 -60.2251162999506 0.51725088493173 26.8711842745822 
! Gamma         0                0                0                0                
! Port Impedance         50               0                50               0                
4.3                            0.523002860064155 25.7525350994012 0.824478715668176 -61.3959553977413 0.824478715668176 -61.3959553977413 0.523008922658763 25.7543504187185 
! Gamma         0                0                0                0                
! Port Impedance         50               0                50               0                
4.4                            0.528496660263179 24.6437243747328 0.821132780858447 -62.5574504223114 0.821132780858448 -62.5574504223114 0.528502993459136 24.6455749834231 
! Gamma         0                0                0                0                
! Port Impedance         50               0                50               0                
4.5                            0.533731499846114 23.5427231804416 0.817904220825435 -63.7099804419512 0.817904220825435 -63.7099804419512 0.533738108303431 23.5446089345103 
! Gamma         0                0                0                0                
! Port Impedance         50               0                50               0                
4.6                            0.538712258098506 22.4492677818739 0.814795702771619 -64.8539270135337 0.814795702771618 -64.8539270135337 0.538719146335175 22.4511885376889 
! Gamma         0                0                0                0                
! Port Impedance         50               0                50               0                
4.7                            0.543443667510761 21.3630818893498 0.811809628057901 -65.9896735219087 0.811809628057901 -65.9896735219087 0.543450839905673 21.3650375046484 
! Gamma         0                0                0                0                
! Port Impedance         50               0                50               0                
4.8                            0.547930300865809 20.283878537278  0.808948151910181 -67.1176046032197 0.808948151910181 -67.1176046032197 0.547937761662374 20.2858688720802 
! Gamma         0                0                0                0                
! Port Impedance         50               0                50               0                
4.9                            0.552176560170681 19.2113617281212 0.806213202110074 -68.2381056452137 0.806213202110073 -68.2381056452137 0.55218431348103 19.2133866455551 
! Gamma         0                0                0                0                
! Port Impedance         50               0                50               0                
5                              0.55618666723578 18.1452278690677 0.803606496644013 -69.3515623579284 0.803606496644013 -69.3515623579284 0.556194717045419 18.1472872361142 
! Gamma         0                0                0                0                
! Port Impedance         50               0                50               0                
5.1                            0.559964655719438 17.0851670258239 0.801129560298027 -70.4583604084938 0.801129560298027 -70.4583604084938 0.559973005892238 17.0872607139882 
! Gamma         0                0                0                0                
! Port Impedance         50               0                50               0                
5.2                            0.563514364469244 16.0308640150081 0.798783740196236 -71.5588851141333 0.798783740196236 -71.5588851141333 0.563523018752666 16.0329919009239 
! Gamma         0                0                0                0                
! Port Impedance         50               0                50               0                
5.3                            0.566839432005352 14.9819993541085 0.796570220289689 -72.6535211878118 0.796570220289689 -72.6535211878118 0.566848394035807 14.9841613200811 
! Gamma         0                0                0                0                
! Port Impedance         50               0                50               0                
5.4                            0.569943292004316 13.9382500858031 0.794490034808927 -73.7426525313327 0.794490034808927 -73.7426525313327 0.569952565312575 13.9404460202979 
! Gamma         0                0                0                0                
! Port Impedance         50               0                50               0                
5.5                            0.572829169654933 12.8992904915648 0.792544080698788 -74.8266620710264 0.792544080698788 -74.8266620710264 0.57283875767151 12.9015202896468 
! Gamma         0                0                0                0                
! Port Impedance         50               0                50               0                
5.6                            0.575500078769894 11.86479270785   0.790733129057759 -75.9059316315058 0.790733129057759 -75.9059316315058 0.575509984830326 11.8670562715807 
! Gamma         0                0                0                0                
! Port Impedance         50               0                50               0                
5.7                            0.577958819548785 10.8344272567544 0.789057835606777 -76.9808418432751 0.789057835606777 -76.9808418432751 0.577969046898753 10.83672449555   
! Gamma         0                0                0                0                
! Port Impedance         50               0                50               0                
5.8                            0.580207976899057 9.80786350178591 0.787518750213969 -78.0517720802705 0.787518750213969 -78.0517720802705 0.580218528699288 9.81019433274352 
! Gamma         0                0                0                0                
! Port Impedance         50               0                50               0                
5.9                            0.582249919232029 8.78477003833188 0.786116325502617 -79.1191004236839 0.786116325502617 -79.1191004236839 0.582260798562933 8.7871343865276  
! Gamma         0                0                0                0                
! Port Impedance         50               0                50               0                
6                              0.584086797660779 7.76481502745721 0.784850924569699 -80.1832036486696 0.784850924569699 -80.1832036486696 0.584098007526778 7.76721282622117 
! Gamma         0                0                0                0                
! Port Impedance         50               0                50               0                
6.1                            0.585720545535921 6.74766648085391 0.783722827841853 -81.2444572307609 0.783722827841853 -81.2444572307609 0.585732088869431 6.75009767202649 
! Gamma         0                0                0                0                
! Port Impedance         50               0                50               0                
6.2                            0.587152878263873 5.73299250405121 0.78273223909468 -82.303235369028 0.78273223909468 -82.303235369028 0.587164757928906 5.73545703822482 
! Gamma         0                0                0                0                
! Port Impedance         50               0                50               0                
6.3                            0.588385293360208 4.72046150437891 0.781879290659957 -83.3599110231921 0.781879290659956 -83.359911023192 0.588397512155574 4.72295934112926 
! Gamma         0                0                0                0                
! Port Impedance         50               0                50               0                
6.4                            0.589419070698212 3.70974236964542 0.781164047843737 -84.4148559620683 0.781164047843737 -84.4148559620683 0.589431631360284 3.71227347775594 
! Gamma         0                0                0                0                
! Port Impedance         50               0                50               0                
6.5                            0.590255272919805 2.70050462303697 0.780586512576471 -85.4684408208532 0.780586512576471 -85.4684408208532 0.590268178124834 2.7030689807203  
! Gamma         0                0                0                0                
! Port Impedance         50               0                50               0                
6.6                            0.590894745982622 1.69241855935849 0.780146626314314 -86.5210351648866 0.780146626314314 -86.5210351648865 0.590907998348581 1.69501615447836 
! Gamma         0                0                0                0                
! Port Impedance         50               0                50               0                
6.7                            0.591338119823322 0.685155367415141 0.779844272208695 -87.5730075576208 0.779844272208695 -87.5730075576208 0.59135172191127 0.687786197711888 
! Gamma         0                0                0                0                
! Port Impedance         50               0                50               0                
6.8                            0.591585809123169 -0.321612756930969 0.779679276559092 -88.6247256306077 0.779679276559092 -88.6247256306076 0.591599763438109 -0.318948683607536 
! Gamma         0                0                0                0                
! Port Impedance         50               0                50               0                
6.9                            0.591638014167622 -1.3282125027034 0.779651409561808 -89.6765561533749 0.779651409561808 -89.6765561533748 0.591652323158849 -1.32551516815133 
! Gamma         0                0                0                0                
! Port Impedance         50               0                50               0                
7                              0.591494721797164 -2.33496933658744 0.779760385365437 -90.7288651011104 0.779760385365437 -90.7288651011104 0.591509387858091 -2.33223871199642 
! Gamma         0                0                0                0                
! Port Impedance         50               0                50               0                
7.1                            0.59115570645197 -3.3422073924837 0.78000586144165 -91.7820177180986 0.780005861441651 -91.7820177180985 0.591170731919415 -3.33944343816259 
! Gamma         0                0                0                0                
! Port Impedance         50               0                50               0                
7.2                            0.590620531318186 -4.35024935384968 0.780387437277996 -92.836378574865 0.780387437277996 -92.836378574865 0.590635918471127 -4.34745201893468 
! Gamma         0                0                0                0                
! Port Impedance         50               0                50               0                
7.3                            0.589888549588786 -5.35941632485958 0.780904652397581 -93.8923116169855 0.780904652397581 -93.8923116169854 0.589904300646551 -5.35658554699995 
! Gamma         0                0                0                0                
! Port Impedance         50               0                50               0                
7.4                            0.58895890585705 -6.37002768639127 0.781556983708881 -94.950180203496 0.781556983708882 -94.950180203496 0.588975022976955 -6.36716339140965 
! Gamma         0                0                0                0                
! Port Impedance         50               0                50               0                
7.5                            0.58783053766587 -7.38240093278414 0.782343842187465 -96.0103471328137 0.782343842187465 -96.0103471328137 0.587847022940287 -7.37950303430821 
! Gamma         0                0                0                0                
! Port Impedance         50               0                50               0                
7.6                            0.586502177241201 -8.39685148520372 0.783264568890236 -97.0731746540343 0.783264568890236 -97.0731746540343 0.586519032694046 -8.39391988426612 
! Gamma         0                0                0                0                
! Port Impedance         50               0                50               0                
7.7                            0.58497235344326 -9.41369247729828 0.784318430301882 -98.1390244614225 0.784318430301884 -98.1390244614224 0.584989581025896 -9.41072706190142 
! Gamma         0                0                0                0                
! Port Impedance         50               0                50               0                
7.8                            0.583239393974323 -10.4332345086361 0.785504613012621 -99.2082576698472 0.785504613012623 -99.2082576698472 0.583256995560873 -10.4302351532784 
! Gamma         0                0                0                0                
! Port Impedance         50               0                50               0                
7.9                            0.581301427887478 -11.4557853611696 0.786822217726097 -100.281234768844 0.786822217726098 -100.281234768844 0.58131940526953 -11.4527519263296 
! Gamma         0                0                0                0                
! Port Impedance         50               0                50               0                
8                              0.579156388446165 -12.4816496736809 0.788270252596502 -101.358315552911 0.788270252596503 -101.358315552911 0.579174743326873 -12.4785820052556 
! Gamma         0                0                0                0                
! Port Impedance         50               0                50               0                
8.1                            0.576802016390084 -13.5111285688163 0.78984762589461 -102.439859025552 0.789847625894612 -102.439859025552 0.576820750377651 -13.508026497509 
! Gamma         0                0                0                0                
! Port Impedance         50               0                50               0                
8.2                            0.574235863668807 -14.5445192269152 0.79155313800365 -103.526223274512 0.791553138003651 -103.526223274512 0.574254978269337 -14.5413825675696 
! Gamma         0                0                0                0                
! Port Impedance         50               0                50               0                
8.3                            0.571455297710381 -15.5821144003709 0.793385472747645 -104.617765315546 0.793385472747646 -104.617765315546 0.571474794320109 -15.5789429512458 
! Gamma         0                0                0                0                
! Port Impedance         50               0                50               0                
8.4                            0.568457506298225 -16.6242018617207 0.795343188057357 -105.714840901969 0.795343188057359 -105.714840901969 0.568477386195102 -16.6209954037017 
! Gamma         0                0                0                0                
! Port Impedance         50               0                50               0                
8.5                            0.565239503135685 -17.671063778046 0.797424705982043 -106.817804297177 0.797424705982045 -106.817804297177 0.565259767470328 -17.6678220737868 
! Gamma         0                0                0                0                
! Port Impedance         50               0                50               0                
8.6                            0.561798134183726 -18.7229760035455 0.799628302059221 -107.927008007225 0.799628302059222 -107.927008007225 0.561818783969718 -18.7196987965357 
! Gamma         0                0                0                0                
! Port Impedance         50               0                50               0                
8.7                            0.558130084863264 -19.7802072813317 0.801952094059457 -109.042802470485 0.80195209405946 -109.042802470485 0.558151120966809 -19.7768942948827 
! Gamma         0                0                0                0                
! Port Impedance         50               0                50               0                
8.8                            0.554231888219575 -20.8430183445504 0.804394030128942 -110.165535701366 0.804394030128944 -110.165535701366 0.554253311348514 -20.8396692806938 
! Gamma         0                0                0                0                
! Port Impedance         50               0                50               0                
8.9                            0.550099934151909 -21.9116609058348 0.806951876359402 -111.295552885026 0.806951876359404 -111.295552885026 0.550121744844089 -21.9082754441264 
! Gamma         0                0                0                0                
! Port Impedance         50               0                50               0                
9                              0.545730479816795 -22.9863765228377 0.809623203822852 -112.433195920001 0.809623203822855 -112.433195920001 0.545752678427813 -22.9829543190582 
! Gamma         0                0                0                0                
! Port Impedance         50               0                50               0                
9.1                            0.54111966131842 -24.0673953261032 0.812405375117685 -113.578802905695 0.812405375117688 -113.578802905695 0.541142248008735 -24.0639360108484 
! Gamma         0                0                0                0                
! Port Impedance         50               0                50               0                
9.2                            0.536263506803681 -25.1549345938112 0.815295530482975 -114.732707571709 0.815295530482977 -114.732707571709 0.536286481525139 -25.1514377709617 
! Gamma         0                0                0                0                
! Port Impedance         50               0                50               0                
9.3                            0.531157951082986 -26.2491971558761 0.818290573549432 -115.895238646107 0.818290573549434 -115.895238646107 0.531181313564754 -26.2456624009379 
! Gamma         0                0                0                0                
! Port Impedance         50               0                50               0                
9.4                            0.525798851900226 -27.3503696074597 0.821387156808396 -117.066719159828 0.821387156808399 -117.066719159828 0.525822601634178 -27.3467964657647 
! Gamma         0                0                0                0                
! Port Impedance         50               0                50               0                
9.5                            0.520182007976508 -28.4586203090574 0.824581666894541 -118.247465684663 0.824581666894543 -118.247465684663 0.520206144202104 -28.4550082938125 
! Gamma         0                0                0                0                
! Port Impedance         50               0                50               0                
9.6                            0.514303178951857 -29.5740971468313 0.827870209793537 -119.437787502481 0.827870209793539 -119.437787502481 0.514327700640551 -29.5704457370058 
! Gamma         0                0                0                0                
! Port Impedance         50               0                50               0                
9.7                            0.508158107346911 -30.6969250226533 0.831248596102899 -120.637985703698 0.8312485961029  -120.637985703698 0.508183013186153 -30.6932336606918 
! Gamma         0                0                0                0                
! Port Impedance         50               0                50               0                
9.8                            0.501742542662415 -31.827203038182 0.834712326492299 -121.848352213432 0.834712326492301 -121.848352213432 0.501767831039315 -31.8234711275312 
! Gamma         0                0                0                0                
! Port Impedance         50               0                50               0                
9.9                            0.495052267727666 -32.9650013310128 0.83825657752891 -123.069168744241 0.838256577528912 -123.069168744241 0.495077936712398 -32.9612282334491 
! Gamma         0                0                0                0                
! Port Impedance         50               0                50               0                
10                             0.488083127399825 -34.1103575131702 0.841876188053394 -124.300705674996 0.841876188053396 -124.300705674996 0.488109174728866 -34.1065425459194 
! Gamma         0                0                0                0                
! Port Impedance         50               0                50               0                
10.1                           0.480831059703714 -35.2632726525903 0.845565646313007 -125.543220856091 0.845565646313008 -125.543220856091 0.480857482763042 -35.2594150852246 
! Gamma         0                0                0                0                
! Port Impedance         50               0                50               0                
10.2                           0.473292129486371 -36.423706726195 0.849319078079337 -126.796958342054 0.849319078079339 -126.796958342054 0.473318925294738 -36.4198057773048 
! Gamma         0                0                0                0                
! Port Impedance         50               0                50               0                
10.3                           0.465462564641763 -37.5915734580511 0.853130235999323 -128.06214705354 0.853130235999325 -128.06214705354 0.4654897298342  -37.5876282916831 
! Gamma         0                0                0                0                
! Port Impedance         50               0                50               0                
10.4                           0.457338794938802 -38.7667344369815 0.856992490448682 -129.338999371745 0.856992490448684 -129.338999371745 0.45736632575053 -38.7627441588466 
! Gamma         0                0                0                0                
! Port Impedance         50               0                50               0                
10.5                           0.448917493460039 -39.9489923836749 0.860898822176327 -130.627709669469 0.860898822176328 -130.627709669469 0.448945385710983 -39.9449560371373 
! Gamma         0                0                0                0                
! Port Impedance         50               0                50               0                
10.6                           0.44019562062935 -41.1380834062115 0.86484181704598 -131.928452784373 0.86484181704598 -131.928452784373 0.440223869709483 -41.1339999680795 
! Gamma         0                0                0                0                
! Port Impedance         50               0                50               0                
10.7                           0.431170470775063 -42.3336680428035 0.868813663196329 -133.241382441382 0.86881366319633 -133.241382441382 0.431199071630836 -42.329536418968 
! Gamma         0                0                0                0                
! Port Impedance         50               0                50               0                
10.8                           0.421839721140936 -43.5353208385457 0.872806150952799 -134.566629632759 0.8728061509528  -134.566629632759 0.421868668263072 -43.5311398595348 
! Gamma         0                0                0                0                
! Port Impedance         50               0                50               0                
10.9                           0.412201483222392 -44.7425181350536 0.876810675831461 -135.904300965975 0.876810675831462 -135.904300965975 0.412230770635391 -44.738286551615 
! Gamma         0                0                0                0                
! Port Impedance         50               0                50               0                
11                             0.40225435627124 -45.9546236625544 0.880818244977793 -137.25447699127 0.880818244977794 -137.25447699127 0.402283977524943 -45.9503401414332 
! Gamma         0                0                0                0                
! Port Impedance         50               0                50               0                
11.1                           0.391997482781041 -47.1708714056269 0.884819487378847 -138.617210522544 0.884819487378848 -138.617210522544 0.392027430944686 -47.166534525793 
! Gamma         0                0                0                0                
! Port Impedance         50               0                50               0                
11.2                           0.381430605741046 -48.3903450556367 0.888804668175932 -139.992524967044 0.888804668175933 -139.992524967044 0.381460873400264 -48.3859533053362 
! Gamma         0                0                0                0                
! Port Impedance         50               0                50               0                
11.3                           0.370554127433846 -49.6119531497468 0.892763707385093 -141.38041268113 0.892763707385093 -141.38041268113 0.370584706691126 -49.6075049249303 
! Gamma         0                0                0                0                
! Port Impedance         50               0                50               0                
11.4                           0.359369169557651 -50.8343987063482 0.896686203303573 -142.780833371131 0.896686203303573 -142.780833371131 0.35940005203688 -50.8298923112862 
! Gamma         0                0                0                0                
! Port Impedance         50               0                50               0                
11.5                           0.347877634487953 -52.0561417681025 0.900561460841248 -144.193712559996 0.900561460841249 -144.193712559996 0.347908811343649 -52.0515754193878 
! Gamma         0                0                0                0                
! Port Impedance         50               0                50               0                
11.6                           0.336082267568935 -53.2753527097991 0.904378524966099 -145.61894014192 0.904378524966098 -145.61894014192 0.336113729500972 -53.2707245454933 
! Gamma         0                0                0                0                
! Port Impedance         50               0                50               0                
11.7                           0.323986720462601 -54.4898533891315 0.908126219391702 -147.056369048458 0.908126219391702 -147.056369048458 0.324018457737181 -54.4851614856805 
! Gamma         0                0                0                0                
! Port Impedance         50               0                50               0                
11.8                           0.31159561581207 -55.6970421086206 0.911793190562506 -148.505814050624 0.911793190562506 -148.505814050624 0.311627618289892 -55.692284509446 
! Gamma         0                0                0                0                
! Port Impedance         50               0                50               0                
11.9                           0.298914613839873 -56.8937967533869 0.915367956909398 -149.967050722203 0.915367956909398 -149.967050722203 0.29894687101243 -56.8889715150538 
! Gamma         0                0                0                0                
! Port Impedance         50               0                50               0                
12                             0.285950482069704 -58.0763481171131 0.918838963254753 -151.439814589746 0.918838963254753 -151.439814589746 0.285982983104707 -58.0714533820652 
! Gamma         0                0                0                0                
! Port Impedance         50               0                50               0                
12.1                           0.272711170239825 -59.2401119194773 0.922194640143656 -152.923800494568 0.922194640143656 -152.923800494568 0.272743904036675 -59.2351460292177 
! Gamma         0                0                0                0                
! Port Impedance         50               0                50               0                
12.2                           0.259205893842322 -60.3794626874405 0.925423467768336 -154.418662191349 0.925423467768336 -154.418662191349 0.259238849098213 -60.374424357908 
! Gamma         0                0                0                0                
! Port Impedance         50               0                50               0                
12.3                           0.245445231865654 -61.487424410471 0.928514044037965 -155.92401220667 0.928514044037964 -155.92401220667 0.245478397152215 -61.4823130042615 
! Gamma         0                0                0                0                
! Port Impedance         50               0                50               0                
12.4                           0.231441247736867 -62.555239789028 0.931455156228819 -157.439421978943 0.931455156228819 -157.439421978943 0.231474611585649 -62.5500557407518 
! Gamma         0                0                0                0                
! Port Impedance         50               0                50               0                
12.5                           0.217207648031367 -63.5717586446716 0.934235855533423 -158.964422298688 0.934235855533422 -158.964422298687 0.217241199023082 -63.566504132917 
! Gamma         0                0                0                0                
! Port Impedance         50               0                50               0                
12.6                           0.202760002840369 -64.5225506209314 0.936845533715369 -160.498504064978 0.936845533715369 -160.498504064978 0.202793729685878 -64.5172306459749 
! Gamma         0                0                0                0                
! Port Impedance         50               0                50               0                
12.7                           0.188116067769961 -65.388586407141 0.939274000972896 -162.041119370141 0.939274000972896 -162.041119370141 0.188149959356532 -65.3832105531866 
! Gamma         0                0                0                0                
! Port Impedance         50               0                50               0                
12.8                           0.173296276291773 -66.1442235158014 0.941511564022986 -163.591682920468 0.941511564022986 -163.591682920468 0.173330321637621 -66.1388089023047 
! Gamma         0                0                0                0                
! Port Impedance         50               0                50               0                
12.9                           0.158324524646832 -66.7540330442006 0.943549103342861 -165.149573795904 0.943549103342861 -165.149573795904 0.158358712640967 -66.7486094142101 
! Gamma         0                0                0                0                
! Port Impedance         50               0                50               0                
13                             0.143229475662659 -67.1676197930101 0.945378148450943 -166.714137546424 0.945378148450943 -166.714137546424 0.143263794318831 -67.1622385976515 
! Gamma         0                0                0                0                
! Port Impedance         50               0                50               0                
13.1                           0.128046821590226 -67.3108132656637 0.946990950078205 -168.284688617263 0.946990950078204 -168.284688617263 0.128081256195709 -67.3055645761103 
! Gamma         0                0                0                0                
! Port Impedance         50               0                50               0                
13.2                           0.112823411885349 -67.0699587899096 0.948380548075996 -169.860513089475 0.948380548075996 -169.860513089474 0.112857940559387 -67.0650043957799 
! Gamma         0                0                0                0                
! Port Impedance         50               0                50               0                
13.3                           0.0976252398565767 -66.2623228442647 0.949540833930085 -171.440871716504 0.949540833930085 -171.440871716504 0.0976598227254653 -66.2579649984405 
! Gamma         0                0                0                0                
! Port Impedance         50               0                50               0                
13.4                           0.0825540330744915 -64.5767430601083 0.950466606803683 -173.025003231878 0.950466606803684 -173.025003231878 0.0825885845903673 -64.5735775146063 
! Gamma         0                0                0                0                
! Port Impedance         50               0                50               0                
13.5                           0.0677847843527423 -61.4464060265817 0.951153622114776 -174.612127897767 0.951153622114778 -174.612127897767 0.0678190970584621 -61.4456895126399 
! Gamma         0                0                0                0                
! Port Impedance         50               0                50               0                
13.6                           0.0536593213364418 -55.7612638743161 0.951598631763873 -176.201451259301 0.951598631763873 -176.201451259301 0.0536928356760466 -55.7658525685214 
! Gamma         0                0                0                0                
! Port Impedance         50               0                50               0                
13.7                           0.0409402997656945 -45.2464571732102 0.951799415265048 -177.792168065279 0.951799415265049 -177.792168065279 0.0409713571909764 -45.2630727410321 
! Gamma         0                0                0                0                
! Port Impedance         50               0                50               0                
13.8                           0.031461909578946 -25.8832775104888 0.951754801192428 -179.383466312373 0.951754801192429 -179.383466312373 0.031485654323662 -25.9242375094048 
! Gamma         0                0                0                0                
! Port Impedance         50               0                50               0                
13.9                           0.028681718536114 3.20222230230212 0.951464678531591 179.025468632696 0.951464678531592 179.025468632696 0.0286896197958372 3.13992591442444 
! Gamma         0                0                0                0                
! Port Impedance         50               0                50               0                
14                             0.0342624402788867 29.5187599362299 0.95092999771549 177.435449880243 0.950929997715491 177.435449880243 0.0342540214237085 29.467747924604  
! Gamma         0                0                0                0                
! Port Impedance         50               0                50               0                
14.1                           0.045171642906182 45.1938706170611 0.950152761321601 175.847284881845 0.950152761321603 175.847284881845 0.0451540124196105 45.1613431390739 
! Gamma         0                0                0                0                
! Port Impedance         50               0                50               0                
14.2                           0.0584511873508305 53.6080178913291 0.949136004604888 174.261771359249 0.949136004604889 174.261771359248 0.0584290236804092 53.587330930719  
! Gamma         0                0                0                0                
! Port Impedance         50               0                50               0                
14.3                           0.0727585126422427 58.2011740011032 0.94788376623355 172.679693344095 0.947883766233551 172.679693344095 0.0727339904160322 58.1874258089304 
! Gamma         0                0                0                0                
! Port Impedance         50               0                50               0                
14.4                           0.087530185440279 60.7320387563633 0.946401049775616 171.101817372228 0.946401049775616 171.101817372228 0.0875043535496566 60.7225546836195 
! Gamma         0                0                0                0                
! Port Impedance         50               0                50               0                
14.5                           0.102502303612788 62.0658412389289 0.944693776648591 169.528888873095 0.944693776648591 169.528888873095 0.102475721577714 62.0591485504235 
! Gamma         0                0                0                0                
! Port Impedance         50               0                50               0                
14.6                           0.117533861308979 62.6558196527825 0.942768731387081 167.961628790692 0.942768731387081 167.961628790692 0.117506857622533 62.6510599913194 
! Gamma         0                0                0                0                
! Port Impedance         50               0                50               0                
14.7                           0.132540022656479 62.7571203425351 0.940633500200764 166.400730467792 0.940633500200764 166.400730467792 0.132512806425686 62.7537631732812 
! Gamma         0                0                0                0                
! Port Impedance         50               0                50               0                
14.8                           0.147464381261077 62.5228459064815 0.938296403884736 164.846856820007 0.938296403884736 164.846856820007 0.147437094811562 62.5205459436231 
! Gamma         0                0                0                0                
! Port Impedance         50               0                50               0                
14.9                           0.162266285770363 62.0499425754401 0.935766426204531 163.300637820669 0.935766426204531 163.300637820669 0.162239031491688 62.0484650631521 
! Gamma         0                0                0                0                
! Port Impedance         50               0                50               0                
15                             0.176914560958397 61.4026195094824 0.933053138908886 161.762668311789 0.933053138908885 161.762668311788 0.176887415970502 61.4017988687808 
! Gamma         0                0                0                0                
! Port Impedance         50               0                50               0                
15.1                           0.191384179279722 60.6250389458594 0.930166624525167 160.233506150623 0.930166624525166 160.233506150623 0.191357203919016 60.6247547136739 
! Gamma         0                0                0                0                
! Port Impedance         50               0                50               0                
15.2                           0.205654392496456 59.7485608809588 0.927117398067301 158.71367069576  0.9271173980673  158.71367069576  0.205627635469563 59.7487230783069 
! Gamma         0                0                0                0                
! Port Impedance         50               0                50               0                
15.3                           0.219707629158363 58.7960695042403 0.923916328736568 157.203641631302 0.923916328736566 157.203641631302 0.219681130804047 58.7966093884067 
! Gamma         0                0                0                0                
! Port Impedance         50               0                50               0                
15.4                           0.233528813519687 57.7846594486733 0.920574562624991 155.703858122766 0.920574562624991 155.703858122766 0.233502607948344 57.7855234681078 
! Gamma         0                0                0                0                
! Port Impedance         50               0                50               0                
15.5                           0.247104925615564 56.7273610612698 0.917103447343154 154.214718293868 0.917103447343152 154.214718293868 0.247079042157122 56.7285067858034 
! Gamma         0                0                0                0                
! Port Impedance         50               0                50               0                
15.6                           0.260424703758185 55.6342817875616 0.913514459392936 152.736579009428 0.913514459392934 152.736579009428 0.260399167969823 55.6356750964786 
! Gamma         0                0                0                0                
! Port Impedance         50               0                50               0                
15.7                           0.27347843327515 54.5133812694732 0.909819134995081 151.269755946333 0.90981913499508 151.269755946333 0.27345326766082 54.5149943635814 
! Gamma         0                0                0                0                
! Port Impedance         50               0                50               0                
15.8                           0.286257788510271 53.3710100805441 0.906029004965484 149.814523931781 0.906029004965482 149.81452393178  0.286233013046789 53.372820047823  
! Gamma         0                0                0                0                
! Port Impedance         50               0                50               0                
15.9                           0.298755708236851 52.2122920609327 0.902155534116472 148.371117526006 0.902155534116469 148.371117526005 0.298731340767421 52.2142798225547 
! Gamma         0                0                0                0                
! Port Impedance         50               0                50               0                
16                             0.310966292312918 51.0414008147235 0.898210065543304 146.939731825205 0.898210065543301 146.939731825205 0.31094234884802 51.0435503377939 
! Gamma         0                0                0                0                
! Port Impedance         50               0                50               0                
16.1                           0.322884712027241 49.861763126244  0.894203770044633 145.520523459534 0.89420377004463 145.520523459534 0.322861206979647 49.8640608270151 
! Gamma         0                0                0                0                
! Port Impedance         50               0                50               0                
16.2                           0.33450712943026 48.676210984851  0.89014760082096 144.113611760714 0.890147600820958 144.113611760714 0.334484075802576 48.6786452702271 
! Gamma         0                0                0                0                
! Port Impedance         50               0                50               0                
16.3                           0.345830622729599 47.4870968657526 0.886052253499202 142.719080073927 0.886052253499199 142.719080073927 0.345808032267027 47.4896577767341 
! Gamma         0                0                0                0                
! Port Impedance         50               0                50               0                
16.4                           0.356853115965464 46.2963823375365 0.881928131445485 141.336977189276 0.881928131445482 141.336977189276 0.356830999282824 46.2990612688399 
! Gamma         0                0                0                0                
! Port Impedance         50               0                50               0                
16.5                           0.36757331190913 45.1057070341754 0.87778531625323 139.967318868991 0.877785316253228 139.967318868991 0.367551678598519 45.1084965115097 
! Gamma         0                0                0                0                
! Port Impedance         50               0                50               0                
16.6                           0.377990627593836 43.9164429837444 0.873633543229636 138.610089447807 0.873633543229635 138.610089447807 0.377969486317621 43.919336485228  
! Gamma         0                0                0                0                
! Port Impedance         50               0                50               0                
16.7                           0.388105132183702 42.7297378839086 0.869482181651105 137.265243485372 0.869482181651101 137.265243485372 0.388084490756227 42.7327296956477 
! Gamma         0                0                0                0                
! Port Impedance         50               0                50               0                
16.8                           0.397917487069871 41.5465499387372 0.865340219516335 135.932707451183 0.865340219516335 135.932707451183 0.397897352530344 41.5496350371098 
! Gamma         0                0                0                0                
! Port Impedance         50               0                50               0                
16.9                           0.407428888191795 40.3676761834102 0.861216252494502 134.612381424264 0.861216252494499 134.612381424264 0.407409266870268 40.3708501384127 
! Gamma         0                0                0                0                
! Port Impedance         50               0                50               0                
17                             0.416641010640962 39.1937757319355 0.857118476743928 133.304140791604 0.857118476743927 133.304140791604 0.416621908218741 39.1970346272911 
! Gamma         0                0                0                0                
! Port Impedance         50               0                50               0                
17.1                           0.425555955629997 38.0253890279404 0.853054685263588 132.007837931187 0.853054685263587 132.007837931187 0.425537377195583 38.0287293946486 
! Gamma         0                0                0                0                
! Port Impedance         50               0                50               0                
17.2                           0.434176199914832 36.8629539191821 0.849032267433993 130.723303867223 0.849032267433991 130.723303867223 0.434158150016143 36.8663726799327 
! Gamma         0                0                0                0                
! Port Impedance         50               0                50               0                
17.3                           0.442504547748261 35.7068191850663 0.84505821140512 129.450349886948 0.84505821140512 129.450349886948 0.442487030441779 35.7103136074935 
! Gamma         0                0                0                0                
! Port Impedance         50               0                50               0                
17.4                           0.45054408542599 34.5572560039187 0.841139108995493 128.188769110021 0.841139108995492 128.188769110021 0.45052710432328 34.5608236610977 
! Gamma         0                0                0                0                
! Port Impedance         50               0                50               0                
17.5                           0.458298138464645 33.4144677396716 0.837281162777605 126.938338003108 0.837281162777606 126.938338003108 0.45828169677665 33.4181064765836 
! Gamma         0                0                0                0                
! Port Impedance         50               0                50               0                
17.6                           0.465770231428016 32.2785983465046 0.833490195039626 125.698817833707 0.833490195039627 125.698817833707 0.465754332007394 32.2823062514521 
! Gamma         0                0                0                0                
! Port Impedance         50               0                50               0                
17.7                           0.472964050394566 31.149739628054  0.829771658330652 124.469956058608 0.829771658330655 124.469956058608 0.472948695776307 31.1535150082061 
! Gamma         0                0                0                0                
! Port Impedance         50               0                50               0                
17.8                           0.479883408037563 30.0279375401725 0.826130647316278 123.251487643607 0.826130647316281 123.251487643608 0.479868600478104 30.0317789005668 
! Gamma         0                0                0                0                
! Port Impedance         50               0                50               0                
17.9                           0.486532211269345 28.9131976893288 0.822571911691798 122.043136312166 0.822571911691803 122.043136312166 0.486517952784328 28.9171037147892 
! Gamma         0                0                0                0                
! Port Impedance         50               0                50               0                
18                             0.492914431384027 27.8054901499687 0.819099869921793 120.844615721684 0.819099869921799 120.844615721684 0.492900723784828 27.8094596894937 
! Gamma         0                0                0                0                
! Port Impedance         50               0                50               0                
18.1                           0.499034076618318 26.7047537015809 0.815718623596276 119.655630566913 0.815718623596283 119.655630566914 0.499020921547509 26.7087857548262 
! Gamma         0                0                0                0                
! Port Impedance         50               0                50               0                
18.2                           0.504895167038283 25.610899568361  0.812431972214871 118.475877610738 0.812431972214877 118.475877610738 0.504882566004094 25.6149932739179 
! Gamma         0                0                0                0                
! Port Impedance         50               0                50               0                
18.3                           0.510501711650597 24.5238147301856 0.809243428231133 117.305046643195 0.809243428231139 117.305046643196 0.510489666060494 24.5279693553973 
! Gamma         0                0                0                0                
! Port Impedance         50               0                50               0                
18.4                           0.515857687630029 23.4433648622656 0.806156232208985 116.142821370126 0.806156232208994 116.142821370127 0.515846198823521 23.447579794364  
! Gamma         0                0                0                0                
! Port Impedance         50               0                50               0                
18.5                           0.520967021550422 22.3693969516923 0.803173367961991 114.988880233255 0.803173367961999 114.988880233256 0.520956090831143 22.3736716900847 
! Gamma         0                0                0                0                
! Port Impedance         50               0                50               0                
18.6                           0.525833572503826 21.3017416317192 0.800297577563741 113.842897163864 0.80029757756375 113.842897163864 0.525823201171017 21.3060757812635 
! Gamma         0                0                0                0                
! Port Impedance         50               0                50               0                
18.7                           0.530461116991824 20.2402152685584 0.797531376134066 112.704542272475 0.797531376134076 112.704542272475 0.530451306371263 20.2446085337051 
! Gamma         0                0                0                0                
! Port Impedance         50               0                50               0                
18.8                           0.534853335473817 19.1846218305494 0.794877066320647 111.573482477164 0.794877066320658 111.573482477164 0.534844086948288 19.189074010239  
! Gamma         0                0                0                0                
! Port Impedance         50               0                50               0                
18.9                           0.539013800459223 18.1347545654648 0.792336752409364 110.449382073262 0.792336752409376 110.449382073263 0.539005115498602 18.1392655486849 
! Gamma         0                0                0                0                
! Port Impedance         50               0                50               0                
19                             0.542945966033736 17.0903975083313 0.789912354008978 109.331903247288 0.789912354008989 109.331903247288 0.542937846224748 17.0949672702559 
! Gamma         0                0                0                0                
! Port Impedance         50               0                50               0                
19.1                           0.546653158713879 16.0513268393216 0.787605619266888 108.220706537993 0.787605619266899 108.220706537994 0.546645605789612 16.0559554379614 
! Gamma         0                0                0                0                
! Port Impedance         50               0                50               0                
19.2                           0.550138569528934 15.0173121088887 0.785418137582391 107.115451247422 0.7854181375824  107.115451247422 0.550131585398167 15.0219996821926 
! Gamma         0                0                0                0                
! Port Impedance         50               0                50               0                
19.3                           0.553405247234655 13.988117345314  0.783351351792659 106.015795804823 0.78335135179267 106.015795804823 0.553398834011055 13.9928641086693 
! Gamma         0                0                0                0                
! Port Impedance         50               0                50               0                
19.4                           0.556456092568908 12.9635020581322 0.781406569814041 104.921398086241 0.781406569814051 104.921398086241 0.556450252600173 12.9683083022178 
! Gamma         0                0                0                0                
! Port Impedance         50               0                50               0                
19.5                           0.559293853465457 11.9432221494417 0.77958497572791 103.831915692482 0.779584975727921 103.831915692482 0.559288589362433 11.9480882383939 
! Gamma         0                0                0                0                
! Port Impedance         50               0                50               0                
19.6                           0.561921121148249 10.9270307438604 0.77788764030581 102.747006188107 0.77788764030582 102.747006188107 0.561916435814096 10.9319571137148 
! Gamma         0                0                0                0                
! Port Impedance         50               0                50               0                
19.7                           0.564340327034875 9.91467894680947 0.776315530973319 101.666327303945 0.776315530973326 101.666327303945 0.564336223694307 9.91966610418767 
! Gamma         0                0                0                0                
! Port Impedance         50               0                50               0                
19.8                           0.566553740384143 8.90591653987651 0.774869521216009 100.589537105535 0.774869521216015 100.589537105535 0.566550222612792 8.91096506088909 
! Gamma         0                0                0                0                
! Port Impedance         50               0                50               0                
19.9                           0.568563466628926 7.90049262119915 0.773550399434023 99.5162941297555 0.773550399434026 99.5162941297555 0.56856053838286 7.90560315053796 
! Gamma         0                0                0                0                
! Port Impedance         50               0                50               0                
20                             0.57037144634159 6.89815619810413 0.772358877254332 98.4462574917641 0.772358877254331 98.4462574917641 0.570369111987001 6.9033294483011  
! Gamma         -0               -0               -0               -0               
! Port Impedance         50               0                50               0                
