! Touchstone file exported from HFSS 2026.1.0
!        File:           C:/ffzhzh/LocalFiles/Ansys_Project_Files/temp_train_TSV_RDL_1467_1783361064_50076.aedt
!        Generated:      02:17:06 AM Jul  7, 2026
!        Design:         TSV_RDL
!        Project:        temp_train_TSV_RDL_1467_1783361064_50076
!
! Variables:
!        h_bsmrdl = 3.54um
!        h_ox = 20um
!        h_rdl = 5um
!        h_sub = 66.02um
!        h_tmrdl = 5.19um
!        h_tsv = 66.02um
!        h_via = 3um
!        l_bsmrdl = 606.07um
!        l_sub = 6124.53um
!        l_tmrdl = 954.47um
!        m_sub = 200um
!        pitch = 47.64um
!        r_tsv = 11.29um
!        s_tmrdl = 10um
!        w_bsmrdl = 13.95um
!        w_sub = 500um
!        w_tmrdl = 15.53um
!        x_tsv_center1 = 962.235um
!        x_tsv_center2 = 1582.255um
!        x_tsv_center3 = 2552.255um
!        x_tsv_center4 = 3172.275um
!        x_tsv_center5 = 4142.275um
!        x_tsv_center6 = 4762.295um
!
# GHz S MA R 50.000000
! Terminal data exported
! Port[1] = TM_RDL1_1_T1
! Port[2] = TM_RDL5_1_T1
0.1                            0.0393500148558548 38.1505099161544 0.969738571064953 -2.32262259046301 0.969738571064954 -2.322622590463  0.0393500560855904 38.1501755945668 
! Gamma         0                0                0                0                
! Port Impedance         50               0                50               0                
0.2                            0.0591217461840298 54.1125981056671 0.96802254351417 -4.61295799881045 0.968022543514171 -4.61295799881045 0.0591219274364302 54.111880702169  
! Gamma         0                0                0                0                
! Port Impedance         50               0                50               0                
0.3                            0.0812171569761203 60.3166110016511 0.965720667264245 -6.86860415526395 0.965720667264246 -6.86860415526395 0.0812175295754123 60.3154081568688 
! Gamma         0                0                0                0                
! Port Impedance         50               0                50               0                
0.4                            0.103774951661033 62.8552829903207 0.963019884419511 -9.0994364392731 0.963019884419512 -9.09943643927311 0.103775465414065 62.853576617145  
! Gamma         0                0                0                0                
! Port Impedance         50               0                50               0                
0.5                            0.1263457361096  63.7199884752998 0.959940150803375 -11.3117792965066 0.959940150803376 -11.3117792965067 0.126346328513209 63.7177995395539 
! Gamma         0                0                0                0                
! Port Impedance         50               0                50               0                
0.6                            0.148761527586034 63.6813719962319 0.956467705664044 -13.5073869820625 0.956467705664045 -13.5073869820625 0.14876216135351 63.6787235589738 
! Gamma         0                0                0                0                
! Port Impedance         50               0                50               0                
0.7                            0.170917189440857 63.0988739404543 0.952598485829401 -15.6857082267973 0.952598485829402 -15.6857082267973 0.170917852276817 63.0957812539197 
! Gamma         0                0                0                0                
! Port Impedance         50               0                50               0                
0.8                            0.192729405798923 62.1656718681254 0.948342822323185 -17.8453499027772 0.948342822323185 -17.8453499027772 0.192730101581787 62.162142742945  
! Gamma         0                0                0                0                
! Port Impedance         50               0                50               0                
0.9                            0.214128562005663 60.9964083239524 0.943721722911303 -19.9847266380601 0.943721722911303 -19.9847266380601 0.214129303308595 60.9924454251417 
! Gamma         0                0                0                0                
! Port Impedance         50               0                50               0                
1                              0.235056385820599 59.6640236122951 0.938763035865876 -22.1023133740148 0.938763035865877 -22.1023133740147 0.23505718910377 59.6596264038204 
! Gamma         0                0                0                0                
! Port Impedance         50               0                50               0                
1.1                            0.255464570991395 58.2173377515703 0.933498777900135 -24.1967357383157 0.933498777900135 -24.1967357383157 0.255465453819682 58.2125037933826 
! Gamma         0                0                0                0                
! Port Impedance         50               0                50               0                
1.2                            0.275313633274901 56.6903028142928 0.927963405732441 -26.2667990739546 0.927963405732442 -26.2667990739545 0.275314612823396 56.6850285565842 
! Gamma         0                0                0                0                
! Port Impedance         50               0                50               0                
1.3                            0.29457190064199 55.1072435704713 0.92219267639412 -28.3114954025726 0.922192676394121 -28.3114954025725 0.294572992975469 55.1015248182223 
! Gamma         0                0                0                0                
! Port Impedance         50               0                50               0                
1.4                            0.313214619012925 53.4859991947636 0.916222849799048 -30.3300025902504 0.916222849799049 -30.3300025902503 0.313215838816831 53.4798313679101 
! Gamma         0                0                0                0                
! Port Impedance         50               0                50               0                
1.5                            0.331223157018033 51.839893888935  0.910090092161091 -32.3216804388613 0.910090092161091 -32.3216804388613 0.331224517582395 51.8332721586198 
! Gamma         0                0                0                0                
! Port Impedance         50               0                50               0                
1.6                            0.348584292697624 50.1790199155496 0.903830006213122 -34.2860650452037 0.903830006213123 -34.2860650452037 0.348585806031289 50.1719392662837 
! Gamma         0                0                0                0                
! Port Impedance         50               0                50               0                
1.7                            0.3652895675941  48.5110997735171 0.897477251587013 -36.2228617373463 0.897477251587014 -36.2228617373462 0.365291244593812 48.5035550218412 
! Gamma         0                0                0                0                
! Port Impedance         50               0                50               0                
1.8                            0.381334697273335 46.8420816466727 0.891065237600509 -38.131936693409 0.89106523760051 -38.131936693409 0.381336547902441 46.8340674350843 
! Gamma         0                0                0                0                
! Port Impedance         50               0                50               0                
1.9                            0.39671903055298 45.1765606946004 0.884625879310395 -40.0133073884934 0.884625879310396 -40.0133073884934 0.396721064004352 45.1680714722076 
! Gamma         0                0                0                0                
! Port Impedance         50               0                50               0                
2                              0.411445052180984 43.5180836346838 0.878189411042659 -41.8671320921861 0.87818941104266 -41.867132092186 0.411447277011777 43.5091136314909 
! Gamma         0                0                0                0                
! Port Impedance         50               0                50               0                
2.1                            0.425517925410459 41.8693732930095 0.87178425250503 -43.6936986896659 0.871784252505032 -43.6936986896659 0.42552034964466 41.859916491862  
! Gamma         0                0                0                0                
! Port Impedance         50               0                50               0                
2.2                            0.438945072006373 40.2324971283214 0.865436922503115 -45.4934131147986 0.865436922503117 -45.4934131147986 0.438947703206184 40.2225472367261 
! Gamma         0                0                0                0                
! Port Impedance         50               0                50               0                
2.3                            0.451735787857074 38.6089957871523 0.859171994946646 -47.2667876710367 0.859171994946647 -47.2667876710366 0.451738633166923 38.5985462100475 
! Gamma         0                0                0                0                
! Port Impedance         50               0                50               0                
2.4                            0.46390089268606 36.9999826449541 0.853012091570425 -49.014429485664 0.853012091570426 -49.014429485664 0.463903958854266 36.9890264588014 
! Gamma         0                0                0                0                
! Port Impedance         50               0                50               0                
2.5                            0.475452412473006 35.406221939807  0.846977905720126 -50.7370293035933 0.846977905720127 -50.7370293035932 0.475455705856299 35.3947518679655 
! Gamma         0                0                0                0                
! Port Impedance         50               0                50               0                
2.6                            0.486403293177535 33.8281908663948 0.841088251679363 -52.4353507847598 0.841088251679364 -52.4353507847598 0.486406819733256 33.816199255504  
! Gamma         0                0                0                0                
! Port Impedance         50               0                50               0                
2.7                            0.496767144273286 32.2661294751794 0.835360134310401 -54.1102204281851 0.835360134310402 -54.110220428185 0.496770909543343 32.2536082721638 
! Gamma         0                0                0                0                
! Port Impedance         50               0                50               0                
2.8                            0.506558010485149 30.7200811700879 0.829808834200799 -55.7625182083528 0.829808834200801 -55.7625182083527 0.506562019574999 30.707021899354  
! Gamma         0                0                0                0                
! Port Impedance         50               0                50               0                
2.9                            0.515790170008092 29.1899258616432 0.824448004005844 -57.3931689768527 0.824448004005845 -57.3931689768527 0.515794427563175 29.1763196020392 
! Gamma         0                0                0                0                
! Port Impedance         50               0                50               0                
3                              0.524477957390095 27.6754073102231 0.81928977221166 -59.003134654706 0.819289772211661 -59.0031346547061 0.524482467571389 27.6612446713514 
! Gamma         0                0                0                0                
! Port Impedance         50               0                50               0                
3.1                            0.532635609194886 26.1761558193349 0.814344851084228 -60.5934072183399 0.814344851084229 -60.5934072183399 0.532640375654646 26.1614269168351 
! Gamma         0                0                0                0                
! Port Impedance         50               0                50               0                
3.2                            0.540277130527173 24.691707166744  0.809622646091328 -62.1650024644593 0.80962264609133 -62.1650024644593 0.540282156385364 24.6764015961977 
! Gamma         0                0                0                0                
! Port Impedance         50               0                50               0                
3.3                            0.547416180504151 23.221518461681  0.805131364571306 -63.7189545255788 0.805131364571307 -63.7189545255789 0.54742146832572 23.2056252708121 
! Gamma         0                0                0                0                
! Port Impedance         50               0                50               0                
3.4                            0.554065974789895 21.7649814682685 0.800878121864279 -65.2563110981439 0.800878121864281 -65.2563110981439 0.554071526562706 21.748489127135  
! Gamma         0                0                0                0                
! Port Impedance         50               0                50               0                
3.5                            0.560239203369626 20.3214338242936 0.796869043512664 -66.7781293384181 0.796869043512665 -66.7781293384181 0.56024502048271 20.30433019318   
! Gamma         0                0                0                0                
! Port Impedance         50               0                50               0                
3.6                            0.565947961823861 18.8901685003132 0.793109362477073 -68.2854723770946 0.793109362477074 -68.2854723770946 0.565954045045448 18.8724407950326 
! Gamma         0                0                0                0                
! Port Impedance         50               0                50               0                
3.7                            0.571203694462773 17.470441779613  0.789603510601838 -69.7794064013923 0.78960351060184 -69.7794064013923 0.571210043917547 17.452076533932  
! Gamma         0                0                0                0                
! Port Impedance         50               0                50               0                
3.8                            0.576017147793904 16.0614799896349 0.786355203804404 -71.2609982527855 0.786355203804405 -71.2609982527855 0.576023762938807 16.0424630145152 
! Gamma         0                0                0                0                
! Port Impedance         50               0                50               0                
3.9                            0.580398332916971 14.6624851764252 0.783367520658668 -72.7313134891021 0.783367520658669 -72.7313134891022 0.580405212514927 14.6428015157645 
! Gamma         0                0                0                0                
! Port Impedance         50               0                50               0                
4                              0.584356495564213 13.2726398827913 0.780642974198559 -74.1914148611776 0.78064297419856 -74.1914148611776 0.584363637655094 13.2522737653146 
! Gamma         0                0                0                0                
! Port Impedance         50               0                50               0                
4.1                            0.587900092630235 11.8911111662334 0.778183576889511 -75.6423611563064 0.778183576889511 -75.6423611563064 0.58790749449842 11.8700459531566 
! Gamma         0                0                0                0                
! Port Impedance         50               0                50               0                
4.2                            0.591036774159246 10.5170539729191 0.775990898806734 -77.085206363165 0.775990898806734 -77.0852063631651 0.591044432297107 10.4952721009634 
! Gamma         0                0                0                0                
! Port Impedance         50               0                50               0                
4.3                            0.593773369878044 9.14961396794722 0.774066119124847 -78.5209991155057 0.774066119124848 -78.5209991155057 0.593781279944728 9.12709688723581 
! Gamma         0                0                0                0                
! Port Impedance         50               0                50               0                
4.4                            0.596115879478982 7.78792990911605 0.77241007106758 -79.9507823746076 0.77241007106758 -79.9507823746077 0.596124036253819 7.76465801542651 
! Gamma         0                0                0                0                
! Port Impedance         50               0                50               0                
4.5                            0.598069465967533 6.43113564079615 0.771023280492679 -81.3755933131052 0.77102328049268 -81.3755933131053 0.598077863297434 6.40708820157627 
! Gamma         0                0                0                0                
! Port Impedance         50               0                50               0                
4.6                            0.599638451493891 5.07836177586948 0.769905998299194 -82.7964633653071 0.769905998299195 -82.7964633653072 0.599647082234045 5.05351684934647 
! Gamma         0                0                0                0                
! Port Impedance         50               0                50               0                
4.7                            0.600826315187118 3.72873712670391 0.769058226844821 -84.2144184114204 0.769058226844822 -84.2144184114204 0.600835171134283 3.70307147332843 
! Gamma         0                0                0                0                
! Port Impedance         50               0                50               0                
4.8                            0.601635692604176 2.38138994054267 0.768479740552612 -85.6304790651472 0.768479740552612 -85.6304790651472 0.601644764421819 2.35487892590522 
! Gamma         0                0                0                0                
! Port Impedance         50               0                50               0                
4.9                            0.602068376495205 1.0354489903084  0.76817010087117 -87.0456610359048 0.76817010087117 -87.0456610359049 0.602077653629685 1.00806647854826 
! Gamma         0                0                0                0                
! Port Impedance         50               0                50               0                
5                              0.602125318671368 -0.309955431483878 0.768128665732504 -88.4609755384067 0.768128665732504 -88.4609755384068 0.60213478925828 -0.338237194896876 
! Gamma         0                0                0                0                
! Port Impedance         50               0                50               0                
5.1                            0.601806632843228 -1.65569057034527 0.76835459362857 -89.8774297235268 0.76835459362857 -89.8774297235268 0.601816283602955 -1.68490108773419 
! Gamma         0                0                0                0                
! Port Impedance         50               0                50               0                
5.2                            0.601111598376953 -3.00262027503874 0.768846842402743 -91.2960271052451 0.768846842402743 -91.2960271052451 0.601121414498346 -3.0327909390139 
! Gamma         0                0                0                0                
! Port Impedance         50               0                50               0                
5.3                            0.600038664993415 -4.35160402707197 0.76960416282737 -92.7177679590437 0.769604162827371 -92.7177679590437 0.600048630004416 -4.38276827807871 
! Gamma         0                0                0                0                
! Port Impedance         50               0                50               0                
5.4                            0.59858545851249 -5.70349589086801 0.770625087014394 -94.1436496673883 0.770625087014394 -94.1436496673883 0.59859555413635 -5.73568939172587 
! Gamma         0                0                0                0                
! Port Impedance         50               0                50               0                
5.5                            0.596748787822461 -7.05914333995011 0.771907911684078 -95.5746669879171 0.771907911684078 -95.5746669879172 0.596758993818031 -7.09240416962014 
! Gamma         0                0                0                0                
! Port Impedance         50               0                50               0                
5.6                            0.594524653333109 -8.41938591255143 0.773450676298319 -97.011812219666 0.773450676298319 -97.011812219666 0.594534947317485 -8.45375478172159 
! Gamma         0                0                0                0                
! Port Impedance         50               0                50               0                
5.7                            0.591908257251713 -9.78505364724298 0.775251136051166 -98.4560752421164 0.775251136051166 -98.4560752421164 0.591918614503251 -9.82057413874045 
! Gamma         0                0                0                0                
! Port Impedance         50               0                50               0                
5.8                            0.588894016104241 -11.1569652454006 0.777306729701363 -99.9084434010917 0.777306729701363 -99.9084434010917 0.588904409343707 -11.1936840829331 
! Gamma         0                0                0                0                
! Port Impedance         50               0                50               0                
5.9                            0.585475576010085 -12.5359259024908 0.779614542231486 -101.369901214563 0.779614542231486 -101.369901214563 0.585485975157303 -12.5738932518136 
! Gamma         0                0                0                0                
! Port Impedance         50               0                50               0                
6                              0.58164583130773 -13.9227247441313 0.782171262327152 -102.841429870325 0.782171262327151 -102.841429870325 0.581656203210763 -13.961994551442 
! Gamma         0                0                0                0                
! Port Impedance         50               0                50               0                
6.1                            0.577396947221007 -15.3181317954659 0.784973134689641 -104.324006486303 0.784973134689641 -104.324006486303 0.577407255354337 -15.3587621686811 
! Gamma         0                0                0                0                
! Port Impedance         50               0                50               0                
6.2                            0.572720387350192 -16.7228944033673 0.788015907228104 -105.818603102983 0.788015907228104 -105.818603102983 0.572730591477857 -16.7649480429608 
! Gamma         0                0                0                0                
! Port Impedance         50               0                50               0                
6.3                            0.567606946868703 -18.1377330199916 0.79129477322535 -107.326185376312 0.79129477322535 -107.326185376312 0.567617002667567 -18.1812777073208 
! Gamma         0                0                0                0                
! Port Impedance         50               0                50               0                
6.4                            0.562046792402773 -19.5633362428329 0.794804308636456 -108.847710938282 0.794804308636456 -108.847710938282 0.562056651040322 -19.6084453953939 
! Gamma         0                0                0                0                
! Port Impedance         50               0                50               0                
6.5                            0.556029509666376 -21.0003549900798 0.798538404764316 -110.384127391653 0.798538404764315 -110.384127391653 0.556039117326306 -21.0471082949923 
! Gamma         0                0                0                0                
! Port Impedance         50               0                50               0                
6.6                            0.549544160013978 -22.44939566995  0.802490196663307 -111.936369904783 0.802490196663307 -111.936369904783 0.54955345736158 -22.4978798092566 
! Gamma         0                0                0                0                
! Port Impedance         50               0                50               0                
6.7                            0.542579347155824 -23.9110121777118 0.806651987753718 -113.505358372641 0.806651987753718 -113.505358372641 0.542588268733558 -23.9613216619065 
! Gamma         0                0                0                0                
! Port Impedance         50               0                50               0                
6.8                            0.535123295349962 -25.3856965228123 0.811015171287524 -115.091994110863 0.811015171287524 -115.091994110863 0.535131768891556 -25.4379346525307 
! Gamma         0                0                0                0                
! Port Impedance         50               0                50               0                
6.9                            0.527163940436481 -26.8738678488828 0.81557014949226 -116.69715605143 0.815570149492259 -116.69715605143 0.527171886085357 -26.928147829104 
! Gamma         0                0                0                0                
! Port Impedance         50               0                50               0                
7                              0.518689035106101 -28.3758595586067 0.820306251434911 -118.321696411355 0.82030625143491 -118.321696411355 0.518696364520752 -28.4323057952587 
! Gamma         0                0                0                0                
! Port Impedance         50               0                50               0                
7.1                            0.509686269790288 -29.8919041895067 0.825211650891931 -119.966435810014 0.825211650891931 -119.966435810013 0.50969288511499 -29.9506538054351 
! Gamma         0                0                0                0                
! Port Impedance         50               0                50               0                
7.2                            0.500143410514815 -31.4221156002115 0.830273285783258 -121.632157816588 0.830273285783257 -121.632157816588 0.500149203188825 -31.4833202164715 
! Gamma         0                0                0                0                
! Port Impedance         50               0                50               0                
7.3                            0.49004845496575 -32.9664679117718 0.835476781024083 -123.319602916847 0.835476781024082 -123.319602916847 0.49005330433721 -33.0302957518106 
! Gamma         0                0                0                0                
! Port Impedance         50               0                50               0                
7.4                            0.47938980786766 -34.5247704939381 0.840806376962758 -125.029461898397 0.840806376962757 -125.029461898397 0.479393579569341 -34.5914088833078 
! Gamma         0                0                0                0                
! Port Impedance         50               0                50               0                
7.5                            0.468156476561835 -36.0966380758415 0.846244865897957 -126.762368665856 0.846244865897956 -126.762368665855 0.468159020594061 -36.1662964297956 
! Gamma         0                0                0                0                
! Port Impedance         50               0                50               0                
7.6                            0.456338287394285 -37.6814547705574 0.851773539491571 -128.518892512252 0.851773539491571 -128.518892512252 0.456339435844167 -37.7543681879873 
! Gamma         0                0                0                0                
! Port Impedance         50               0                50               0                
7.7                            0.443926123178506 -39.2783303989947 0.857372150200431 -130.29952989059 0.857372150200431 -130.29952989059 0.443925687483675 -39.3547640159231 
! Gamma         0                0                0                0                
! Port Impedance         50               0                50               0                
7.8                            0.430912181597499 -40.8860469283467 0.86301889012049 -132.104695749751 0.86301889012049 -132.104695749751 0.430909949233005 -40.966301231161 
! Gamma         0                0                0                0                
! Port Impedance         50               0                50               0                
7.9                            0.417290253971365 -42.5029920257282 0.868690390848562 -133.934714521845 0.868690390848562 -133.934714521845 0.4172859843988  -42.587409388319 
! Gamma         0                0                0                0                
! Port Impedance         50               0                50               0                
8                              0.403056023382359 -44.1270755479402 0.874361748092085 -135.789810873251 0.874361748092083 -135.789810873251 0.403049443044374 -44.2160483452958 
! Gamma         0                0                0                0                
! Port Impedance         50               0                50               0                
8.1                            0.388207380784846 -45.7556230554724 0.880006574767118 -137.670100358537 0.880006574767117 -137.670100358537 0.388198176850041 -45.8496038298297 
! Gamma         0                0                0                0                
! Port Impedance         50               0                50               0                
8.2                            0.372744757543671 -47.385237853547 0.885597086187469 -139.575580144417 0.885597086187468 -139.575580144417 0.372732569994598 -47.4847521844675 
! Gamma         0                0                0                0                
! Port Impedance         50               0                50               0                
8.3                            0.356671473020772 -49.0116191395041 0.891104220632465 -141.506119998793 0.891104220632464 -141.506119998793 0.356655884514529 -49.117282121579 
! Gamma         0                0                0                0                
! Port Impedance         50               0                50               0                
8.4                            0.33999409665584 -50.6293177681064 0.896497798059263 -143.461453766585 0.896497798059262 -143.461453766585 0.339974619345499 -50.7418553692321 
! Gamma         0                0                0                0                
! Port Impedance         50               0                50               0                
8.5                            0.322722825941193 -52.231401563585 0.90174671897548 -145.441171577725 0.90174671897548 -145.441171577725 0.322698884081948 -52.3516786867869 
! Gamma         0                0                0                0                
! Port Impedance         50               0                50               0                
8.6                            0.304871885584379 -53.8089866148602 0.906819204496632 -147.444713051742 0.906819204496631 -147.444713051742 0.304842792186551 -53.9380445215679 
! Gamma         0                0                0                0                
! Port Impedance         50               0                50               0                
8.7                            0.28645996040853 -55.3505652781539 0.911683077381367 -149.47136177573 0.911683077381367 -149.47136177573 0.286424885312061 -55.4896723246053 
! Gamma         0                0                0                0                
! Port Impedance         50               0                50               0                
8.8                            0.267510687765264 -56.8410176609518 0.916306082383547 -151.520241336313 0.916306082383546 -151.520241336313 0.267468613070193 -56.9917393483015 
! Gamma         0                0                0                0                
! Port Impedance         50               0                50               0                
8.9                            0.248053259419621 -58.2601156957891 0.920656242622109 -153.590313179453 0.920656242622107 -153.590313179453 0.248002915799408 -58.4244133551895 
! Gamma         0                0                0                0                
! Port Impedance         50               0                50               0                
9                              0.228123228050296 -59.58018639854  0.924702246907348 -155.680376553193 0.924702246907347 -155.680376553193 0.228063001310364 -59.7605593420165 
! Gamma         0                0                0                0                
! Port Impedance         50               0                50               0                
9.1                            0.207763700982379 -60.7623279351061 0.928413861157727 -157.789070756391 0.928413861157727 -157.789070756391 0.207691490746313 -60.9620232508375 
! Gamma         0                0                0                0                
! Port Impedance         50               0                50               0                
9.2                            0.187027281411949 -61.7500229677418 0.931762355296048 -159.91487987079 0.931762355296047 -159.91487987079 0.186940279798854 -61.9733532711711 
! Gamma         0                0                0                0                
! Port Impedance         50               0                50               0                
9.3                            0.165979500192591 -62.4578248709702 0.934720935443678 -162.056140094784 0.934720935443678 -162.056140094784 0.165873830788564 -62.7106622010665 
! Gamma         0                0                0                0                
! Port Impedance         50               0                50               0                
9.4                            0.144705367156259 -62.7501375738172 0.937265169958959 -164.211049726277 0.937265169958959 -164.211049726277 0.144575467518129 -63.0406975641158 
! Gamma         0                0                0                0                
! Port Impedance         50               0                50               0                
9.5                            0.123322902776495 -62.3986165020539 0.939373397009944 -166.377681761448 0.939373397009944 -166.377681761448 0.123160409106363 -62.7387058806775 
! Gamma         0                0                0                0                
! Port Impedance         50               0                50               0                
9.6                            0.102013728912036 -60.9894917975171 0.941027101036069 -168.553998989405 0.941027101036068 -168.553998989405 0.101805338165497 -61.3963537380601 
! Gamma         0                0                0                0                
! Port Impedance         50               0                50               0                
9.7                            0.0811002627861118 -57.7028140527838 0.942211245714918 -170.737871373783 0.942211245714917 -170.737871373783 0.0808234205152549 -58.200712270304 
! Gamma         0                0                0                0                
! Port Impedance         50               0                50               0                
9.8                            0.0612676721741035 -50.7438453364706 0.942914551947935 -172.927095426037 0.942914551947934 -172.927095426037 0.0608821133978523 -51.3564105796057 
! Gamma         0                0                0                0                
! Port Impedance         50               0                50               0                
9.9                            0.0442759931688768 -35.9934056028104 0.943129710905863 -175.119415196602 0.943129710905862 -175.119415196602 0.0437161211612169 -36.6622991690108 
! Gamma         0                0                0                0                
! Port Impedance         50               0                50               0                
10                             0.0348008659964595 -7.32728782786154 0.942853524274764 -177.312544443946 0.942853524274764 -177.312544443946 0.034055579503849 -7.5790329009583 
! Gamma         0                0                0                0                
! Port Impedance         50               0                50               0                
10.1                           0.0388510823035946 26.2071646097113 0.942086966412514 -179.50418949218 0.942086966412514 -179.50418949218 0.0381597178017871 26.6783221033465 
! Gamma         0                0                0                0                
! Port Impedance         50               0                50               0                
10.2                           0.0533689558759389 46.3539145004877 0.940835166018504 178.307927741427 0.940835166018504 178.307927741427 0.0528509170608872 46.9532362083965 
! Gamma         0                0                0                0                
! Port Impedance         50               0                50               0                
10.3                           0.0721822553091524 55.9413720293812 0.939107307961687 176.126047075013 0.939107307961687 176.126047075013 0.0717887243868092 56.4570147375063 
! Gamma         0                0                0                0                
! Port Impedance         50               0                50               0                
10.4                           0.0925650961306078 60.4972990436383 0.936916458915795 173.952348257525 0.936916458915794 173.952348257525 0.0922505887354414 60.9233271783387 
! Gamma         0                0                0                0                
! Port Impedance         50               0                50               0                
10.5                           0.113515949176709 62.5888740001624 0.934279323231181 171.78893050505  0.93427932323118 171.78893050505  0.11325390126961 62.9453797916835 
! Gamma         0                0                0                0                
! Port Impedance         50               0                50               0                
10.6                           0.134603747983121 63.3478289195904 0.931215937865618 169.637793796453 0.931215937865618 169.637793796453 0.134378652708301 63.6520868951706 
! Gamma         0                0                0                0                
! Port Impedance         50               0                50               0                
10.7                           0.155605073926846 63.3214190391264 0.927749317071769 167.500822275657 0.927749317071769 167.500822275657 0.155407372613556 63.5858257218456 
! Gamma         0                0                0                0                
! Port Impedance         50               0                50               0                
10.8                           0.17638478482415 62.8007980392569 0.923905058811314 165.379770026041 0.923905058811314 165.379770026041 0.17620825172478 63.0340977061883 
! Gamma         0                0                0                0                
! Port Impedance         50               0                50               0                
10.9                           0.196851117786858 61.9537302925073 0.919710925498742 163.276249394635 0.919710925498741 163.276249394635 0.196691501734683 62.1621903075672 
! Gamma         0                0                0                0                
! Port Impedance         50               0                50               0                
11                             0.216936616768074 60.8833261255931 0.915196411683861 161.191721955116 0.915196411683861 161.191721955116 0.216790898504456 61.0715438615587 
! Gamma         0                0                0                0                
! Port Impedance         50               0                50               0                
11.1                           0.236589166524634 59.6563598293721 0.910392310716804 159.127492113533 0.910392310716803 159.127492113533 0.236455130367445 59.8277873291473 
! Gamma         0                0                0                0                
! Port Impedance         50               0                50               0                
11.2                           0.255767393009454 58.3179598196317 0.905330291391823 157.084703283199 0.905330291391822 157.084703283199 0.255643367616374 58.4752455380448 
! Gamma         0                0                0                0                
! Port Impedance         50               0                50               0                
11.3                           0.274438102750816 56.899713229641  0.900042494148624 155.064336488245 0.900042494148624 155.064336488245 0.274322797504469 57.0449286207228 
! Gamma         0                0                0                0                
! Port Impedance         50               0                50               0                
11.4                           0.292574733356758 55.4243757137655 0.894561154744262 153.067211200918 0.894561154744262 153.067211200918 0.292467131299832 55.5591688290473 
! Gamma         0                0                0                0                
! Port Impedance         50               0                50               0                
11.5                           0.310156329269466 53.9087324301498 0.888918261516368 151.093988176874 0.888918261516368 151.093988176874 0.310055614826103 54.034434406628  
! Gamma         0                0                0                0                
! Port Impedance         50               0                50               0                
11.6                           0.327166800772149 52.3654037184501 0.883145250551007 149.145174025445 0.883145250551007 149.145174025445 0.327072309617847 52.4831042000103 
! Gamma         0                0                0                0                
! Port Impedance         50               0                50               0                
11.7                           0.343594341123999 50.8040235191475 0.877272741340081 147.221127237504 0.877272741340082 147.221127237505 0.343505524590799 50.914625141402  
! Gamma         0                0                0                0                
! Port Impedance         50               0                50               0                
11.8                           0.359430935655225 49.2320315866778 0.871330313937667 145.322065390759 0.871330313937666 145.322065390759 0.359347334932303 49.3362900555225 
! Gamma         0                0                0                0                
! Port Impedance         50               0                50               0                
11.9                           0.374671927591116 47.6552204302193 0.865346327253078 143.448073259357 0.865346327253078 143.448073259357 0.374593154683575 47.7537744929168 
! Gamma         0                0                0                0                
! Port Impedance         50               0                50               0                
12                             0.389315622057605 46.0781221360795 0.859347776980653 141.599111569658 0.859347776980653 141.599111569658 0.389241345506136 46.1715163323807 
! Gamma         0                0                0                0                
! Port Impedance         50               0                50               0                
12.1                           0.403362918835554 44.5042880398513 0.853360190772687 139.775026164949 0.853360190772686 139.775026164949 0.403292852852057 44.5929902098468 
! Gamma         0                0                0                0                
! Port Impedance         50               0                50               0                
12.2                           0.416816969383364 42.9364950596728 0.847407557607454 137.975557366806 0.847407557607454 137.975557366806 0.416750865479512 43.0209099855546 
! Gamma         0                0                0                0                
! Port Impedance         50               0                50               0                
12.3                           0.429682856261846 41.3769007798528 0.841512287871618 136.200349348077 0.841512287871618 136.200349348077 0.429620496723103 41.4573809371255 
! Gamma         0                0                0                0                
! Port Impedance         50               0                50               0                
12.4                           0.441967294370101 39.8271620227365 0.835695200440142 134.448959360537 0.835695200440142 134.448959360537 0.441908487114895 39.9040161423128 
! Gamma         0                0                0                0                
! Port Impedance         50               0                50               0                
12.5                           0.45367835391951 38.288526932439  0.829975532967277 132.72086668799  0.829975532967278 132.72086668799  0.453622928410491 38.3620268851429 
! Gamma         0                0                0                0                
! Port Impedance         50               0                50               0                
12.6                           0.464825205168822 36.7619075101273 0.824370971667358 131.015481221979 0.824370971667358 131.015481221979 0.464773009132084 36.8322938914932 
! Gamma         0                0                0                0                
! Port Impedance         50               0                50               0                
12.7                           0.475417884820979 35.2479374858166 0.818897697033097 129.332151581695 0.818897697033097 129.332151581695 0.4753687815919  35.3154241837529 
! Gamma         0                0                0                0                
! Port Impedance         50               0                50               0                
12.8                           0.485467083760794 33.7470190199919 0.813570442182888 127.670172721693 0.813570442182888 127.670172721693 0.485420950120357 33.8117969789612 
! Gamma         0                0                0                0                
! Port Impedance         50               0                50               0                
12.9                           0.494983955564711 32.2593607709809 0.808402560821597 126.028792990353 0.808402560821596 126.028792990353 0.494940679963036 32.3216011158745 
! Gamma         0                0                0                0                
! Port Impedance         50               0                50               0                
13                             0.50397994497934 30.7850091959848 0.803406102119956 124.407220618685 0.803406102119958 124.407220618685 0.503939426067149 30.8448658416497 
! Gamma         0                0                0                0                
! Port Impedance         50               0                50               0                
13.1                           0.51246663536628 29.3238744812387 0.798591890148059 122.804629633012 0.798591890148058 122.804629633012 0.512428780773177 29.3814863255998 
! Gamma         0                0                0                0                
! Port Impedance         50               0                50               0                
13.2                           0.520455613955807 27.8757521582371 0.793969605824752 121.220165196539 0.793969605824754 121.220165196539 0.520420339267547 27.9312449360187 
! Gamma         0                0                0                0                
! Port Impedance         50               0                50               0                
13.3                           0.527958353643318 26.4403412175245 0.789547869656893 119.65294839389  0.789547869656893 119.65294839389  0.527925581540749 26.4938290753592 
! Gamma         0                0                0                0                
! Port Impedance         50               0                50               0                
13.4                           0.534986109997829 25.0172593511602 0.785334323832767 118.102080479791 0.785334323832767 118.102080479791 0.534955769527701 25.0688461926558 
! Gamma         0                0                0                0                
! Port Impedance         50               0                50               0                
13.5                           0.541549832125625 23.6060558210779 0.78133571249861 116.566646618261 0.781335712498611 116.566646618261 0.541521858079776 23.6558364607665 
! Gamma         0                0                0                0                
! Port Impedance         50               0                50               0                
13.6                           0.547660086038999 22.2062223499081 0.777557959282916 115.045719142392 0.777557959282917 115.045719142392 0.547634418422919 22.2542835075292 
! Gamma         0                0                0                0                
! Port Impedance         50               0                50               0                
13.7                           0.553326989213522 20.8172023541766 0.774006241339868 113.538360367163 0.774006241339869 113.538360367163 0.553303572789122 20.8636235148683 
! Gamma         0                0                0                0                
! Port Impedance         50               0                50               0                
13.8                           0.558560155071267 19.4383987810001 0.770685059360923 112.04362498905  0.770685059360924 112.04362498905  0.558538938961363 19.4832529422985 
! Gamma         0                0                0                0                
! Port Impedance         50               0                50               0                
13.9                           0.563368646196605 18.069180763591  0.767598303153706 110.560562106668 0.767598303153707 110.560562106668 0.563349583541085 18.1125350864228 
! Gamma         0                0                0                0                
! Port Impedance         50               0                50               0                
14                             0.56776093517118 16.7088892749643 0.764749312511894 109.08821689651  0.764749312511894 109.08821689651  0.567743982826461 16.7508056528287 
! Gamma         0                0                0                0                
! Port Impedance         50               0                50               0                
14.1                           0.571744872001031 15.356841930765  0.762140933200988 107.625631977137 0.762140933200988 107.625631977137 0.571729990275953 15.3973774888874 
! Gamma         0                0                0                0                
! Port Impedance         50               0                50               0                
14.2                           0.575327657198976 14.012337069369  0.759775567965057 106.171848494191 0.759775567965058 106.171848494191 0.575314809621351 14.0515446036506 
! Gamma         0                0                0                0                
! Port Impedance         50               0                50               0                
14.3                           0.578515819676529 12.6746572190958 0.75765522252144 104.725906957312 0.757655222521443 104.725906957312 0.578504972785513 12.7125855830888 
! Gamma         0                0                0                0                
! Port Impedance         50               0                50               0                
14.4                           0.581315198690066 11.3430720475847 0.755781546556125 103.286847858698 0.755781546556126 103.286847858698 0.581306321850224 11.3797664944011 
! Gamma         0                0                0                0                
! Port Impedance         50               0                50               0                
14.5                           0.583730929174496 10.0168408763681 0.75415586976455 101.853712101597 0.754155869764552 101.853712101597 0.583723994408008 10.0523433613639 
! Gamma         0                0                0                0                
! Port Impedance         50               0                50               0                
14.6                           0.585767429883471 8.69521483398616 0.752779233003009 100.425541265651 0.75277923300301 100.425541265651 0.585762411717432 8.72956428315052 
! Gamma         0                0                0                0                
! Port Impedance         50               0                50               0                
14.7                           0.587428393837808 7.37743871316222 0.75165241462642 99.001377734671  0.751652414626422 99.001377734671  0.587425269163857 7.41067126138824 
! Gamma         0                0                0                0                
! Port Impedance         50               0                50               0                
14.8                           0.588716780663205 6.06275259129758 0.750775952090955 97.5802647112514 0.750775952090955 97.5802647112514 0.588715528607091 6.0949017941133  
! Gamma         0                0                0                0                
! Port Impedance         50               0                50               0                
14.9                           0.589634810474726 4.75039326875087 0.750150158896199 96.1612461415512 0.750150158896201 96.1612461415511 0.589635412273577 4.7814902905265  
! Gamma         0                0                0                0                
! Port Impedance         50               0                50               0                
15                             0.590183959039251 3.43959557565409 0.749775136932783 94.7433665727434 0.749775136932784 94.7433665727433 0.590186397924497 3.46966935687676 
! Gamma         0                0                0                0                
! Port Impedance         50               0                50               0                
15.1                           0.590364954018685 2.12959359550583 0.749650784288768 93.325670964936  0.749650784288769 93.325670964936  0.590369215102717 2.15867100132932 
! Gamma         0                0                0                0                
! Port Impedance         50               0                50               0                
15.2                           0.590177772166916 0.819621852216415 0.749776798552923 91.9072044789203 0.749776798552924 91.9072044789202 0.590183842331622 0.847727804160954 
! Gamma         0                0                0                0                
! Port Impedance         50               0                50               0                
15.3                           0.589621637422992 -0.491083493300351 0.750152675636204 90.4870122608587 0.750152675636206 90.4870122608586 0.589629505208389 -0.463925900896713 
! Gamma         0                0                0                0                
! Port Impedance         50               0                50               0                
15.4                           0.588695019912666 -1.80328339053573 0.750777704115393 89.0641392450037 0.750777704115393 89.0641392450037 0.588704675403835 -1.77705278796498 
! Gamma         0                0                0                0                
! Port Impedance         50               0                50               0                
15.5                           0.587395635941081 -3.11773454304996 0.751650955085884 87.6376299957473 0.751650955085885 87.6376299957473 0.587407070651653 -3.09241119543415 
! Gamma         0                0                0                0                
! Port Impedance         50               0                50               0                
15.6                           0.585720449131963 -4.43518789834919 0.752771267495119 86.2065286107179 0.75277126749512 86.2065286107178 0.58573365588236 -4.41075362765604 
! Gamma         0                0                0                0                
! Port Impedance         50               0                50               0                
15.7                           0.583665672944018 -5.75638693063003 0.754137228914968 84.7698787072853 0.75413722891497 84.7698787072853 0.58368064573264 -5.73282504872108 
! Gamma         0                0                0                0                
! Port Impedance         50               0                50               0                
15.8                           0.581226774874103 -7.08206565860256 0.755747151701894 83.3267235156695 0.755747151701893 83.3267235156695 0.581243508739592 -7.0593609107006 
! Gamma         0                0                0                0                
! Port Impedance         50               0                50               0                
15.9                           0.578398482740076 -8.41294633488833 0.757599044488761 81.8761061028688 0.757599044488762 81.8761061028687 0.578416973612781 -8.39108485299067 
! Gamma         0                0                0                0                
! Port Impedance         50               0                50               0                
16                             0.575174793524394 -9.74973673641094 0.759690578953536 80.4170697528128 0.759690578953538 80.4170697528127 0.575195038065078 -9.72870600232767 
! Gamma         0                0                0                0                
! Port Impedance         50               0                50               0                
16.1                           0.571548985353366 -11.093126976416 0.762019051818751 78.9486585294542 0.762019051818752 78.9486585294542 0.571570980777211 -11.0729157942303 
! Gamma         0                0                0                0                
! Port Impedance         50               0                50               0                
16.2                           0.567513633286361 -12.4437857481048 0.764581342053587 77.469918050922  0.76458134205359 77.4699180509219 0.567537377170234 -12.4243842260222 
! Gamma         0                0                0                0                
! Port Impedance         50               0                50               0                
16.3                           0.563060629694547 -13.8023558969057 0.767373863279381 75.9798965043028 0.767373863279382 75.9798965043028 0.563086119765502 -13.7837554385834 
! Gamma         0                0                0                0                
! Port Impedance         50               0                50               0                
16.4                           0.558181210119102 -15.1694492026788 0.770392511421186 74.4776459320374 0.770392511421187 74.4776459320374 0.558208444022215 -15.1516425082821 
! Gamma         0                0                0                0                
! Port Impedance         50               0                50               0                
16.5                           0.552865985614023 -16.5456402339872 0.773632607705125 72.9622238222377 0.773632607705126 72.9622238222377 0.552894960657477 -16.528621311425 
! Gamma         0                0                0                0                
! Port Impedance         50               0                50               0                
16.6                           0.547104982696505 -17.9314591132099 0.777088837175566 71.432695036349  0.777088837175566 71.432695036349  0.547135695572197 -17.9152233001633 
! Gamma         0                0                0                0                
! Port Impedance         50               0                50               0                
16.7                           0.540887692146802 -19.3273830025147 0.780755183000452 69.8881341083782 0.780755183000452 69.8881341083782 0.540920138624652 -19.3119270001401 
! Gamma         0                0                0                0                
! Port Impedance         50               0                50               0                
16.8                           0.534203128016373 -20.7338260851351 0.784624856949261 68.3276279502622 0.784624856949261 68.3276279502622 0.53423730261091 -20.7191480045862 
! Gamma         0                0                0                0                
! Port Impedance         50               0                50               0                
16.9                           0.527039898314182 -22.1511277719601 0.788690226568562 66.7502789976709 0.788690226568563 66.7502789976709 0.527075793921964 -22.1372271952415 
! Gamma         0                0                0                0                
! Port Impedance         50               0                50               0                
17                             0.51938628894121 -23.5795388074249 0.792942739746848 65.1552088294667 0.792942739746848 65.1552088294668 0.519423896448367 -23.5664168644782 
! Gamma         0                0                0                0                
! Port Impedance         50               0                50               0                
17.1                           0.511230362527366 -25.0192048773015 0.797372847554267 63.5415622919512 0.797372847554267 63.5415622919512 0.51126967038636 -25.0068643418468 
! Gamma         0                0                0                0                
! Port Impedance         50               0                50               0                
17.2                           0.502560073885093 -26.4701472291482 0.801969926465139 61.9085121556787 0.801969926465141 61.9085121556786 0.502601067660739 -26.4585926364018 
! Gamma         0                0                0                0                
! Port Impedance         50               0                50               0                
17.3                           0.49336340382449 -27.9322396963636 0.806722201320498 60.2552643277806 0.806722201320499 60.2552643277806 0.493406065709364 -27.9214774867438 
! Gamma         0                0                0                0                
! Port Impedance         50               0                50               0                
17.4                           0.483628513065553 -29.405181359213 0.81161667066271 58.5810636361227 0.811616670662709 58.5810636361227 0.483672821365508 -29.3952200532596 
! Gamma         0                0                0                0                
! Port Impedance         50               0                50               0                
17.5                           0.473343917929295 -30.8884638659581 0.816639036370146 56.8852001929713 0.816639036370147 56.8852001929713 0.473389846519964 -30.8793142772835 
! Gamma         0                0                0                0                
! Port Impedance         50               0                50               0                
17.6                           0.462498689384133 -32.3813321538181 0.821773639830282 55.1670163349098 0.82177363983028 55.1670163349099 0.462546207139254 -32.373007648985 
! Gamma         0                0                0                0                
! Port Impedance         50               0                50               0                
17.7                           0.451082676865225 -33.8827369229072 0.827003407205236 53.4259141222969 0.827003407205237 53.4259141222969 0.451131747058107 -33.8752537398451 
! Gamma         0                0                0                0                
! Port Impedance         50               0                50               0                
17.8                           0.43908675807958 -35.3912766822916 0.832309806651664 51.6613633654331 0.832309806651665 51.6613633654331 0.439137337756892 -35.3846543227859 
! Gamma         0                0                0                0                
! Port Impedance         50               0                50               0                
17.9                           0.426503115771238 -36.905126441357 0.837672820640417 49.8729101257192 0.837672820640418 49.8729101257192 0.426555155097704 -36.8993881582186 
! Gamma         0                0                0                0                
! Port Impedance         50               0                50               0                
18                             0.413325542187091 -38.4219490637266 0.843070936760563 48.0601856184776 0.843070936760563 48.0601856184777 0.413378983755665 -38.4171224705899 
! Gamma         0                0                0                0                
! Port Impedance         50               0                50               0                
18.1                           0.399549771814927 -39.9387837871879 0.848481160562426 46.2229154199686 0.848481160562427 46.2229154199687 0.399604549911986 -39.9349016290123 
! Gamma         0                0                0                0                
! Port Impedance         50               0                50               0                
18.2                           0.385173842969252 -41.4519042124391 0.853879054068572 44.3609288548478 0.853879054068573 44.3609288548479 0.385229882775249 -41.4490053493616 
! Gamma         0                0                0                0                
! Port Impedance         50               0                50               0                
18.3                           0.370198489153876 -42.9566348168275 0.859238803529758 42.4741684124892 0.859238803529758 42.4741684124893 0.37025570584746 -42.9547654949195 
! Gamma         0                0                0                0                
! Port Impedance         50               0                50               0                
18.4                           0.35462756212416 -44.4471101821378 0.864533319794617 40.5626990121332 0.864533319794618 40.5626990121332 0.35468585983587 -44.4463256955423 
! Gamma         0                0                0                0                
! Port Impedance         50               0                50               0                
18.5                           0.338468490675473 -45.9159537015093 0.869734374267849 38.626716908843  0.869734374267848 38.6267169088431 0.338527761206588 -45.9163205964048 
! Gamma         0                0                0                0                
! Port Impedance         50               0                50               0                
18.6                           0.321732783184153 -47.353840988178 0.874812772826497 36.6665580062292 0.874812772826499 36.6665580062292 0.321792904356893 -47.3554400291529 
! Gamma         0                0                0                0                
! Port Impedance         50               0                50               0                
18.7                           0.304436589145136 -48.7488948837035 0.879738569229924 34.6827053194933 0.879738569229923 34.6827053194934 0.304497422574755 -48.7518251119597 
! Gamma         0                0                0                0                
! Port Impedance         50               0                50               0                
18.8                           0.286601347686894 -50.0858291901595 0.884481318489086 32.6757953154681 0.884481318489085 32.6757953154683 0.286662735644572 -50.0902135759218 
! Gamma         0                0                0                0                
! Port Impedance         50               0                50               0                
18.9                           0.268254573443019 -51.3447086287222 0.88901036936286 30.646622846976  0.889010369362858 30.6466228469761 0.268316334281872 -51.3507021014245 
! Gamma         0                0                0                0                
! Port Impedance         50               0                50               0                
19                             0.24943086994204 -52.4991074675938 0.893295193648962 28.5961443989962 0.893295193648963 28.5961443989963 0.249492791228051 -52.5069085768438 
! Gamma         0                0                0                0                
! Port Impedance         50               0                50               0                
19.1                           0.230173332865933 -53.5132988831029 0.897305748281705 26.5254793756332 0.897305748281705 26.5254793756334 0.230235160780926 -53.5231671485169 
! Gamma         0                0                0                0                
! Port Impedance         50               0                50               0                
19.2                           0.210535640605842 -54.3378321349151 0.901012864505975 24.4359091811752 0.901012864505971 24.4359091811753 0.210597063157438 -54.3501145627189 
! Gamma         0                0                0                0                
! Port Impedance         50               0                50               0                
19.3                           0.19058539238297 -54.9023331911104 0.904388656656022 22.3288738865059 0.904388656656022 22.3288738865061 0.190646012014022 -54.9175060074203 
! Gamma         0                0                0                0                
! Port Impedance         50               0                50               0                
19.4                           0.170409789875768 -55.1033374008017 0.907406941434515 20.20596632395   0.907406941434514 20.2059663239502 0.170469077250647 -55.1220738090623 
! Gamma         0                0                0                0                
! Port Impedance         50               0                50               0                
19.5                           0.150125908808945 -54.7828645185612 0.91004365717921 18.0689235184948 0.91004365717921 18.068923518495  0.150183121704938 -54.8061481155205 
! Gamma         0                0                0                0                
! Port Impedance         50               0                50               0                
19.6                           0.129900421592455 -53.6890410749311 0.912277271540961 15.9196154394876 0.912277271540962 15.9196154394877 0.129954455969503 -53.7183600996319 
! Gamma         0                0                0                0                
! Port Impedance         50               0                50               0                
19.7                           0.10998990821309 -51.400885543747 0.914089165388376 13.7600311415151 0.914089165388376 13.7600311415152 0.110039011471653 -51.4385636575032 
! Gamma         0                0                0                0                
! Port Impedance         50               0                50               0                
19.8                           0.0908284908281846 -47.1826308378885 0.915463980692426 11.592262452491  0.915463980692425 11.5922624524912 0.0908696896593768 -47.2323292548519 
! Gamma         0                0                0                0                
! Port Impedance         50               0                50               0                
19.9                           0.0732263298031347 -39.7252131732093 0.916389920687828 9.41848545646723 0.916389920687826 9.41848545646739 0.0732543194394632 -39.792237065725 
! Gamma         0                0                0                0                
! Port Impedance         50               0                50               0                
20                             0.0587927366397743 -26.9229366164826 0.91685899177565 7.24094010337482 0.91685899177565 7.24094010337482 0.058798342251637 -27.0115188427512 
! Gamma         -0               -0               0                0                
! Port Impedance         50               0                50               0                
