! Touchstone file exported from HFSS 2026.1.0
!        File:           C:/ffzhzh/LocalFiles/Ansys_Project_Files/temp_train_TSV_RDL_757_1783206876_22436.aedt
!        Generated:      07:26:05 AM Jul  5, 2026
!        Design:         TSV_RDL
!        Project:        temp_train_TSV_RDL_757_1783206876_22436
!
! Variables:
!        h_bsmrdl = 3.79um
!        h_ox = 20um
!        h_rdl = 5um
!        h_sub = 62.17um
!        h_tmrdl = 3.17um
!        h_tsv = 62.17um
!        h_via = 3um
!        l_bsmrdl = 116.92um
!        l_sub = 1805.92um
!        l_tmrdl = 233.04um
!        m_sub = 200um
!        pitch = 53.36um
!        r_tsv = 12.38um
!        s_tmrdl = 10um
!        w_bsmrdl = 15.49um
!        w_sub = 500um
!        w_tmrdl = 25.51um
!        x_tsv_center1 = 245.795um
!        x_tsv_center2 = 378.205um
!        x_tsv_center3 = 636.755um
!        x_tsv_center4 = 769.165um
!        x_tsv_center5 = 1027.715um
!        x_tsv_center6 = 1160.125um
!
# GHz S MA R 50.000000
! Terminal data exported
! Port[1] = TM_RDL1_1_T1
! Port[2] = TM_RDL5_1_T1
0.1                            0.00949645271387862 37.1880144187802 0.992482478974816 -0.64300831038707 0.992482478974816 -0.64300831038707 0.00949645407084919 37.1880169058716 
! Gamma         0                0                0                0                
! Port Impedance         50               0                50               0                
0.2                            0.013904743811394 54.5912931977919 0.992131273344826 -1.27800560384355 0.992131273344824 -1.27800560384345 0.0139047486464367 54.5912644333735 
! Gamma         0                0                0                0                
! Port Impedance         50               0                50               0                
0.3                            0.0188718126098854 62.459180822576  0.99168895567087 -1.90262544437128 0.991688955670869 -1.90262544437103 0.0188718175784158 62.4591244594254 
! Gamma         0                0                0                0                
! Port Impedance         50               0                50               0                
0.4                            0.0239364642573067 66.6610251277433 0.991242049645237 -2.51905610394947 0.991242049645238 -2.51905610394908 0.0239364669216341 66.6609483438403 
! Gamma         0                0                0                0                
! Port Impedance         50               0                50               0                
0.5                            0.0290090848537212 69.2175245949906 0.990822565129522 -3.13045138926748 0.990822565129525 -3.13045138926702 0.0290090838660184 69.2174317902408 
! Gamma         0                0                0                0                
! Port Impedance         50               0                50               0                
0.6                            0.0340820163800058 70.8950794640443 0.990431044103244 -3.73915767111729 0.99043104410325 -3.7391576711168 0.0340820110076275 70.8949728749615 
! Gamma         0                0                0                0                
! Port Impedance         50               0                50               0                
0.7                            0.0391598997326189 72.0339717183188 0.990057243277969 -4.34654414773628 0.990057243277976 -4.34654414773581 0.0391598894934686 72.03385239178   
! Gamma         0                0                0                0                
! Port Impedance         50               0                50               0                
0.8                            0.0442456202162639 72.810071695553  0.989689799440211 -4.95330811848361 0.98968979944022 -4.9533081184832 0.0442456046892827 72.8099400939023 
! Gamma         0                0                0                0                
! Port Impedance         50               0                50               0                
0.9                            0.0493391934118979 73.3262817095901 0.989319292998799 -5.55976232993062 0.989319292998809 -5.55976232993027 0.0493391721545744 73.3261380261236 
! Gamma         0                0                0                0                
! Port Impedance         50               0                50               0                
1                              0.0544388440930917 73.6485128279591 0.988938670498007 -6.16601686504197 0.988938670498018 -6.16601686504168 0.0544388166107788 73.64835714135   
! Gamma         0                0                0                0                
! Port Impedance         50               0                50               0                
1.1                            0.0595419703699263 73.8217163078197 0.988542877311612 -6.77208008753104 0.988542877311624 -6.77208008753082 0.0595419361078963 73.8215486555267 
! Gamma         0                0                0                0                
! Port Impedance         50               0                50               0                
1.2                            0.064645717889249 73.8779196268355 0.988128370633465 -7.37791170071623 0.988128370633478 -7.37791170071607 0.0646456762341689 73.8777400390899 
! Gamma         0                0                0                0                
! Port Impedance         50               0                50               0                
1.3                            0.0697472709361001 73.8406781789112 0.987692705692659 -7.98344993144688 0.987692705692671 -7.98344993144678 0.0697472212211676 73.8404866936882 
! Gamma         0                0                0                0                
! Port Impedance         50               0                50               0                
1.4                            0.0748439807482509 73.7277421797374 0.987234225600232 -8.58862521619534 0.987234225600245 -8.5886252161953 0.0748439222595642 73.7275388485737 
! Gamma         0                0                0                0                
! Port Impedance         50               0                50               0                
1.5                            0.0799334093325688 73.5527510146545 0.986751839547243 -9.19336693953836 0.986751839547255 -9.19336693953838 0.0799333413157313 73.5525359040883 
! Gamma         0                0                0                0                
! Port Impedance         50               0                50               0                
1.6                            0.0850133326701395 73.3263578958821 0.986244866756559 -9.79760661754217 0.98624486675657 -9.79760661754223 0.0850132543366955 73.3261310868467 
! Gamma         0                0                0                0                
! Port Impedance         50               0                50               0                
1.7                            0.0900817262710483 73.0570016499296 0.985712926898535 -10.4012792736451 0.985712926898547 -10.4012792736452 0.090081636804596 73.0567632362444 
! Gamma         0                0                0                0                
! Port Impedance         50               0                50               0                
1.8                            0.0951367445297515 72.7514503827715 0.985155862696088 -11.0043239078324 0.985155862696099 -11.0043239078326 0.0951366430916752 72.7512004692954 
! Gamma         0                0                0                0                
! Port Impedance         50               0                50               0                
1.9                            0.100176699296594 72.4151926899091 0.984573684722302 -11.6066835239104 0.984573684722313 -11.6066835239105 0.100176585031396 72.4149313906307 
! Gamma         0                0                0                0                
! Port Impedance         50               0                50               0                
2                              0.105200040013154 72.0527242495416 0.983966531542941 -12.2083049541264 0.983966531542951 -12.2083049541266 0.105199912053379 72.0524516857376 
! Gamma         0                0                0                0                
! Port Impedance         50               0                50               0                
2.1                            0.110205336246889 71.667761051092  0.983334640545435 -12.8091386030526 0.983334640545445 -12.8091386030528 0.110205193717643 71.6674773496127 
! Gamma         0                0                0                0                
! Port Impedance         50               0                50               0                
2.2                            0.115191262747543 71.2634002235963 0.982678326282011 -13.4091381714052 0.982678326282021 -13.4091381714054 0.1151911047706  71.2631055153015 
! Gamma         0                0                0                0                
! Port Impedance         50               0                50               0                
2.3                            0.120156586837847 70.8422428389227 0.981997964155095 -14.0082603885405 0.981997964155104 -14.0082603885408 0.120156412535348 70.841937257272  
! Gamma         0                0                0                0                
! Port Impedance         50               0                50               0                
2.4                            0.125100157839681 70.4064887315773 0.981293977946538 -14.6064647658634 0.981293977946546 -14.6064647658637 0.125099966337419 70.4061724113718 
! Gamma         0                0                0                0                
! Port Impedance         50               0                50               0                
2.5                            0.130020898219225 69.9580104640983 0.980566830147388 -15.2037133750244 0.980566830147395 -15.2037133750247 0.130020688649539 69.9576835403674 
! Gamma         0                0                0                0                
! Port Impedance         50               0                50               0                
2.6                            0.134917796158065 69.4984115720369 0.979817014354638 -15.7999706507329 0.979817014354645 -15.7999706507332 0.134917567662326 69.4980741790603 
! Gamma         0                0                0                0                
! Port Impedance         50               0                50               0                
2.7                            0.139789899295486 69.0290728335907 0.979045049213817 -16.3952032162169 0.979045049213823 -16.3952032162172 0.139789651026201 69.028725104048  
! Gamma         0                0                0                0                
! Port Impedance         50               0                50               0                
2.8                            0.144636309428005 68.5511893278628 0.978251473533213 -16.9893797287252 0.978251473533219 -16.9893797287255 0.144636040550546 68.5508313921012 
! Gamma         0                0                0                0                
! Port Impedance         50               0                50               0                
2.9                            0.14945617799006 68.0658003436131 0.977436842298153 -17.5824707424091 0.977436842298158 -17.5824707424094 0.149455887684037 68.0654323290253 
! Gamma         0                0                0                0                
! Port Impedance         50               0                50               0                
3                              0.154248702172669 67.5738136919228 0.976601723385955 -18.1744485861213 0.97660172338596 -18.1744485861216 0.154248389632964 67.5734357224265 
! Gamma         0                0                0                0                
! Port Impedance         50               0                50               0                
3.1                            0.159013121564506 67.0760256039517 0.975746694833563 -18.7652872539785 0.975746694833567 -18.7652872539788 0.159012786001986 67.0756377995641 
! Gamma         0                0                0                0                
! Port Impedance         50               0                50               0                
3.2                            0.163748715222452 66.573137119689  0.97487234254667 -19.3549623068512 0.974872342546674 -19.3549623068515 0.16374835586439 66.5727395961874 
! Gamma         0                0                0                0                
! Port Impedance         50               0                50               0                
3.3                            0.168454799097088 66.0657676680965 0.973979258365789 -19.9434507832528 0.973979258365793 -19.9434507832531 0.168454415187313 66.065360536759  
! Gamma         0                0                0                0                
! Port Impedance         50               0                50               0                
3.4                            0.173130723753279 65.5544663842911 0.973068038424182 -20.5307311183585 0.973068038424185 -20.5307311183587 0.173130314552084 65.5540497517101 
! Gamma         0                0                0                0                
! Port Impedance         50               0                50               0                
3.5                            0.177775872337824 65.0397215919051 0.972139281746871 -21.1167830701154 0.972139281746874 -21.1167830701157 0.177775437121651 65.0392955598666 
! Gamma         0                0                0                0                
! Port Impedance         50               0                50               0                
3.6                            0.182389658755471 64.5219687888485 0.971193589050653 -21.7015876515872 0.971193589050656 -21.7015876515874 0.182389196816409 64.5215334542718 
! Gamma         0                0                0                0                
! Port Impedance         50               0                50               0                
3.7                            0.186971526022077 64.0015974053892 0.970231561713014 -22.2851270688273 0.970231561713016 -22.2851270688275 0.186971036667195 64.0011528603189 
! Gamma         0                0                0                0                
! Port Impedance         50               0                50               0                
3.8                            0.191520944769566 63.4789565496698 0.969253800883947 -22.8673846636977 0.96925380088395 -22.8673846636979 0.191520427320104 63.4785028813164 
! Gamma         0                0                0                0                
! Port Impedance         50               0                50               0                
3.9                            0.196037411882026 62.9543599137548 0.968260906719361 -23.4483448611433 0.968260906719363 -23.4483448611435 0.196036865672474 62.9538972045762 
! Gamma         0                0                0                0                
! Port Impedance         50               0                50               0                
4                              0.200520449246005 62.4280899802587 0.967253477718369 -24.0279931205103 0.967253477718371 -24.0279931205105 0.200519873623094 62.4276183080783 
! Gamma         0                0                0                0                
! Port Impedance         50               0                50               0                
4.1                            0.204969602600996 61.9004016434786 0.966232110149653 -24.6063158905531 0.966232110149655 -24.6063158905533 0.204968996922613 61.8999210816343 
! Gamma         0                0                0                0                
! Port Impedance         50               0                50               0                
4.2                            0.20938444047843 61.3715253381718 0.965197397554363 -25.1833005678246 0.965197397554365 -25.1833005678247 0.209383804112499 61.3710359556918 
! Gamma         0                0                0                0                
! Port Impedance         50               0                50               0                
4.3                            0.213764553219381 60.8416697525067 0.964149930314856 -25.7589354581777 0.964149930314857 -25.7589354581778 0.213763885542708 60.841171614306  
! Gamma         0                0                0                0                
! Port Impedance         50               0                50               0                
4.4                            0.218109552062641 60.3110241883549 0.963090295280123 -26.3332097411372 0.963090295280125 -26.3332097411373 0.218108852459753 60.3105173554505 
! Gamma         0                0                0                0                
! Port Impedance         50               0                50               0                
4.5                            0.222419068296027 59.7797606213107 0.96201907544    -26.9061134369214 0.962019075440001 -26.9061134369215 0.222418336158015 59.7792451510494 
! Gamma         0                0                0                0                
! Port Impedance         50               0                50               0                
4.6                            0.226692752464734 59.248035504063  0.960936849641313 -27.4776373759141 0.960936849641315 -27.4776373759142 0.226691987188121 59.2475114503598 
! Gamma         0                0                0                0                
! Port Impedance         50               0                50               0                
4.7                            0.230930273631322 58.7159913496113 0.959844192340052 -28.0477731703988 0.959844192340053 -28.0477731703989 0.230929474616962 58.7154587631945 
! Gamma         0                0                0                0                
! Port Impedance         50               0                50               0                
4.8                            0.235131318682551 58.1837581249687 0.958741673384391 -28.616513188383 0.958741673384392 -28.616513188383 0.235130485334572 58.1832170536289 
! Gamma         0                0                0                0                
! Port Impedance         50               0                50               0                
4.9                            0.239295591678813 57.6514544811878 0.95762985782412 -29.1838505293485 0.957629857824122 -29.1838505293486 0.239294723403611 57.6509049700282 
! Gamma         0                0                0                0                
! Port Impedance         50               0                50               0                
5                              0.243422813242327 57.1191888415748 0.956509305742574 -29.7497790017741 0.956509305742575 -29.7497790017742 0.243421909447625 57.1186309332602 
! Gamma         0                0                0                0                
! Port Impedance         50               0                50               0                
5.1                            0.247512719980648 56.5870603666638 0.955380572107718 -30.3142931022856 0.955380572107719 -30.3142931022856 0.247511780074618 56.586494101667  
! Gamma         0                0                0                0                
! Port Impedance         50               0                50               0                
5.2                            0.251565063942339 56.055159811784  0.954244206639489 -30.8773879962951 0.95424420663949 -30.8773879962951 0.251564087332793 56.0545852286274 
! Gamma         0                0                0                0                
! Port Impedance         50               0                50               0                
5.3                            0.255579612101931 55.523570290762  0.95310075369089 -31.439059500001 0.953100753690892 -31.439059500001 0.255578598195592 55.5229874262522 
! Gamma         0                0                0                0                
! Port Impedance         50               0                50               0                
5.4                            0.259556145871552 54.9923679573792 0.951950752140708 -31.9993040636242 0.951950752140709 -31.9993040636242 0.259555094073398 54.991776846835  
! Gamma         0                0                0                0                
! Port Impedance         50               0                50               0                
5.5                            0.263494460636804 54.461622614591  0.950794735296033 -32.5581187557663 0.950794735296035 -32.5581187557662 0.263493370349483 54.4610232920622 
! Gamma         0                0                0                0                
! Port Impedance         50               0                50               0                
5.6                            0.26739436531465 53.9313982601458 0.949633230803059 -33.11550124878  0.949633230803061 -33.11550124878  0.267393235937983 53.9307907586226 
! Gamma         0                0                0                0                
! Port Impedance         50               0                50               0                
5.7                            0.271255681931296 53.4017535760877 0.948466760564859 -33.6714498050509 0.948466760564861 -33.6714498050509 0.271254512861851 53.4011379277004 
! Gamma         0                0                0                0                
! Port Impedance         50               0                50               0                
5.8                            0.275078245218165 52.8727423686407 0.947295840665078 -34.2259632640938 0.94729584066508 -34.2259632640938 0.275077035848903 52.8721186048483 
! Gamma         0                0                0                0                
! Port Impedance         50               0                50               0                
5.9                            0.278861902224242 52.3444139641341 0.946120981296679 -34.7790410303756 0.946120981296681 -34.7790410303755 0.278860651944241 52.3437821159023 
! Gamma         0                0                0                0                
! Port Impedance         50               0                50               0                
6                              0.282606511943207 51.8168135659101 0.944942686695008 -35.3306830617823 0.94494268669501 -35.3306830617823 0.282605220137453 51.8161736638783 
! Gamma         0                0                0                0                
! Port Impedance         50               0                50               0                
6.1                            0.286311944953903 51.2899825765386 0.943761455074648 -35.8808898586544 0.94376145507465 -35.8808898586544 0.286310611003151 51.2893346511757 
! Gamma         0                0                0                0                
! Port Impedance         50               0                50               0                
6.2                            0.28997808307282 50.7639588891334 0.942577778569596 -36.4296624533189 0.942577778569599 -36.4296624533188 0.289976706353512 50.763302970882  
! Gamma         0                0                0                0                
! Port Impedance         50               0                50               0                
6.3                            0.293604819017376 50.2387771511051 0.941392143176464 -36.9770024000558 0.941392143176467 -36.9770024000558 0.293603398901626 50.2381132705151 
! Gamma         0                0                0                0                
! Port Impedance         50               0                50               0                
6.4                            0.297192056078914 49.7144690032899 0.940205028700439 -37.5229117654398 0.940205028700441 -37.5229117654398 0.297190591934545 49.7137971911414 
! Gamma         0                0                0                0                
! Port Impedance         50               0                50               0                
6.5                            0.300739707804421 49.1910632970504 0.939016908703864 -38.0673931190032 0.939016908703867 -38.0673931190031 0.300738198995056 49.1903835844655 
! Gamma         0                0                0                0                
! Port Impedance         50               0                50               0                
6.6                            0.304247697686083 48.6685862916424 0.937828250457342 -38.6104495241733 0.937828250457344 -38.6104495241732 0.304246143571281 48.6678987101873 
! Gamma         0                0                0                0                
! Port Impedance         50               0                50               0                
6.7                            0.30771595885787 48.147061833882  0.936639514893303 -39.1520845294414 0.936639514893306 -39.1520845294413 0.307714358793306 48.1463664156587 
! Gamma         0                0                0                0                
! Port Impedance         50               0                50               0                
6.8                            0.311144433798456 47.6265115219184 0.935451156562061 -39.692302159724 0.935451156562063 -39.6923021597239 0.311142787136144 47.6258082996473 
! Gamma         0                0                0                0                
! Port Impedance         50               0                50               0                
6.9                            0.314533074039836 47.1069548547167 0.934263623590367 -40.2311069078831 0.93426362359037 -40.231106907883 0.31453138012838 47.10624386181   
! Gamma         0                0                0                0                
! Port Impedance         50               0                50               0                
7                              0.317881839881088 46.588409368681  0.933077357642538 -40.7685037263759 0.933077357642541 -40.7685037263759 0.317880098065972 46.5876906393072 
! Gamma         0                0                0                0                
! Port Impedance         50               0                50               0                
7.1                            0.321190700106807 46.0708907626895 0.931892793884222 -41.3044980190078 0.931892793884225 -41.3044980190078 0.321188909730707 46.0701643318303 
! Gamma         0                0                0                0                
! Port Impedance         50               0                50               0                
7.2                            0.324459631709775 45.5544130126803 0.9307103609489  -41.8390956327657 0.930710360948902 -41.8390956327656 0.324457792112897 45.5536789161793 
! Gamma         0                0                0                0                
! Port Impedance         50               0                50               0                
7.3                            0.327688619617538 45.0389884768047 0.929530480907211 -42.3723028497135 0.929530480907214 -42.3723028497134 0.327686730137974 45.0382467514093 
! Gamma         0                0                0                0                
! Port Impedance         50               0                50               0                
7.4                            0.330877656422553 44.5246279920563 0.928353569239211 -42.9041263789333 0.928353569239213 -42.9041263789333 0.330875716396654 44.5238786754525 
! Gamma         0                0                0                0                
! Port Impedance         50               0                50               0                
7.5                            0.334026742115676 44.0113409631918 0.927180034809645 -43.4345733484991 0.927180034809648 -43.4345733484991 0.334024750878441 44.0105840940328 
! Gamma         0                0                0                0                
! Port Impedance         50               0                50               0                
7.6                            0.33713588382278 43.4991354446739 0.926010279846351 -43.9636512974717 0.926010279846354 -43.9636512974717 0.337133840708246 43.498371062603  
! Gamma         0                0                0                0                
! Port Impedance         50               0                50               0                
7.7                            0.340205095544318 42.9880182162916 0.924844699921863 -44.4913681679077 0.924844699921866 -44.4913681679077 0.340202999885972 42.9872463619598 
! Gamma         0                0                0                0                
! Port Impedance         50               0                50               0                
7.8                            0.34323439789773 42.4779948530483 0.923683683938301 -45.0177322968747 0.923683683938304 -45.0177322968747 0.343232249028909 42.4772155681269 
! Gamma         0                0                0                0                
! Port Impedance         50               0                50               0                
7.9                            0.346223817862563 41.9690697898467 0.92252761411562 -45.5427524084694 0.922527614115623 -45.5427524084694 0.34622161511687 41.9682831170351 
! Gamma         0                0                0                0                
! Port Impedance         50               0                50               0                
8                              0.349173388528271 41.4612463814462 0.92137686598327 -46.0664376058354 0.921376865983273 -46.0664376058354 0.349171131239978 41.4604523644762 
! Gamma         0                0                0                0                
! Port Impedance         50               0                50               0                
8.1                            0.352083148844613 40.9545269581245 0.920231808375318 -46.5887973631787 0.92023180837532 -46.5887973631786 0.352080836349074 40.9537256417603 
! Gamma         0                0                0                0                
! Port Impedance         50               0                50               0                
8.2                            0.354953143374672 40.4489128774275 0.919092803429066 -47.1098415177821 0.919092803429069 -47.1098415177821 0.35495077500872 40.448104307463  
! Gamma         0                0                0                0                
! Port Impedance         50               0                50               0                
8.3                            0.357783422050455 39.9444045723585 0.917960206587183 -47.629580262019 0.917960206587186 -47.6295802620191 0.357780997152799 39.9435887956109 
! Gamma         0                0                0                0                
! Port Impedance         50               0                50               0                
8.4                            0.360574039931111 39.4410015963194 0.916834366603362 -48.148024135368 0.916834366603365 -48.148024135368 0.360571557842727 39.4401786606208 
! Gamma         0                0                0                0                
! Port Impedance         50               0                50               0                
8.5                            0.363325056963803 38.9387026650899 0.915715625551497 -48.6651840164322 0.9157156255515  -48.6651840164322 0.36332251702831 38.9378726192764 
! Gamma         0                0                0                0                
! Port Impedance         50               0                50               0                
8.6                            0.366036537747253 38.4375056960995 0.914604318838362 -49.181071114967 0.914604318838365 -49.181071114967 0.366033939311281 38.4366685899981 
! Gamma         0                0                0                0                
! Port Impedance         50               0                50               0                
8.7                            0.368708551298029 37.9374078452261 0.913500775219765 -49.6956969639192 0.913500775219768 -49.6956969639193 0.368705893711578 37.9365637296401 
! Gamma         0                0                0                0                
! Port Impedance         50               0                50               0                
8.8                            0.371341170819637 37.4384055413291 0.912405316820136 -50.2090734114843 0.912405316820138 -50.2090734114843 0.371338453436419 37.4375544680219 
! Gamma         0                0                0                0                
! Port Impedance         50               0                50               0                
8.9                            0.37393447347446 36.9404945187084 0.911318259155491 -50.7212126131845 0.911318259155493 -50.7212126131845 0.373931695652231 36.9396365403863 
! Gamma         0                0                0                0                
! Port Impedance         50               0                50               0                
9                              0.376488540158643 36.4436698476601 0.910239911159724 -51.2321270239754 0.910239911159726 -51.2321270239754 0.376485701259521 36.442805017954  
! Gamma         0                0                0                0                
! Port Impedance         50               0                50               0                
9.1                            0.379003455279977 35.9479259632854 0.909170575214139 -51.7418293903852 0.909170575214142 -51.7418293903853 0.379000554670741 35.9470543367314 
! Gamma         0                0                0                0                
! Port Impedance         50               0                50               0                
9.2                            0.381479306538857 35.4532566926922 0.908110547180155 -52.2503327426933 0.908110547180157 -52.2503327426934 0.381476343591238 35.4523783247124 
! Gamma         0                0                0                0                
! Port Impedance         50               0                50               0                
9.3                            0.383916184712399 34.95965528072   0.907060116435076 -52.7576503871531 0.907060116435079 -52.7576503871532 0.38391315880335 34.9587702276021 
! Gamma         0                0                0                0                
! Port Impedance         50               0                50               0                
9.4                            0.386314183441781 34.4671144143006 0.906019565910861 -53.263795898266 0.906019565910864 -53.2637958982661 0.386311093953734 34.4662227331783 
! Gamma         0                0                0                0                
! Port Impedance         50               0                50               0                
9.5                            0.388673399022886 33.975626245564  0.904989172135753 -53.7687831111116 0.904989172135755 -53.7687831111117 0.388670245343993 33.9747279943959 
! Gamma         0                0                0                0                
! Port Impedance         50               0                50               0                
9.6                            0.390993930200312 33.4851824137812 0.903969205278684 -54.2726261137405 0.903969205278686 -54.2726261137406 0.390990711724669 33.4842776513314 
! Gamma         0                0                0                0                
! Port Impedance         50               0                50               0                
9.7                            0.393275877964821 32.995774066234  0.902959929196332 -54.7753392396346 0.902959929196334 -54.7753392396347 0.393272594092678 32.9948628520518 
! Gamma         0                0                0                0                
! Port Impedance         50               0                50               0                
9.8                            0.395519345354291 32.5073918780895 0.901961601482708 -55.2769370602417 0.90196160148271 -55.2769370602418 0.395515995492248 32.5064742724898 
! Gamma         0                0                0                0                
! Port Impedance         50               0                50               0                
9.9                            0.397724437258236 32.020026071351  0.900974473521155 -55.7774343775877 0.900974473521158 -55.7774343775878 0.397721020819414 32.0191021353955 
! Gamma         0                0                0                0                
! Port Impedance         50               0                50               0                
10                             0.399891260225933 31.5336664329524 0.899998790538631 -56.2768462169742 0.899998790538632 -56.2768462169743 0.399887776630146 31.5327362284307 
! Gamma         0                0                0                0                
! Port Impedance         50               0                50               0                
10.1                           0.40201992227824 31.0483023320541 0.899034791662133 -56.7751878197638 0.899034791662135 -56.7751878197639 0.402016370952135 31.0473659214661 
! Gamma         0                0                0                0                
! Port Impedance         50               0                50               0                
10.2                           0.404110532723116 30.5639227365965 0.898082709977164 -57.2724746362596 0.898082709977166 -57.2724746362597 0.404106913100309 30.562980183135  
! Gamma         0                0                0                0                
! Port Impedance         50               0                50               0                
10.3                           0.406163201974918 30.0805162291598 0.897142772588068 -57.7687223186825 0.897142772588069 -57.7687223186825 0.406159513496114 30.0795675966943 
! Gamma         0                0                0                0                
! Port Impedance         50               0                50               0                
10.4                           0.408178041377493 29.5980710221768 0.896215200680125 -58.2639467142508 0.896215200680126 -58.2639467142508 0.408174283490585 29.5971163752381 
! Gamma         0                0                0                0                
! Port Impedance         50               0                50               0                
10.5                           0.410155163031105 29.1165749725392 0.895300209583274 -58.7581638583657 0.895300209583275 -58.7581638583658 0.410151335191269 29.1156143763044 
! Gamma         0                0                0                0                
! Port Impedance         50               0                50               0                
10.6                           0.412094679623226 28.6360155956363 0.894398008837309 -59.2513899679067 0.89439800883731 -59.2513899679068 0.412090781292997 28.6350491159159 
! Gamma         0                0                0                0                
! Port Impedance         50               0                50               0                
10.7                           0.413996704263215 28.1563800788614 0.893508802258432 -59.7436414346395 0.893508802258433 -59.7436414346396 0.413992734912553 28.1554077820863 
! Gamma         0                0                0                0                
! Port Impedance         50               0                50               0                
10.8                           0.415861350320903 27.6776552946179 0.892632788007022 -60.2349348187407 0.892632788007023 -60.2349348187408 0.415857309427241 27.6766772478279 
! Gamma         0                0                0                0                
! Port Impedance         50               0                50               0                
10.9                           0.417688731269092 27.1998278128533 0.89177015865649 -60.7252868424409 0.891770158656491 -60.725286842441 0.417684618317381 27.1988440836871 
! Gamma         0                0                0                0                
! Port Impedance         50               0                50               0                
11                             0.419478960529994 26.7228839131516 0.890921101263082 -61.2147143837891 0.890921101263083 -61.2147143837892 0.419474775012728 26.7218945698371 
! Gamma         0                0                0                0                
! Port Impedance         50               0                50               0                
11.1                           0.421232151325594 26.2468095964056 0.890085797436519 -61.7032344705407 0.89008579743652 -61.7032344705408 0.42122789274283 26.2458147077523 
! Gamma         0                0                0                0                
! Port Impedance         50               0                50               0                
11.2                           0.422948416531955 25.7715905960957 0.889264423411319 -62.1908642741716 0.88926442341132 -62.1908642741717 0.422944084391321 25.7705902314873 
! Gamma         0                0                0                0                
! Port Impedance         50               0                50               0                
11.3                           0.424627868537454 25.2972123891936 0.888457150118707 -62.6776211040184 0.888457150118708 -62.6776211040185 0.424623462354146 25.2962066185826 
! Gamma         0                0                0                0                
! Port Impedance         50               0                50               0                
11.4                           0.426270619104947 24.8236602067136 0.887664143258966 -63.1635224015479 0.887664143258967 -63.163522401548 0.426266138401717 24.822649100617  
! Gamma         0                0                0                0                
! Port Impedance         50               0                50               0                
11.5                           0.427876779237842 24.3509190439287 0.886885563374123 -63.6485857347566 0.886885563374123 -63.6485857347567 0.427872223544977 24.3499026734244 
! Gamma         0                0                0                0                
! Port Impedance         50               0                50               0                
11.6                           0.429446459050082 23.8789736702687 0.886121565920848 -64.1328287927002 0.886121565920848 -64.1328287927003 0.429441827905379 23.8779521069938 
! Gamma         0                0                0                0                
! Port Impedance         50               0                50               0                
11.7                           0.430979767640013 23.4078086389176 0.885372301343455 -64.6162693801549 0.885372301343455 -64.616269380155 0.430975060588739 23.4067819550674 
! Gamma         0                0                0                0                
! Port Impedance         50               0                50               0                
11.8                           0.432476812968108 22.9374082961234 0.884637915146889 -65.0989254124102 0.884637915146889 -65.0989254124103 0.432472029562958 22.9363765644521 
! Gamma         0                0                0                0                
! Port Impedance         50               0                50               0                
11.9                           0.433937701738547 22.4677567902371 0.883918547969598 -65.5808149101943 0.883918547969598 -65.5808149101944 0.433932841539591 22.4667200840596 
! Gamma         0                0                0                0                
! Port Impedance         50               0                50               0                
12                             0.435362539284603 21.9988380804919 0.883214335656183 -66.061955994731 0.883214335656183 -66.0619559947311 0.435357601859236 21.9977964736867 
! Gamma         0                0                0                0                
! Port Impedance         50               0                50               0                
12.1                           0.43675142945783 21.5306359455362 0.882525409329717 -66.5423668829284 0.882525409329717 -66.5423668829284 0.436746414380701 21.5295895125499 
! Gamma         0                0                0                0                
! Port Impedance         50               0                50               0                
12.2                           0.438104474521001 21.0631339917327 0.881851895463653 -67.0220658826993 0.881851895463653 -67.0220658826994 0.438099381373951 21.0620828075857 
! Gamma         0                0                0                0                
! Port Impedance         50               0                50               0                
12.3                           0.439421775044785 20.5963156612336 0.881193915953206 -67.5010713884125 0.881193915953206 -67.5010713884126 0.439416603416774 20.5952598015266 
! Gamma         0                0                0                0                
! Port Impedance         50               0                50               0                
12.4                           0.440703429808125 20.1301642398432 0.880551588186134 -67.9794018764741 0.880551588186134 -67.9794018764742 0.440698179295153 20.129103780766  
! Gamma         0                0                0                0                
! Port Impedance         50               0                50               0                
12.5                           0.441949535702268 19.664662864679  0.879925025112817 -68.4570759010377 0.879925025112817 -68.4570759010377 0.441944205907298 19.6635978830193 
! Gamma         0                0                0                0                
! Port Impedance         50               0                50               0                
12.6                           0.443160187638439 19.1997945316386 0.879314335315564 -68.9341120898427 0.879314335315564 -68.9341120898428 0.44315477817131 19.1987251047933 
! Gamma         0                0                0                0                
! Port Impedance         50               0                50               0                
12.7                           0.444335478459103 18.7355421026841 0.878719623077053 -69.4105291401802 0.878719623077053 -69.4105291401803 0.444329988936445 18.7344683086712 
! Gamma         0                0                0                0                
! Port Impedance         50               0                50               0                
12.8                           0.445475498852786 18.2718883129517 0.878140988447834 -69.886345814983 0.878140988447834 -69.8863458149831 0.445469928897927 18.2708102304233 
! Gamma         0                0                0                0                
! Port Impedance         50               0                50               0                
12.9                           0.446580337272414 17.8088157776942 0.877578527312816 -70.3615809390405 0.877578527312816 -70.3615809390405 0.446574686515296 17.8077334859517 
! Gamma         0                0                0                0                
! Port Impedance         50               0                50               0                
13                             0.447650079857145 17.3463069990672 0.877032331456675 -70.8362533953351 0.877032331456675 -70.8362533953352 0.447644347934223 17.3452205780766 
! Gamma         0                0                0                0                
! Port Impedance         50               0                50               0                
13.1                           0.448684810357642 16.8843443727632 0.876502488628098 -71.3103821214998 0.876502488628098 -71.3103821214999 0.448678996911794 16.8832539031729 
! Gamma         0                0                0                0                
! Port Impedance         50               0                50               0                
13.2                           0.449684610064753 16.4229101945054 0.875989082602817 -71.7839861063935 0.875989082602817 -71.7839861063936 0.449678714745184 16.4218157576643 
! Gamma         0                0                0                0                
! Port Impedance         50               0                50               0                
13.3                           0.450649557741577 15.9619866664046 0.875492193245359 -72.2570843867933 0.875492193245358 -72.2570843867934 0.450643580203722 15.9608883443821 
! Gamma         0                0                0                0                
! Port Impedance         50               0                50               0                
13.4                           0.451579729558851 15.5015559031896 0.87501189656945 -72.729696044201 0.87501189656945 -72.7296960442011 0.451573669464281 15.5004537787967 
! Gamma         0                0                0                0                
! Port Impedance         50               0                50               0                
13.5                           0.452475199033655 15.0415999383165 0.874548264797031 -73.201840201762 0.874548264797031 -73.201840201762 0.452469056049978 15.0404940951282 
! Gamma         0                0                0                0                
! Port Impedance         50               0                50               0                
13.6                           0.453336036971369 14.5821007299635 0.874101366415813 -73.6735360212936 0.874101366415812 -73.6735360212937 0.453329810772139 14.5809912523426 
! Gamma         0                0                0                0                
! Port Impedance         50               0                50               0                
13.7                           0.454162311410872 14.1230401669192 0.873671266235333 -74.1448027004218 0.873671266235333 -74.1448027004219 0.454156001675492 14.1219271400413 
! Gamma         0                0                0                0                
! Port Impedance         50               0                50               0                
13.8                           0.454954087572936 13.6644000743696 0.873258025441463 -74.6156594698219 0.873258025441463 -74.6156594698219 0.454947693986566 13.6632835842497 
! Gamma         0                0                0                0                
! Port Impedance         50               0                50               0                
13.9                           0.455711427811789 13.2061622195912 0.872861701649315 -75.0861255905627 0.872861701649315 -75.0861255905627 0.455704950065255 13.2050423531113 
! Gamma         0                0                0                0                
! Port Impedance         50               0                50               0                
14                             0.456434391569813 12.7483083175555 0.872482348954507 -75.5562203515501 0.872482348954507 -75.5562203515501 0.456427829359518 12.7471851624938 
! Gamma         0                0                0                0                
! Port Impedance         50               0                50               0                
14.1                           0.457123035335351 12.2908200364516 0.872120017982748 -76.0259630670683 0.872120017982748 -76.0259630670684 0.457116388363184 12.2896936815131 
! Gamma         0                0                0                0                
! Port Impedance         50               0                50               0                
14.2                           0.457777412603589 11.8336790031337 0.871774755937701 -76.4953730744156 0.871774755937701 -76.4953730744157 0.457770680576845 11.8325495379818 
! Gamma         0                0                0                0                
! Port Impedance         50               0                50               0                
14.3                           0.458397573840496 11.3768668084975 0.871446606647086 -76.9644697316318 0.871446606647086 -76.9644697316319 0.458390756471792 11.3757343237877 
! Gamma         0                0                0                0                
! Port Impedance         50               0                50               0                
14.4                           0.45898356644979 10.9203650127935 0.871135610606992 -77.4332724153149 0.871135610606991 -77.4332724153149 0.458976663456987 10.9192296002076 
! Gamma         0                0                0                0                
! Port Impedance         50               0                50               0                
14.5                           0.459535434742907 10.4641551508812 0.870841805024357 -77.9018005185238 0.870841805024356 -77.9018005185239 0.459528445849033 10.4630169031641 
! Gamma         0                0                0                0                
! Port Impedance         50               0                50               0                
14.6                           0.460053219911955 10.0082187374319 0.870565223857601 -78.3700734487651 0.870565223857601 -78.3700734487651 0.460046144845135 10.0070777484285 
! Gamma         0                0                0                0                
! Port Impedance         50               0                50               0                
14.7                           0.460536960005635 9.55253727208315 0.870305897855364 -78.8381106260587 0.870305897855364 -78.8381106260587 0.460529798499021 9.55139363677778 
! Gamma         0                0                0                0                
! Port Impedance         50               0                50               0                
14.8                           0.460986689908104 9.09709224455303 0.870063854593327 -79.3059314810826 0.870063854593327 -79.3059314810826 0.460979441699812 9.09594605911012 
! Gamma         0                0                0                0                
! Port Impedance         50               0                50               0                
14.9                           0.461402441320774 8.64186513971823 0.869839118509106 -79.7735554533911 0.869839118509106 -79.7735554533911 0.461395106153826 8.6407165015242  
! Gamma         0                0                0                0                
! Port Impedance         50               0                50               0                
15                             0.461784242747028 8.18683744266177 0.869631710935171 -80.2410019897046 0.869631710935171 -80.2410019897046 0.461776820369296 8.18568645036882 
! Gamma         0                0                0                0                
! Port Impedance         50               0                50               0                
15.1                           0.462132119479842 7.73199064369595 0.869441650129781 -80.708290542268 0.869441650129781 -80.7082905422681 0.462124609643997 7.73083739726723 
! Gamma         0                0                0                0                
! Port Impedance         50               0                50               0                
15.2                           0.462446093592303 7.27730624336568 0.869268951305914 -81.1754405672743 0.869268951305914 -81.1754405672743 0.462438496055773 7.27615084412218 
! Gamma         0                0                0                0                
! Port Impedance         50               0                50               0                
15.3                           0.462726183931025 6.8227657574377  0.869113626658167 -81.64247152335  0.869113626658167 -81.64247152335  0.462718498455954 6.82160830810676 
! Gamma         0                0                0                0                
! Port Impedance         50               0                50               0                
15.4                           0.462972406112442 6.3683507218809  0.868975685387608 -82.1094028701008 0.868975685387608 -82.1094028701008 0.462964632465658 6.36719132664639 
! Gamma         0                0                0                0                
! Port Impedance         50               0                50               0                
15.5                           0.463184772521993 5.91404269784288 0.86885513372457 -82.5762540667118 0.86885513372457 -82.5762540667118 0.463176910474976 5.91288146239711 
! Gamma         0                0                0                0                
! Port Impedance         50               0                50               0                
15.6                           0.46336329231618 5.45982327662821 0.868751974949358 -83.0430445706014 0.868751974949358 -83.0430445706014 0.463355341645045 5.45866030822559 
! Gamma         0                0                0                0                
! Port Impedance         50               0                50               0                
15.7                           0.463507971427518 5.0056740846832  0.868666209410871 -83.5097938361248 0.868666209410871 -83.5097938361247 0.463499931912998 5.00450949219574 
! Gamma         0                0                0                0                
! Port Impedance         50               0                50               0                
15.8                           0.463618812572377 4.55157678859271 0.868597834543102 -83.9765213133236 0.868597834543103 -83.9765213133236 0.463610683999812 4.55041068256732 
! Gamma         0                0                0                0                
! Port Impedance         50               0                50               0                
15.9                           0.463695815261704 4.09751310009379 0.868546844879535 -84.4432464467193 0.868546844879535 -84.4432464467192 0.463687597421041 4.0963455928115  
! Gamma         0                0                0                0                
! Port Impedance         50               0                50               0                
16                             0.463738975814668 3.64346478111131 0.868513232065388 -84.9099886741458 0.868513232065388 -84.9099886741458 0.463730668500465 3.64229598664844 
! Gamma         0                0                0                0                
! Port Impedance         50               0                50               0                
16.1                           0.463748287375202 3.18941364882073 0.868496984867731 -85.3767674256202 0.868496984867731 -85.3767674256201 0.46373989038664 3.18824368311201 
! Gamma         0                0                0                0                
! Port Impedance         50               0                50               0                
16.2                           0.463723739931482 2.73534158074275 0.868498089183439 -85.8436021222458 0.86849808918344 -85.8436021222458 0.463715253072382 2.73417056164657 
! Gamma         0                0                0                0                
! Port Impedance         50               0                50               0                
16.3                           0.463665320338343 2.28123051987508 0.868516528044987 -86.3105121751466 0.868516528044987 -86.3105121751465 0.463656743417195 2.28005856724077 
! Gamma         0                0                0                0                
! Port Impedance         50               0                50               0                
16.4                           0.463573012342655 1.82706247986608 0.868552281624068 -86.7775169844279 0.868552281624069 -86.7775169844278 0.463564345172654 1.82588971560342 
! Gamma         0                0                0                0                
! Port Impedance         50               0                50               0                
16.5                           0.463446796611681 1.3728195502353  0.868605327233044 -87.2446359381616 0.868605327233044 -87.2446359381616 0.463438039010763 1.37164609838622 
! Gamma         0                0                0                0                
! Port Impedance         50               0                50               0                
16.6                           0.463286650764421 0.918483901645726 0.868675639324197 -87.7118884113913 0.868675639324197 -87.7118884113913 0.46327780255532 0.917309888458296 
! Gamma         0                0                0                0                
! Port Impedance         50               0                50               0                
16.7                           0.463092549405993 0.464037791232444 0.868763189486804 -88.1792937651556 0.868763189486805 -88.1792937651556 0.463083610416298 0.462863345237316 
! Gamma         0                0                0                0                
! Port Impedance         50               0                50               0                
16.8                           0.462864464165053 0.00946356799293263 0.868867946442007 -88.6468713455241 0.868867946442007 -88.646871345524 0.462855434227273 0.00828882008213511 
! Gamma         0                0                0                0                
! Port Impedance         50               0                50               0                
16.9                           0.462602363734288 -0.445256321756675 0.868989876035485 -89.1146404826448 0.868989876035485 -89.1146404826448 0.46259324268593 -0.446431238248379 
! Gamma         0                0                0                0                
! Port Impedance         50               0                50               0                
17                             0.462306213914011 -0.900139328854339 0.869128941227925 -89.5826204897991 0.869128941227925 -89.5826204897991 0.462297001597666 -0.901314278065493 
! Gamma         0                0                0                0                
! Port Impedance         50               0                50               0                
17.1                           0.461975977658897 -1.35520279568918 0.869285102083286 -90.0508306624599 0.869285102083286 -90.0508306624599 0.461966673922331 -1.356377639145  
! Gamma         0                0                0                0                
! Port Impedance         50               0                50               0                
17.2                           0.461611615127866 -1.81046395051835 0.869458315754855 -90.519290277351 0.869458315754856 -90.519290277351 0.461602219824128 -1.8116385470413 
! Gamma         0                0                0                0                
! Port Impedance         50               0                50               0                
17.3                           0.461213083737183 -2.26593990169874 0.869648536469094 -90.988018591503 0.869648536469095 -90.988018591503 0.461203596724715 -2.26711410731625 
! Gamma         0                0                0                0                
! Port Impedance         50               0                50               0                
17.4                           0.460780338216776 -2.72164763182916 0.869855715507278 -91.4570348413041 0.869855715507279 -91.4570348413041 0.460770759359535 -2.72282129967836 
! Gamma         0                0                0                0                
! Port Impedance         50               0                50               0                
17.5                           0.460313330669828 -3.17760399179826 0.870079801184925 -91.9263582415402 0.870079801184926 -91.9263582415402 0.460303659837422 -3.17877697202769 
! Gamma         0                0                0                0                
! Port Impedance         50               0                50               0                
17.6                           0.459812010635673 -3.6338256947336 0.870320738829017 -92.396007984423 0.870320738829018 -92.396007984423 0.459802247703501 -3.63499783440167 
! Gamma         0                0                0                0                
! Port Impedance         50               0                50               0                
17.7                           0.459276325156041 -4.09032930984753 0.870578470753019 -92.8660032386009 0.870578470753019 -92.8660032386009 0.459266470005447 -4.09150045281777 
! Gamma         0                0                0                0                
! Port Impedance         50               0                50               0                
17.8                           0.458706218844677 -4.54713125617507 0.870852936229691 -93.3363631481509 0.870852936229692 -93.3363631481509 0.458696271363112 -4.54830124300791 
! Gamma         0                0                0                0                
! Port Impedance         50               0                50               0                
17.9                           0.45810163396039 -5.00424779619951 0.871144071461709 -93.8071068315463 0.87114407146171 -93.8071068315463 0.458091594041588 -5.00541646404058 
! Gamma         0                0                0                0                
! Port Impedance         50               0                50               0                
18                             0.457462510483566 -5.46169502936135 0.871451809550085 -94.2782533805987 0.871451809550086 -94.2782533805987 0.457452378027729 -5.46286221182608 
! Gamma         0                0                0                0                
! Port Impedance         50               0                50               0                
18.1                           0.45678878619618 -5.91948888544591 0.871776080460405 -94.7498218593686 0.871776080460406 -94.7498218593686 0.456778561110172 -5.92065441250042 
! Gamma         0                0                0                0                
! Port Impedance         50               0                50               0                
18.2                           0.456080396765365 -6.37764511784558 0.872116810986883 -95.2218313030434 0.872116810986884 -95.2218313030434 0.45607007896292 -6.3788088156835 
! Gamma         0                0                0                0                
! Port Impedance         50               0                50               0                
18.3                           0.455337275830559 -6.83617929669197 0.872473924714249 -95.6943007167772 0.872473924714251 -95.6943007167772 0.4553268652325  -6.83734098760732 
! Gamma         0                0                0                0                
! Port Impedance         50               0                50               0                
18.4                           0.454559355094289 -7.29510680185402 0.872847341977468 -96.1672490744905 0.872847341977469 -96.1672490744906 0.454548851628756 -7.29626630410976 
! Gamma         0                0                0                0                
! Port Impedance         50               0                50               0                
18.5                           0.453746564416623 -7.75444281579746 0.873236979819307 -96.6406953176249 0.873236979819308 -96.6406953176249 0.453735968019317 -7.75559994348969 
! Gamma         0                0                0                0                
! Port Impedance         50               0                50               0                
18.6                           0.45289883191334 -8.2142023163016 0.873642751945763 -97.1146583538506 0.873642751945764 -97.1146583538506 0.452888142527775 -8.21535687921918 
! Gamma         0                0                0                0                
! Port Impedance         50               0                50               0                
18.7                           0.452016084057847 -8.67440006902909 0.874064568679364 -97.5891570557214 0.874064568679366 -97.5891570557214 0.452005301635614 -8.6755518725085 
! Gamma         0                0                0                0                
! Port Impedance         50               0                50               0                
18.8                           0.451098245786896 -9.13505061994439 0.87450233691036 -98.0642102592759 0.874502336910361 -98.0642102592759 0.451087370287943 -9.13619946471968 
! Gamma         0                0                0                0                
! Port Impedance         50               0                50               0                
18.9                           0.450145240610125 -9.59616828757697 0.874955960045802 -98.5398367625785 0.874955960045803 -98.5398367625785 0.450134272003044 -9.59731396962455 
! Gamma         0                0                0                0                
! Port Impedance         50               0                50               0                
19                             0.449156990723478 -10.0577671551247 0.875425337956561 -99.0160553241992 0.875425337956563 -99.0160553241992 0.449145928985809 -10.0589094655028 
! Gamma         0                0                0                0                
! Port Impedance         50               0                50               0                
19.1                           0.448133417126524 -10.5198610623938 0.875910366922276 -99.4928846616262 0.875910366922277 -99.4928846616262 0.448122262245068 -10.5209997870764 
! Gamma         0                0                0                0                
! Port Impedance         50               0                50               0                
19.2                           0.447074439743715 -10.9824635975704 0.87641093957426 -99.9703434496101 0.876410939574261 -99.9703434496101 0.447063191714864 -10.9835985172753 
! Gamma         0                0                0                0                
! Port Impedance         50               0                50               0                
19.3                           0.445979977549625 -11.4455880888208 0.876926944836399 -100.448450318433 0.8769269448364  -100.448450318433 0.445968636379697 -11.446718978832 
! Gamma         0                0                0                0                
! Port Impedance         50               0                50               0                
19.4                           0.444849948698176 -11.9092475957149 0.877458267864055 -100.927223852103 0.877458267864056 -100.927223852103 0.444838514403773 -11.9103742256979 
! Gamma         0                0                0                0                
! Port Impedance         50               0                50               0                
19.5                           0.44368427065591 -12.3734549004693 0.878004789981002 -101.406682586465 0.878004789981002 -101.406682586464 0.44367274326428 -12.3745770342809 
! Gamma         0                0                0                0                
! Port Impedance         50               0                50               0                
19.6                           0.442482860339301 -12.8382224990064 0.878566388614427 -101.886845007225 0.878566388614428 -101.886845007225 0.442471239888719 -12.839339894497 
! Gamma         0                0                0                0                
! Port Impedance         50               0                50               0                
19.7                           0.44124563425615 -13.3035625918244 0.879142937228041 -102.367729547898 0.879142937228042 -102.367729547898 0.44123392079631 -13.3046750006334 
! Gamma         0                0                0                0                
! Port Impedance         50               0                50               0                
19.8                           0.439972508651072 -13.7694870746746 0.879734305253295 -102.849354587645 0.879734305253296 -102.849354587645 0.439960702243491 -13.7705942420182 
! Gamma         0                0                0                0                
! Port Impedance         50               0                50               0                
19.9                           0.438663399655087 -14.236007529041 0.88034035801879 -103.331738449029 0.88034035801879 -103.331738449029 0.438651500373522 -14.2371091934927 
! Gamma         0                0                0                0                
! Port Impedance         50               0                50               0                
20                             0.437318223439334 -14.7031352124192 0.880960956677875 -103.814899395667 0.880960956677875 -103.814899395667 0.437306231370218 -14.7042311056817 
! Gamma         -0               -0               -0               -0               
! Port Impedance         50               0                50               0                
