! Touchstone file exported from HFSS 2026.1.0
!        File:           C:/ffzhzh/LocalFiles/Ansys_Project_Files/temp_train_TSV_RDL_738_1783204125_22436.aedt
!        Generated:      06:39:10 AM Jul  5, 2026
!        Design:         TSV_RDL
!        Project:        temp_train_TSV_RDL_738_1783204125_22436
!
! Variables:
!        h_bsmrdl = 4.05um
!        h_ox = 20um
!        h_rdl = 5um
!        h_sub = 65.47um
!        h_tmrdl = 4.66um
!        h_tsv = 65.47um
!        h_via = 3um
!        l_bsmrdl = 436.89um
!        l_sub = 2610.66um
!        l_tmrdl = 205.58um
!        m_sub = 200um
!        pitch = 37.94um
!        r_tsv = 7.59um
!        s_tmrdl = 10um
!        w_bsmrdl = 12.12um
!        w_sub = 500um
!        w_tmrdl = 13.77um
!        x_tsv_center1 = 212.465um
!        x_tsv_center2 = 661.475um
!        x_tsv_center3 = 880.825um
!        x_tsv_center4 = 1329.835um
!        x_tsv_center5 = 1549.185um
!        x_tsv_center6 = 1998.195um
!
# GHz S MA R 50.000000
! Terminal data exported
! Port[1] = TM_RDL1_1_T1
! Port[2] = TM_RDL5_1_T1
0.1                            0.0183227788102349 31.4419632915703 0.984484228795021 -0.975780203496362 0.984484228795022 -0.975780203496361 0.0183227779565566 31.4419609857696 
! Gamma         0                0                0                0                
! Port Impedance         50               0                50               0                
0.2                            0.0250621726932793 49.0299543932626 0.984028800948257 -1.941729737392  0.984028800948256 -1.94172973739161 0.0250621690161431 49.0299598574046 
! Gamma         0                0                0                0                
! Port Impedance         50               0                50               0                
0.3                            0.0331156843423149 57.9559700432705 0.983449178882711 -2.89674639232488 0.983449178882716 -2.8967463923241 0.0331156807472343 57.9559873384323 
! Gamma         0                0                0                0                
! Port Impedance         50               0                50               0                
0.4                            0.0416298448621986 62.8933391377468 0.982818851189152 -3.84441487517743 0.982818851189165 -3.84441487517657 0.0416298467210857 62.8933658698228 
! Gamma         0                0                0                0                
! Port Impedance         50               0                50               0                
0.5                            0.0503457352583441 65.8270294832838 0.982148493014354 -4.78783099688239 0.982148493014373 -4.78783099688173 0.0503457479120178 65.8270615701013 
! Gamma         0                0                0                0                
! Port Impedance         50               0                50               0                
0.6                            0.0591647129554191 67.6253811738466 0.981428209692952 -5.72857833786958 0.981428209692976 -5.72857833786925 0.0591647409715724 67.625415113879  
! Gamma         0                0                0                0                
! Port Impedance         50               0                50               0                
0.7                            0.0680361445130207 68.7188060409324 0.980646984092459 -6.66725532442432 0.980646984092483 -6.66725532442434 0.0680361918072417 68.7188392515192 
! Gamma         0                0                0                0                
! Port Impedance         50               0                50               0                
0.8                            0.0769283451957636 69.3452571235737 0.979797325634459 -7.60398821231311 0.979797325634482 -7.60398821231342 0.0769284152550273 69.3452877310628 
! Gamma         0                0                0                0                
! Port Impedance         50               0                50               0                
0.9                            0.0858194365421861 69.6474090911771 0.978875157664942 -8.53870904633268 0.978875157664962 -8.53870904633322 0.0858195325651021 69.6474356969997 
! Gamma         0                0                0                0                
! Port Impedance         50               0                50               0                
1                              0.0946935197064244 69.7160760823662 0.977878814255206 -9.47128245588516 0.977878814255223 -9.47128245588585 0.0946936446707305 69.7160976044936 
! Gamma         0                0                0                0                
! Port Impedance         50               0                50               0                
1.1                            0.103538635848376 69.6117508096679 0.976808161205355 -10.401558397358 0.976808161205369 -10.4015583973587 0.103538792541281 69.6117663876488 
! Gamma         0                0                0                0                
! Port Impedance         50               0                50               0                
1.2                            0.112345515504565 69.3762052020944 0.975663990747766 -11.3293917918659 0.975663990747776 -11.3293917918667 0.112345706539583 69.3762141410157 
! Gamma         0                0                0                0                
! Port Impedance         50               0                50               0                
1.3                            0.121106758499566 69.0391488413614 0.974447640034405 -12.2546481288273 0.974447640034413 -12.2546481288281 0.121106986331146 69.0391505771683 
! Gamma         0                0                0                0                
! Port Impedance         50               0                50               0                
1.4                            0.129816279666581 68.62224683297   0.973160762134826 -13.1772035484113 0.973160762134831 -13.177203548412 0.129816546606451 68.6222409090537 
! Gamma         0                0                0                0                
! Port Impedance         50               0                50               0                
1.5                            0.13846892945041 68.1416439022503 0.971805194007116 -14.0969431141461 0.971805194007119 -14.0969431141467 0.138469237686038 68.1416299520357 
! Gamma         0                0                0                0                
! Port Impedance         50               0                50               0                
1.6                            0.147060233322041 67.6096034537591 0.970382883758448 -15.0137588279614 0.97038288375845 -15.013758827962 0.14706058493624 67.609581186706  
! Gamma         0                0                0                0                
! Port Impedance         50               0                50               0                
1.7                            0.155586213187247 67.0356018740424 0.96889585292434 -15.927547971265 0.96889585292434 -15.9275479712655 0.155586610177704 67.0355710638468 
! Gamma         0                0                0                0                
! Port Impedance         50               0                50               0                
1.8                            0.164043265735044 66.4270766376266 0.967346178559657 -16.8382119277906 0.967346178559656 -16.838211927791 0.164043710032731 66.4270371120637 
! Gamma         0                0                0                0                
! Port Impedance         50               0                50               0                
1.9                            0.172428080331608 65.7899483504959 0.965735985829637 -17.7456554651246 0.965735985829636 -17.7456554651249 0.172428573817372 65.7898999826367 
! Gamma         0                0                0                0                
! Port Impedance         50               0                50               0                
2                              0.180737584258776 65.1289916943523 0.964067445553678 -18.6497863879697 0.964067445553677 -18.6497863879699 0.180738128777712 65.1289343950017 
! Gamma         0                0                0                0                
! Port Impedance         50               0                50               0                
2.1                            0.188968906706763 64.4481033076461 0.962342773524389 -19.5505154642205 0.962342773524388 -19.5505154642207 0.188969504080238 64.4480370188857 
! Gamma         0                0                0                0                
! Port Impedance         50               0                50               0                
2.2                            0.197119355476853 63.7504981018538 0.960564229891256 -20.4477565345995 0.960564229891255 -20.4477565345996 0.197120007512224 63.7504227915831 
! Gamma         0                0                0                0                
! Port Impedance         50               0                50               0                
2.3                            0.205186402157582 63.0388550875746 0.958734117785575 -21.3414267335446 0.958734117785574 -21.3414267335447 0.205187110655752 63.0387707449423 
! Gamma         0                0                0                0                
! Port Impedance         50               0                50               0                
2.4                            0.213167672823582 62.3154270634093 0.956854780882438 -22.2314467666322 0.956854780882437 -22.2314467666323 0.213168439584627 62.3153336950286 
! Gamma         0                0                0                0                
! Port Impedance         50               0                50               0                
2.5                            0.221060942219298 61.5821240986785 0.954928599884298 -23.1177412053244 0.954928599884298 -23.1177412053244 0.22106176904639 61.5820217255242 
! Gamma         0                0                0                0                
! Port Impedance         50               0                50               0                
2.6                            0.228864130035695 60.8405777800121 0.952957988058055 -24.0002387723815 0.952957988058054 -24.0002387723815 0.228865018737576 60.8404664349013 
! Gamma         0                0                0                0                
! Port Impedance         50               0                50               0                
2.7                            0.236575298342776 60.0921911774878 0.950945386020803 -24.8788726009163 0.950945386020803 -24.8788726009162 0.236576250735008 60.0920709030585 
! Gamma         0                0                0                0                
! Port Impedance         50               0                50               0                
2.8                            0.244192649558835 59.3381780960582 0.948893255984439 -25.7535804571626 0.948893255984439 -25.7535804571626 0.24419366746404 59.3380489431665 
! Gamma         0                0                0                0                
! Port Impedance         50               0                50               0                
2.9                            0.251714524558319 58.5795942064643 0.946804075658443 -26.6243049220764 0.946804075658444 -26.6243049220764 0.251715609805594 58.5794562329321 
! Gamma         0                0                0                0                
! Port Impedance         50               0                50               0                
3                              0.259139400672366 57.8173619626773 0.944680331987002 -27.4909935303551 0.944680331987002 -27.4909935303551 0.259140555096048 57.817215232332  
! Gamma         0                0                0                0                
! Port Impedance         50               0                50               0                
3.1                            0.266465889439892 57.0522907215457 0.942524514868862 -28.3535988677508 0.942524514868862 -28.3535988677508 0.266467114877797 57.0521353035015 
! Gamma         0                0                0                0                
! Port Impedance         50               0                50               0                
3.2                            0.273692734036902 56.285093125356  0.940339110980533 -29.2120786289889 0.940339110980534 -29.2120786289889 0.273694032328174 56.2849290934941 
! Gamma         0                0                0                0                
! Port Impedance         50               0                50               0                
3.3                            0.280818806357979 55.516398549102  0.938126597797671 -30.0663956394371 0.938126597797672 -30.0663956394371 0.280820179340646 55.5162259817149 
! Gamma         0                0                0                0                
! Port Impedance         50               0                50               0                
3.4                            0.287843103753754 54.7467642236873 0.935889437886854 -30.9165178440881 0.935889437886855 -30.916517844088 0.287844553262073 54.7465832032565 
! Gamma         0                0                0                0                
! Port Impedance         50               0                50               0                
3.5                            0.294764745446767 53.9766845047825 0.933630073520656 -31.7624182675582 0.933630073520657 -31.7624182675582 0.294766273308435 53.9764951178664 
! Gamma         0                0                0                0                
! Port Impedance         50               0                50               0                
3.6                            0.301582968659071 53.2065986511357 0.931350921652816 -32.6040749487613 0.931350921652817 -32.6040749487612 0.301584576692364 53.2064009883449 
! Gamma         0                0                0                0                
! Port Impedance         50               0                50               0                
3.7                            0.308297124490687 52.4368973961869 0.929054369277114 -33.4414708537608 0.929054369277115 -33.4414708537608 0.308298814501566 52.4366915522335 
! Gamma         0                0                0                0                
! Port Impedance         50               0                50               0                
3.8                            0.31490667359027 51.6679285360624 0.926742769182894 -34.274593770084 0.926742769182895 -34.2745937700839 0.314908447369511 51.6677146098655 
! Gamma         0                0                0                0                
! Port Impedance         50               0                50               0                
3.9                            0.321411181659374 50.9000017104561 0.92441843611168 -35.1034361855246 0.924418436111681 -35.1034361855245 0.321413040979741 50.8997798052954 
! Gamma         0                0                0                0                
! Port Impedance         50               0                50               0                
4                              0.327810314830254 50.1333925169933 0.922083643312575 -35.9279951541956 0.922083643312575 -35.9279951541955 0.327812261443748 50.133162740699  
! Gamma         0                0                0                0                
! Port Impedance         50               0                50               0                
4.1                            0.334103834954796 49.368346071772  0.919740619488922 -36.7482721523243 0.919740619488923 -36.7482721523243 0.334105870590005 49.3681085369446 
! Gamma         0                0                0                0                
! Port Impedance         50               0                50               0                
4.2                            0.340291594839338 48.6050801069736 0.917391546124687 -37.5642729260267 0.917391546124687 -37.5642729260266 0.340293721198903 48.6048349312269 
! Gamma         0                0                0                0                
! Port Impedance         50               0                50               0                
4.3                            0.346373533457042 47.8437876792752 0.915038555175972 -38.3760073330529 0.915038555175973 -38.3760073330529 0.346375752215248 47.8435349854972 
! Gamma         0                0                0                0                
! Port Impedance         50               0                50               0                
4.4                            0.352349671166279 47.084639549223  0.912683727110907 -39.1834891802697 0.912683727110907 -39.1834891802697 0.352351983966789 47.0843794658502 
! Gamma         0                0                0                0                
! Port Impedance         50               0                50               0                
4.5                            0.358220104960385 46.3277862809161 0.910329089279563 -39.9867360584348 0.910329089279562 -39.9867360584348 0.35822251341412 46.3275189422188 
! Gamma         0                0                0                0                
! Port Impedance         50               0                50               0                
4.6                            0.363985003771056 45.5733601027016 0.907976614594555 -40.7857691756273 0.907976614594555 -40.7857691756273 0.363987509454226 45.5730856490757 
! Gamma         0                0                0                0                
! Port Impedance         50               0                50               0                
4.7                            0.369644603844803 44.8214765626197 0.905628220502401 -41.5806131905216 0.9056282205024  -41.5806131905216 0.369647208297094 44.8211951408846 
! Gamma         0                0                0                0                
! Port Impedance         50               0                50               0                
4.8                            0.37519920420915 44.072236006707  0.903285768225452 -42.3712960465346 0.903285768225451 -42.3712960465345 0.375201908932063 44.0719477704065 
! Gamma         0                0                0                0                
! Port Impedance         50               0                50               0                
4.9                            0.380649162242744 43.3257249036916 0.9009510622543  -43.1578488077306 0.9009510622543  -43.1578488077306 0.380651968698095 43.3254300133966 
! Gamma         0                0                0                0                
! Port Impedance         50               0                50               0                
5                              0.385994889361222 42.5820170358714 0.898625850070791 -43.9403054972399 0.89862585007079 -43.9403054972399 0.385997798969788 42.5817156594837 
! Gamma         0                0                0                0                
! Port Impedance         50               0                50               0                
5.1                            0.391236846828551 41.8411745729062 0.896311822082247 -44.7187029388277 0.896311822082246 -44.7187029388276 0.391239860968877 41.8408668859623 
! Gamma         0                0                0                0                
! Port Impedance         50               0                50               0                
5.2                            0.396375541701619 41.1032490427218 0.894010611748085 -45.4930806021479 0.894010611748084 -45.4930806021478 0.39637866170896 41.1029352286957 
! Gamma         0                0                0                0                
! Port Impedance         50               0                50               0                
5.3                            0.401411522914108 40.3682822116355 0.891723795880707 -46.2634804521203 0.891723795880707 -46.2634804521203 0.401414750079523 40.367962462241  
! Gamma         0                0                0                0                
! Port Impedance         50               0                50               0                
5.4                            0.406345377504086 39.6363068840748 0.889452895103308 -47.0299468027856 0.889452895103308 -47.0299468027855 0.406348713073663 39.6359813995659 
! Gamma         0                0                0                0                
! Port Impedance         50               0                50               0                
5.5                            0.411177726988373 38.9073476308078 0.887199374448091 -47.7925261759188 0.88719937444809 -47.7925261759187 0.411181172162588 38.9070166202778 
! Gamma         0                0                0                0                
! Port Impedance         50               0                50               0                
5.6                            0.415909223885468 38.1814214533905 0.884964644079228 -48.551267164615 0.884964644079228 -48.5512671646149 0.415912779818669 38.1810851350698 
! Gamma         0                0                0                0                
! Port Impedance         50               0                50               0                
5.7                            0.420540548387704 37.4585383915156 0.882750060125829 -49.3062203020018 0.882750060125828 -49.3062203020017 0.420544216187714 37.4581969930671 
! Gamma         0                0                0                0                
! Port Impedance         50               0                50               0                
5.8                            0.42507240518237 36.7387020790802 0.880556925611028 -50.0574379351823 0.880556925611027 -50.0574379351822 0.425076185910204 36.7383558378947 
! Gamma         0                0                0                0                
! Port Impedance         50               0                50               0                
5.9                            0.429505520420645 36.021910254063  0.878386491464259 -50.8049741044657 0.878386491464258 -50.8049741044657 0.429509415090329 36.0215594175522 
! Gamma         0                0                0                0                
! Port Impedance         50               0                50               0                
6                              0.433840638832498 35.3081552266763 0.876239957604634 -51.548884427905 0.876239957604633 -51.548884427905 0.433844648410988 35.307800052566  
! Gamma         0                0                0                0                
! Port Impedance         50               0                50               0                
6.1                            0.438078520985069 34.5974243097296 0.874118474084222 -52.289225991124 0.874118474084221 -52.289225991124 0.438082646392264 34.5970650663516 
! Gamma         0                0                0                0                
! Port Impedance         50               0                50               0                
6.2                            0.44221994068152 33.8897002146825 0.872023142280885 -53.0260572423905 0.872023142280884 -53.0260572423905 0.44222418279036 33.8893371812665 
! Gamma         0                0                0                0                
! Port Impedance         50               0                50               0                
6.3                            0.446265682496921 33.1849614164773 0.869955016131119 -53.7594378928626 0.869955016131118 -53.7594378928625 0.44627004213356 33.1845948834439 
! Gamma         0                0                0                0                
! Port Impedance         50               0                50               0                
6.4                            0.450216539447353 32.4831824899008 0.867915103394168 -54.4894288219177 0.867915103394167 -54.4894288219176 0.450221017391407 32.4828127591541 
! Gamma         0                0                0                0                
! Port Impedance         50               0                50               0                
6.5                            0.454073310788157 31.7843344199323 0.865904366939386 -55.216091987454 0.865904366939386 -55.2160919874539 0.454077907773018 31.7839618051544 
! Gamma         0                0                0                0                
! Port Impedance         50               0                50               0                
6.6                            0.457836799937003 31.0883848882805 0.863923726049587 -55.9394903410391 0.863923726049587 -55.9394903410391 0.457841516650209 31.0880097152274 
! Gamma         0                0                0                0                
! Port Impedance         50               0                50               0                
6.7                            0.461507812517304 30.3952985380892 0.861974057733738 -56.6596877477712 0.861974057733738 -56.6596877477712 0.461512649600967 30.3949211448897 
! Gamma         0                0                0                0                
! Port Impedance         50               0                50               0                
6.8                            0.465087154517389 29.7050372185976 0.860056198043045 -57.3767489107044 0.860056198043045 -57.3767489107044 0.465092112568663 29.7046579560539 
! Gamma         0                0                0                0                
! Port Impedance         50               0                50               0                
6.9                            0.46857563056076 29.0175602113686 0.858170943385037 -58.0907392996882 0.858170943385037 -58.0907392996881 0.468580710132363 29.0171794432613 
! Gamma         0                0                0                0                
! Port Impedance         50               0                50               0                
7                              0.471974042282752 28.3328244395483 0.856319051830832 -58.8017250844601 0.856319051830832 -58.8017250844601 0.471979243883511 28.3324425429447 
! Gamma         0                0                0                0                
! Port Impedance         50               0                50               0                
7.1                            0.475283186808891 27.6507846614867 0.854501244411279 -59.5097730718316 0.854501244411279 -59.5097730718315 0.475288510904329 27.6504020270543 
! Gamma         0                0                0                0                
! Port Impedance         50               0                50               0                
7.2                            0.478503855330291 26.97139364993   0.852718206398159 -60.214950646802 0.852718206398159 -60.214950646802 0.478509302343237 26.9710106822546 
! Gamma         0                0                0                0                
! Port Impedance         50               0                50               0                
7.3                            0.481636831771494 26.2946023578895 0.850970588567082 -60.9173257174369 0.850970588567082 -60.9173257174369 0.481642402082715 26.2942194757994 
! Gamma         0                0                0                0                
! Port Impedance         50               0                50               0                
7.4                            0.484682891546209 25.6203600721983 0.849259008439103 -61.6169666633456 0.849259008439103 -61.6169666633456 0.484688585495064 25.6199777090954 
! Gamma         0                0                0                0                
! Port Impedance         50               0                50               0                
7.5                            0.487642800396542 24.9486145556821 0.847584051498493 -62.3139422875951 0.847584051498493 -62.3139422875951 0.487648618281645 24.9482331598791 
! Gamma         0                0                0                0                
! Port Impedance         50               0                50               0                
7.6                            0.490517313311365 24.2793121787937 0.845946272384427 -63.0083217718994 0.845946272384427 -63.0083217718994 0.490523255391268 24.2789322138602 
! Gamma         0                0                0                0                
! Port Impedance         50               0                50               0                
7.7                            0.493307173519661 23.6123980414936 0.844346196054663 -63.7001746349257 0.844346196054663 -63.7001746349257 0.493313240013534 23.6120199866098 
! Gamma         0                0                0                0                
! Port Impedance         50               0                50               0                
7.8                            0.49601311155474 22.9478160860962 0.842784318919601 -64.3895706935619 0.842784318919601 -64.389570693562 0.496019302643064 22.9474404364164 
! Gamma         0                0                0                0                
! Port Impedance         50               0                50               0                
7.9                            0.49863584438543 22.2855092017459 0.841261109945344 -65.0765800269952 0.841261109945344 -65.0765800269952 0.498642160210691 22.2851364687712 
! Gamma         0                0                0                0                
! Port Impedance         50               0                50               0                
8                              0.501176074610438 21.6254193211359 0.839777011724632 -65.7612729434526 0.839777011724632 -65.7612729434526 0.501182515277817 21.6250500330979 
! Gamma         0                0                0                0                
! Port Impedance         50               0                50               0                
8.1                            0.503634489712261 20.9674875100367 0.838332441514739 -66.4437199494617 0.83833244151474 -66.4437199494617 0.503641055290325 20.9671222122926 
! Gamma         0                0                0                0                
! Port Impedance         50               0                50               0                
8.2                            0.506011761367146 20.3116540501598 0.836927792241603 -67.1239917214927 0.836927792241603 -67.1239917214927 0.506018451888532 20.311293305599  
! Gamma         0                0                0                0                
! Port Impedance         50               0                50               0                
8.3                            0.508308544807786 19.6578585158423 0.835563433469629 -67.8021590798467 0.835563433469629 -67.8021590798468 0.508315360269878 19.6575029053061 
! Gamma         0                0                0                0                
! Port Impedance         50               0                50               0                
8.4                            0.510525478235553 19.006039845004  0.834239712336774 -68.4782929646627 0.834239712336774 -68.4782929646628 0.510532418601155 19.0056899677189 
! Gamma         0                0                0                0                
! Port Impedance         50               0                50               0                
8.5                            0.512663182279254 18.356136404797  0.83295695445463 -69.1524644139167 0.83295695445463 -69.1524644139167 0.512670247477249 18.3557928788223 
! Gamma         0                0                0                0                
! Port Impedance         50               0                50               0                
8.6                            0.514722259497525 17.7080860523372 0.831715464773371 -69.8247445432943 0.831715464773372 -69.8247445432943 0.514729449423528 17.7077495150275 
! Gamma         0                0                0                0                
! Port Impedance         50               0                50               0                
8.7                            0.51670329392213 17.0618261908807 0.8305155284115  -70.4952045278218 0.8305155284115  -70.4952045278218 0.516710608439124 17.0614972993647 
! Gamma         0                0                0                0                
! Port Impedance         50               0                50               0                
8.8                            0.518606850639577 16.417293821783  0.829357411450447 -71.163915585143 0.829357411450448 -71.163915585143 0.51861428957854 16.4169732534592 
! Gamma         0                0                0                0                
! Port Impedance         50               0                50               0                
8.9                            0.520433475408618 15.7744255925578 0.828241361694143 -71.8309489603378 0.828241361694144 -71.8309489603378 0.520441038569139 15.7741140456075 
! Gamma         0                0                0                0                
! Port Impedance         50               0                50               0                
9                              0.522183694311314 15.1331578413277 0.827167609393745 -72.4963759121793 0.827167609393745 -72.4963759121793 0.52219138146219 15.1328560352473 
! Gamma         0                0                0                0                
! Port Impedance         50               0                50               0                
9.1                            0.523858013435493 14.4934266379443 0.826136367937759 -73.1602677007316 0.82613636793776 -73.1602677007317 0.523865824315318 14.4931353140966 
! Gamma         0                0                0                0                
! Port Impedance         50               0                50               0                
9.2                            0.525456918586582 13.8551678220341 0.825147834507865 -73.8226955761955 0.825147834507866 -73.8226955761956 0.525464852904316 13.8548877442205 
! Gamma         0                0                0                0                
! Port Impedance         50               0                50               0                
9.3                            0.526980875026869 13.2183170382114 0.82420219070074 -74.4837307689105 0.824202190700741 -74.4837307689106 0.526988932462402 13.2180489932658 
! Gamma         0                0                0                0                
! Port Impedance         50               0                50               0                
9.4                            0.528430327240434 12.5828097686852 0.823299603116271 -75.1434444804292 0.823299603116272 -75.1434444804293 0.528438507445126 12.5825545670904 
! Gamma         0                0                0                0                
! Port Impedance         50               0                50               0                
9.5                            0.529805698722064 11.9485813634724 0.822440223912523 -75.8019078755788 0.822440223912523 -75.8019078755788 0.529814001319279 11.9483398400001 
! Gamma         0                0                0                0                
! Port Impedance         50               0                50               0                
9.6                            0.531107391788604 11.3155670684169 0.821624191327863 -76.4591920754323 0.821624191327864 -76.4591920754324 0.531115816374226 11.3153400827929 
! Gamma         0                0                0                0                
! Port Impedance         50               0                50               0                
9.7                            0.532335787411297 10.6837020512027 0.820851630170668 -77.1153681511128 0.820851630170669 -77.1153681511128 0.532344333554235 10.6834904887984 
! Gamma         0                0                0                0                
! Port Impedance         50               0                50               0                
9.8                            0.533491245067782 10.0529214255399 0.820122652277015 -77.770507118356 0.820122652277015 -77.7705071183561 0.533499912310464 10.0527261980903 
! Gamma         0                0                0                0                
! Port Impedance         50               0                50               0                
9.9                            0.534574102612533 9.42316027368906 0.819437356936803 -78.424679932763 0.819437356936803 -78.424679932763 0.534582890471385 9.4229823200403  
! Gamma         0                0                0                0                
! Port Impedance         50               0                50               0                
10                             0.535584676164578 8.79435366748459 0.818795831288717 -79.0779574856731 0.818795831288717 -79.0779574856732 0.535593584130495 8.79419395437128 
! Gamma         0                0                0                0                
! Port Impedance         50               0                50               0                
10.1                           0.536523260011508 8.16643668800713 0.818198150684464 -79.7304106005926 0.818198150684465 -79.7304106005927 0.536532287550311 8.16629621086089 
! Gamma         0                0                0                0                
! Port Impedance         50               0                50               0                
10.2                           0.537390126528806 7.53934444404754 0.81764437902269 -80.3821100301154 0.817644379022691 -80.3821100301154 0.537399273081697 7.53922422783868 
! Gamma         0                0                0                0                
! Port Impedance         50               0                50               0                
10.3                           0.538185526113673 6.91301208949924 0.817134569052994 -81.0331264532744 0.817134569052995 -81.0331264532745 0.538194791097673 6.91291318961297 
! Gamma         0                0                0                0                
! Port Impedance         50               0                50               0                
10.4                           0.538909687132586 6.28737483980892 0.816668762650428 -81.6835304732651 0.816668762650429 -81.6835304732652 0.538919069940969 6.28729834295769 
! Gamma         0                0                0                0                
! Port Impedance         50               0                50               0                
10.5                           0.539562815881914 5.66236798760971 0.816246991060884 -82.3333926154819 0.816246991060885 -82.333392615482 0.539572315884635 5.6623150127836  
! Gamma         0                0                0                0                
! Port Impedance         50               0                50               0                
10.6                           0.540145096561017 5.03792691765678 0.815869275117718 -82.9827833258133 0.815869275117719 -82.9827833258134 0.540154713105139 5.0378986171135  
! Gamma         0                0                0                0                
! Port Impedance         50               0                50               0                
10.7                           0.540656691257313 4.4139871211799  0.815535625429988 -83.6317729691395 0.815535625429988 -83.6317729691395 0.540666423667422 4.41398468147665 
! Gamma         0                0                0                0                
! Port Impedance         50               0                50               0                
10.8                           0.541097739942894 3.79048420976392 0.815246042542642 -84.28043182798  0.815246042542643 -84.2804318279801 0.541107587521517 3.79050885283295 
! Gamma         0                0                0                0                
! Port Impedance         50               0                50               0                
10.9                           0.541468360482331 3.16735392886489 0.815000517068982 -84.928830101239 0.815000517068982 -84.9288301012391 0.541478322510351 3.1674069131349  
! Gamma         0                0                0                0                
! Port Impedance         50               0                50               0                
11                             0.54176864865141 2.54453217106569 0.814799029795721 -85.5770379029958 0.814799029795722 -85.5770379029958 0.541778724388483 2.5446147926315  
! Gamma         0                0                0                0                
! Port Impedance         50               0                50               0                
11.1                           0.541998678166582 1.92195498917324 0.814641551760925 -86.2251252612918 0.814641551760926 -86.2251252612919 0.542008866851553 1.92206858301603 
! Gamma         0                0                0                0                
! Port Impedance         50               0                50               0                
11.2                           0.542158500725016 1.29955860925657 0.814528044305118 -86.8731621168636 0.814528044305118 -86.8731621168637 0.542168801576342 1.29970455051724 
! Gamma         0                0                0                0                
! Port Impedance         50               0                50               0                
11.3                           0.542248146055183 0.677279443723245 0.814458459095825 -87.5212183217718 0.814458459095825 -87.5212183217719 0.542258558271358 0.677459149031615 
! Gamma         0                0                0                0                
! Port Impedance         50               0                50               0                
11.4                           0.542267621977994 0.0550541045306451 0.814432738125799 -88.169363637879 0.8144327381258  -88.1693636378791 0.542278144737983 0.0552690333933739 
! Gamma         0                0                0                0                
! Port Impedance         50               0                50               0                
11.5                           0.542216914478571 -0.567180583373082 0.814450813685165 -88.8176677351269 0.814450813685165 -88.817667735127 0.542227546942251 -0.566928927122895 
! Gamma         0                0                0                0                
! Port Impedance         50               0                50               0                
11.6                           0.542095987788798 -1.18948756828389 0.814512608307711 -89.4662001895656 0.814512608307712 -89.4662001895657 0.54210672909741 -1.18919763497214 
! Gamma         0                0                0                0                
! Port Impedance         50               0                50               0                
11.7                           0.541904784480876 -1.81192955755847 0.814618034691545 -90.1150304810869 0.814618034691546 -90.115030481087 0.541915633757492 -1.81159975008716 
! Gamma         0                0                0                0                
! Port Impedance         50               0                50               0                
11.8                           0.541643225572153 -2.43456900291879 0.814766995594308 -90.7642279908135 0.814766995594308 -90.7642279908136 0.541654181922154 -2.43419767511114 
! Gamma         0                0                0                0                
! Port Impedance         50               0                50               0                
11.9                           0.541311210641595 -3.05746808514994 0.814959383703146 -91.4138619980971 0.814959383703147 -91.4138619980971 0.541322273153169 -3.05705354001973 
! Gamma         0                0                0                0                
! Port Impedance         50               0                50               0                
12                             0.540908617958299 -3.68068869809648 0.815195081479638 -92.0640016770767 0.815195081479638 -92.0640016770768 0.540919785702955 -3.68022918603744 
! Gamma         0                0                0                0                
! Port Impedance         50               0                50               0                
12.1                           0.540435304622531 -4.30429243186108 0.81547396097984 -92.7147160927502 0.81547396097984 -92.7147160927503 0.540446576655639 -4.30378614875202 
! Gamma         0                0                0                0                
! Port Impedance         50               0                50               0                
12.2                           0.539891106719843 -4.92834055510814 0.815795883649653 -93.3660741965094 0.815795883649653 -93.3660741965094 0.539902482081195 -4.9277856403292 
! Gamma         0                0                0                0                
! Port Impedance         50               0                50               0                
12.3                           0.539275839488867 -5.55289399637333 0.816160700095676 -94.0181448210916 0.816160700095677 -94.0181448210917 0.539287317203264 -5.55228853072834 
! Gamma         0                0                0                0                
! Port Impedance         50               0                50               0                
12.4                           0.538589297503465 -6.1780133242777 0.816568249831732 -94.6709966748985 0.816568249831732 -94.6709966748985 0.538600876581338 -6.17735532781746 
! Gamma         0                0                0                0                
! Port Impedance         50               0                50               0                
12.5                           0.537831254869975 -6.80375872654295 0.817018361001255 -95.3246983356315 0.817018361001256 -95.3246983356315 0.537842934308034 -6.80304615628373 
! Gamma         0                0                0                0                
! Port Impedance         50               0                50               0                
12.6                           0.537001465440354 -7.43018998770146 0.817510850075738 -95.9793182431972 0.817510850075738 -95.9793182431973 0.537013244222274 -7.42942073523278 
! Gamma         0                0                0                0                
! Port Impedance         50               0                50               0                
12.7                           0.536099663042081 -8.05736646539142 0.818045521529432 -96.6349246918288 0.818045521529432 -96.6349246918288 0.536111540139229 -8.05653835436669 
! Gamma         0                0                0                0                
! Port Impedance         50               0                50               0                
12.8                           0.535125561725757 -8.68534706512424 0.818622167490528 -97.2915858213762 0.818622167490528 -97.2915858213762 0.53513753609796 -8.68445784862738 
! Gamma         0                0                0                0                
! Port Impedance         50               0                50               0                
12.9                           0.53407885603139 -9.31419021340684 0.819240567369057 -97.9493696077119 0.819240567369057 -97.9493696077119 0.53409092662775 -9.31323757118759 
! Gamma         0                0                0                0                
! Port Impedance         50               0                50               0                
13                             0.532959221274423 -9.94395382909761 0.819900487461755 -98.6083438522018 0.819900487461755 -98.6083438522018 0.532971387034182 -9.94293536466765 
! Gamma         0                0                0                0                
! Port Impedance         50               0                50               0                
13.1                           0.531766313852633 -10.5746952928694 0.820601680534187 -99.2685761701879 0.820601680534188 -99.2685761701879 0.531778573706089 -10.5736085304509 
! Gamma         0                0                0                0                
! Port Impedance         50               0                50               0                
13.2                           0.530499771575059 -11.206471414648 0.821343885380431 -99.930133978432 0.821343885380431 -99.930133978432 0.530512124444548 -11.2053137959658 
! Gamma         0                0                0                0                
! Port Impedance         50               0                50               0                
13.3                           0.529159214014239 -11.8393383988886 0.822126826360666 -100.593084481465 0.822126826360666 -100.593084481465 0.529171658815175 -11.8381072797957 
! Gamma         0                0                0                0                
! Port Impedance         50               0                50               0                
13.4                           0.527744242883031 -12.4733518075457 0.822950212917063 -101.257494656792 0.822950212917062 -101.257494656792 0.527756778525017 -12.4720444544727 
! Gamma         0                0                0                0                
! Port Impedance         50               0                50               0                
13.5                           0.526254442437391 -13.1085665205851 0.823813739068364 -101.923431238892 0.823813739068363 -101.923431238892 0.526267067825402 -13.1071801068019 
! Gamma         0                0                0                0                
! Port Impedance         50               0                50               0                
13.6                           0.524689379906543 -13.7450366938806 0.824717082883667 -102.590960701971 0.824717082883667 -102.590960701971 0.524702093942191 -13.7435682955579 
! Gamma         0                0                0                0                
! Port Impedance         50               0                50               0                
13.7                           0.523048605952001 -14.3828157143256 0.825659905935901 -103.260149241395 0.825659905935901 -103.260149241395 0.523061407534887 -14.3812623063847 
! Gamma         0                0                0                0                
! Port Impedance         50               0                50               0                
13.8                           0.521331655157003 -15.0219561519848 0.826641852735596 -103.931062753771 0.826641852735596 -103.931062753771 0.521344543186159 -15.0203146037206 
! Gamma         0                0                0                0                
! Port Impedance         50               0                50               0                
13.9                           0.519538046547928 -15.6625097090988 0.827662550145583 -104.603766815604 0.827662550145583 -104.603766815604 0.519551019923361 -15.6607767795619 
! Gamma         0                0                0                0                
! Port Impedance         50               0                50               0                
14                             0.517667284149353 -16.3045271657434 0.828721606777339 -105.278326660476 0.828721606777338 -105.278326660476 0.517680341773694 -16.3026994988643 
! Gamma         0                0                0                0                
! Port Impedance         50               0                50               0                
14.1                           0.515718857574422 -16.9480583219336 0.829818612369769 -105.95480715471 0.829818612369768 -105.95480715471 0.515731998354695 -16.9461324413733 
! Gamma         0                0                0                0                
! Port Impedance         50               0                50               0                
14.2                           0.51369224265229 -17.5931519359503 0.830953137151297 -106.633272771442 0.830953137151297 -106.633272771442 0.513705465501804 -17.5911242396566 
! Gamma         0                0                0                0                
! Port Impedance         50               0                50               0                
14.3                           0.511586902094393 -18.2398556586496 0.832124731186224 -107.313787563062 0.832124731186223 -107.313787563062 0.511600205934766 -18.2377224131009 
! Gamma         0                0                0                0                
! Port Impedance         50               0                50               0                
14.4                           0.50940228620138 -18.8882159635039 0.833332923706395 -107.996415131968 0.833332923706394 -107.996415131968 0.50941566996471 -18.8859732976168 
! Gamma         0                0                0                0                
! Port Impedance         50               0                50               0                
14.5                           0.507137833612542 -19.5382780721003 0.834577222429364 -108.68121859958 0.834577222429363 -108.68121859958 0.507151296243736 -19.5359219707786 
! Gamma         0                0                0                0                
! Port Impedance         50               0                50               0                
14.6                           0.504792972099635 -20.1900858748073 0.835857112864271 -109.368260573562 0.83585711286427 -109.368260573562 0.504806512558902 -20.1876121721067 
! Gamma         0                0                0                0                
! Port Impedance         50               0                50               0                
14.7                           0.502367119406971 -20.8436818462979 0.837172057606856 -110.057603113208 0.837172057606855 -110.057603113208 0.502380736672499 -20.8410862181774 
! Gamma         0                0                0                0                
! Port Impedance         50               0                50               0                
14.8                           0.499859684139722 -21.4991069555906 0.838521495625079 -110.749307692935 0.838521495625078 -110.749307692935 0.499873377210551 -21.4963849122225 
! Gamma         0                0                0                0                
! Port Impedance         50               0                50               0                
14.9                           0.497270066702346 -22.156400570249 0.839904841536985 -111.44343516385 0.839904841536984 -111.44343516385 0.497283834601447 -22.1535474478528 
! Gamma         0                0                0                0                
! Port Impedance         50               0                50               0                
15                             0.494597660289066 -22.8156003543462 0.841321484882579 -112.140045713333 0.841321484882578 -112.140045713333 0.494611502066655 -22.812611306512 
! Gamma         0                0                0                0                
! Port Impedance         50               0                50               0                
15.1                           0.491841851928326 -23.4767421597716 0.84277078939162 -112.839198822607 0.842770789391619 -112.839198822607 0.491855766665419 -23.4736121482336 
! Gamma         0                0                0                0                
! Port Impedance         50               0                50               0                
15.2                           0.489002023583128 -24.1398599104185 0.844252092249375 -113.540953222253 0.844252092249374 -113.540953222253 0.489016010395364 -24.1365836952368 
! Gamma         0                0                0                0                
! Port Impedance         50               0                50               0                
15.3                           0.486077553309128 -24.8049854787535 0.845764703362568 -114.245366845634 0.845764703362566 -114.245366845634 0.486091611350875 -24.801557607858 
! Gamma         0                0                0                0                
! Port Impedance         50               0                50               0                
15.4                           0.483067816472331 -25.4721485542211 0.847307904627867 -114.952496780198 0.847307904627866 -114.952496780198 0.483081944941112 -25.468563352267 
! Gamma         0                0                0                0                
! Port Impedance         50               0                50               0                
15.5                           0.479972187028185 -26.1413765028876 0.848880949205484 -115.662399216637 0.848880949205482 -115.662399216637 0.479986385169431 -26.1376280593679 
! Gamma         0                0                0                0                
! Port Impedance         50               0                50               0                
15.6                           0.476790038863797 -26.8126942176711 0.850483060800564 -116.375129395874 0.850483060800563 -116.375129395874 0.476804305975968 -26.8087763742255 
! Gamma         0                0                0                0                
! Port Impedance         50               0                50               0                
15.7                           0.473520747204932 -27.4861239584406 0.852113432955285 -117.090741553872 0.852113432955284 -117.090741553872 0.47353508264504 -27.4820302952958 
! Gamma         0                0                0                0                
! Port Impedance         50               0                50               0                
15.8                           0.470163690089377 -28.1616851811956 0.853771228354722 -117.80928886424 0.853771228354721 -117.80928886424 0.470178093278926 -28.1574090026631 
! Gamma         0                0                0                0                
! Port Impedance         50               0                50               0                
15.9                           0.466718249908107 -28.8393943554543 0.85545557814974 -118.530823378643 0.855455578149738 -118.530823378643 0.46673272033951 -28.8349286744084 
! Gamma         0                0                0                0                
! Port Impedance         50               0                50               0                
16                             0.463183815015636 -29.5192647688893 0.857165581300365 -119.25539596502 0.857165581300364 -119.25539596502 0.463198352259132 -29.5146022901365 
! Gamma         0                0                0                0                
! Port Impedance         50               0                50               0                
16.1                           0.459559781410737 -30.2013063181431 0.858900303943263 -119.983056243605 0.858900303943262 -119.983056243605 0.459574385121861 -30.1964394205874 
! Gamma         0                0                0                0                
! Port Impedance         50               0                50               0                
16.2                           0.455845554488603 -30.8855252846366 0.860658778787158 -120.71385252079 0.860658778787157 -120.71385252079 0.455860224416259 -30.8804460021352 
! Gamma         0                0                0                0                
! Port Impedance         50               0                50               0                
16.3                           0.45204055086534 -31.5719240940523 0.862440004540203 -121.447831720833 0.862440004540201 -121.447831720833 0.452055286860522 -31.5666240948438 
! Gamma         0                0                0                0                
! Port Impedance         50               0                50               0                
16.4                           0.448144200275489 -32.2605010580136 0.864242945373506 -122.185039315474 0.864242945373504 -122.185039315474 0.448159002300722 -32.2549716225909 
! Gamma         0                0                0                0                
! Port Impedance         50               0                50               0                
16.5                           0.444155947543081 -32.9512500963135 0.866066530425213 -122.925519251479 0.866066530425212 -122.925519251479 0.444170815682636 -32.9454820935972 
! Gamma         0                0                0                0                
! Port Impedance         50               0                50               0                
16.6                           0.440075254626499 -33.6441604378372 0.867909653349695 -123.669313876187 0.867909653349694 -123.669313876187 0.440090189097462 -33.638144299492 
! Gamma         0                0                0                0                
! Port Impedance         50               0                50               0                
16.7                           0.435901602737165 -34.3392162980971 0.869771171916598 -124.416463861116 0.869771171916597 -124.416463861116 0.43591660390144 -34.3329419908144 
! Gamma         0                0                0                0                
! Port Impedance         50               0                50               0                
16.8                           0.431634494531858 -35.0363965310314 0.871649907664649 -125.167008123719 0.871649907664648 -125.167008123719 0.431649562909189 -35.029853526583 
! Gamma         0                0                0                0                
! Port Impedance         50               0                50               0                
16.9                           0.427273456378125 -35.7356742524116 0.873544645615291 -125.920983747366 0.87354464561529 -125.920983747366 0.42728859266024 -35.7288514952567 
! Gamma         0                0                0                0                
! Port Impedance         50               0                50               0                
17                             0.422818040692022 -36.437016431852 0.875454134051319 -126.678425899675 0.875454134051319 -126.678425899675 0.422833245758013 -36.4299023040538 
! Gamma         0                0                0                0                
! Port Impedance         50               0                50               0                
17.1                           0.418267828347081 -37.1403834500069 0.877377084365873 -127.439367749302 0.877377084365872 -127.439367749302 0.418283103280129 -37.1329657331878 
! Gamma         0                0                0                0                
! Port Impedance         50               0                50               0                
17.2                           0.413622431153079 -37.8457286170681 0.879312170987179 -128.203840381322 0.879312170987178 -128.203840381322 0.413637777258682 -37.8379944510994 
! Gamma         0                0                0                0                
! Port Impedance         50               0                50               0                
17.3                           0.408881494402894 -38.5529976481277 0.881258031384589 -128.971872711349 0.881258031384589 -128.971872711349 0.408896913228737 -38.5449334862124 
! Gamma         0                0                0                0                
! Port Impedance         50               0                50               0                
17.4                           0.40404469948537 -39.2621280903305 0.883213266161473 -129.743491398571 0.883213266161473 -129.743491398571 0.404060192843012 -39.2537196500968 
! Gamma         0                0                0                0                
! Port Impedance         50               0                50               0                
17.5                           0.399111766561791 -39.9730486960005 0.885176439240583 -130.51872075786 0.885176439240583 -130.51872075786 0.399127336550372 -39.9642809061741 
! Gamma         0                0                0                0                
! Port Impedance         50               0                50               0                
17.6                           0.394082457303252 -40.6856787350484 0.887146078147522 -131.29758267117 0.887146078147521 -131.29758267117 0.394098106335425 -40.6765356772176 
! Gamma         0                0                0                0                
! Port Impedance         50               0                50               0                
17.7                           0.388956577685877 -41.3999272389543 0.889120674397894 -132.080096498424 0.889120674397894 -132.080096498424 0.388972308516225 -41.3903920838781 
! Gamma         0                0                0                0                
! Port Impedance         50               0                50               0                
17.8                           0.383733980840565 -42.1156921674137 0.891098683993705 -132.866278988127 0.891098683993706 -132.866278988127 0.383749796596771 -42.1057471052499 
! Gamma         0                0                0                0                
! Port Impedance         50               0                50               0                
17.9                           0.378414569953647 -42.8328594873263 0.893078528034428 -133.656144187946 0.893078528034429 -133.656144187946 0.378430474170742 -42.8224856510736 
! Gamma         0                0                0                0                
! Port Impedance         50               0                50               0                
18                             0.372998301214636 -43.5513021521372 0.895058593448049 -134.449703355521 0.89505859344805 -134.449703355521 0.373014297872677 -43.5404795334852 
! Gamma         0                0                0                0                
! Port Impedance         50               0                50               0                
18.1                           0.367485186807076 -44.2708789675596 0.897037233847231 -135.246964869795 0.897037233847232 -135.246964869795 0.367501280372672 -44.2595863242313 
! Gamma         0                0                0                0                
! Port Impedance         50               0                50               0                
18.2                           0.361875297938379 -44.9914333273595 0.899012770515469 -136.047934143145 0.89901277051547 -136.047934143145 0.361891493410526 -44.9796480808968 
! Gamma         0                0                0                0                
! Port Impedance         50               0                50               0                
18.3                           0.356168767904565 -45.7127918000803 0.900983493527888 -136.852613534641 0.900983493527888 -136.852613534641 0.356185070865327 -45.7004899228698 
! Gamma         0                0                0                0                
! Port Impedance         50               0                50               0                
18.4                           0.350365795185894 -46.4347625442303 0.902947663010943 -137.661002264759 0.902947663010945 -137.661002264759 0.350382211856552 -46.4219184343893 
! Gamma         0                0                0                0                
! Port Impedance         50               0                50               0                
18.5                           0.344466646569672 -47.1571335254355 0.904903510544983 -138.473096331888 0.904903510544985 -138.473096331888 0.344483183873048 -47.1437198679651 
! Gamma         0                0                0                0                
! Port Impedance         50               0                50               0                
18.6                           0.338471660296945 -47.879670504211 0.906849240713112 -139.288888430998 0.906849240713114 -139.288888430998 0.338488325926722 -47.8656581165773 
! Gamma         0                0                0                0                
! Port Impedance         50               0                50               0                
18.7                           0.332381249230478 -48.602114757147 0.908783032799388 -140.108367874839 0.90878303279939 -140.108367874839 0.332398051728463 -48.5874724171579 
! Gamma         0                0                0                0                
! Port Impedance         50               0                50               0                
18.8                           0.326195904042378 -49.3241804871911 0.91070304263876 -140.931520518056 0.910703042638762 -140.931520518056 0.326212852884835 -49.3088747406898 
! Gamma         0                0                0                0                
! Port Impedance         50               0                50               0                
18.9                           0.319916196421079 -50.0455518700441 0.912607404620621 -141.75832868462 0.912607404620623 -141.75832868462 0.319933302115404 -50.0295468155274 
! Gamma         0                0                0                0                
! Port Impedance         50               0                50               0                
19                             0.313542782299152 -50.7658796730739 0.914494233847131 -142.588771098982 0.914494233847133 -142.588771098982 0.313560056492428 -50.7491367198521 
! Gamma         0                0                0                0                
! Port Impedance         50               0                50               0                
19.1                           0.307076405105797 -51.4847773701117 0.916361628446788 -143.422822821366 0.91636162844679 -143.422822821366 0.307093860707   -51.4672549660372 
! Gamma         0                0                0                0                
! Port Impedance         50               0                50               0                
19.2                           0.300517899050872 -52.2018166593812 0.918207672042922 -144.26045518762 0.918207672042925 -144.26045518762 0.30053555036885 -52.1834699834616 
! Gamma         0                0                0                0                
! Port Impedance         50               0                50               0                
19.3                           0.293868192451335 -52.9165222718059 0.920030436375993 -145.101635754059 0.920030436375995 -145.101635754059 0.293886055351059 -52.8973028861642 
! Gamma         0                0                0                0                
! Port Impedance         50               0                50               0                
19.4                           0.28712831111598 -53.6283659319821 0.921827984077661 -145.946328247718 0.921827984077663 -145.946328247718 0.287146403196053 -53.6082213865844 
! Gamma         0                0                0                0                
! Port Impedance         50               0                50               0                
19.5                           0.280299381810935 -54.3367593027805 0.923598371593714 -146.794492522452 0.923598371593717 -146.794492522452 0.280317722605919 -54.3156326850859 
! Gamma         0                0                0                0                
! Port Impedance         50               0                50               0                
19.6                           0.273382635836696 -55.0410457050143 0.925339652251951 -147.646084521304 0.925339652251952 -147.646084521304 0.273401247048571 -55.018875125154 
! Gamma         0                0                0                0                
! Port Impedance         50               0                50               0                
19.7                           0.266379412758286 -55.7404903534285 0.927049879470118 -148.501056245567 0.927049879470118 -148.501056245567 0.266398318522212 -55.717208353611 
! Gamma         0                0                0                0                
! Port Impedance         50               0                50               0                
19.8                           0.259291164343936 -56.4342687861389 0.928727110097987 -149.359355730939 0.928727110097986 -149.359355730939 0.259310391534629 -56.4098016606253 
! Gamma         0                0                0                0                
! Port Impedance         50               0                50               0                
19.9                           0.25211945878566 -57.1214530821673 0.930369407886592 -150.220927031181 0.930369407886592 -150.220927031181 0.252139037372089 -57.0957200912288 
! Gamma         0                0                0                0                
! Port Impedance         50               0                50               0                
20                             0.244865985298414 -57.8009953548505 0.931974847076581 -151.085710209667 0.931974847076581 -151.085710209667 0.244885948756269 -57.7739078124615 
! Gamma         -0               -0               0                0                
! Port Impedance         50               0                50               0                
