! Touchstone file exported from HFSS 2026.1.0
!        File:           C:/ffzhzh/LocalFiles/Ansys_Project_Files/temp_train_TSV_RDL_866_1783271508_39728.aedt
!        Generated:      01:22:29 AM Jul  6, 2026
!        Design:         TSV_RDL
!        Project:        temp_train_TSV_RDL_866_1783271508_39728
!
! Variables:
!        h_bsmrdl = 2.31um
!        h_ox = 20um
!        h_rdl = 5um
!        h_sub = 66.71um
!        h_tmrdl = 2.75um
!        h_tsv = 66.71um
!        h_via = 3um
!        l_bsmrdl = 556.38um
!        l_sub = 4646.68um
!        l_tmrdl = 605.22um
!        m_sub = 200um
!        pitch = 49.88um
!        r_tsv = 5.89um
!        s_tmrdl = 10um
!        w_bsmrdl = 27.11um
!        w_sub = 500um
!        w_tmrdl = 25.11um
!        x_tsv_center1 = 617.775um
!        x_tsv_center2 = 1201.265um
!        x_tsv_center3 = 1831.595um
!        x_tsv_center4 = 2415.085um
!        x_tsv_center5 = 3045.415um
!        x_tsv_center6 = 3628.905um
!
# GHz S MA R 50.000000
! Terminal data exported
! Port[1] = TM_RDL1_1_T1
! Port[2] = TM_RDL5_1_T1
0.1                            0.0288975402802694 32.0671581730232 0.975838704229385 -1.6672677744348 0.975838704229386 -1.66726777443481 0.0288975488482766 32.0670934092798 
! Gamma         0                0                0                0                
! Port Impedance         50               0                50               0                
0.2                            0.0402468049114339 48.3966748711063 0.974555074896239 -3.3050451350493 0.97455507489624 -3.30504513504939 0.040246820840916 48.3965411900224 
! Gamma         0                0                0                0                
! Port Impedance         50               0                50               0                
0.3                            0.0532733021935545 55.8979245325557 0.972938311452006 -4.90857857916549 0.972938311452005 -4.90857857916561 0.0532732996583301 55.8977052440745 
! Gamma         0                0                0                0                
! Port Impedance         50               0                50               0                
0.4                            0.0666413774768012 59.6839190970673 0.97122398490379 -6.48706616907602 0.971223984903788 -6.48706616907609 0.0666413121382009 59.6836447655194 
! Gamma         0                0                0                0                
! Port Impedance         50               0                50               0                
0.5                            0.0800511373621712 61.7051290229394 0.969472446533967 -8.04929745063887 0.969472446533965 -8.04929745063888 0.0800509956206697 61.7048367514943 
! Gamma         0                0                0                0                
! Port Impedance         50               0                50               0                
0.6                            0.0934327287972186 62.7485697737509 0.967678807903347 -9.60047024588479 0.967678807903346 -9.60047024588477 0.0934325319523199 62.7482773926612 
! Gamma         0                0                0                0                
! Port Impedance         50               0                50               0                
0.7                            0.106758387966274 63.1846117902234 0.965825201620014 -11.1432635036567 0.965825201620014 -11.1432635036567 0.10675817389718 63.1843189895782 
! Gamma         0                0                0                0                
! Port Impedance         50               0                50               0                
0.8                            0.120007011692466 63.2135764054389 0.963895427458898 -12.678989423515 0.963895427458898 -12.678989423515 0.12000681876745 63.2132733795065 
! Gamma         0                0                0                0                
! Port Impedance         50               0                50               0                
0.9                            0.133159285096435 62.9553940496811 0.961877450452325 -14.2082329791442 0.961877450452325 -14.2082329791442 0.133159144185806 62.9550683659549 
! Gamma         0                0                0                0                
! Port Impedance         50               0                50               0                
1                              0.146197427276228 62.4870966764827 0.95976315916959 -15.7311719492135 0.959763159169591 -15.7311719492135 0.146197359812079 62.486736926496  
! Gamma         0                0                0                0                
! Port Impedance         50               0                50               0                
1.1                            0.159105167664188 61.8607229439995 0.95754775247433 -17.2477453136597 0.957547752474329 -17.2477453136597 0.159105186742564 61.8603201054325 
! Gamma         0                0                0                0                
! Port Impedance         50               0                50               0                
1.2                            0.1718675789848  61.1128167100786 0.955229180731764 -18.7577507143504 0.955229180731763 -18.7577507143505 0.171867691478304 61.1123642902553 
! Gamma         0                0                0                0                
! Port Impedance         50               0                50               0                
1.3                            0.184470885645004 60.2698651568015 0.952807671648677 -20.2609054839932 0.952807671648676 -20.2609054839933 0.184471094293479 60.2693588250903 
! Gamma         0                0                0                0                
! Port Impedance         50               0                50               0                
1.4                            0.196902319136447 59.3515876282108 0.950285323525955 -21.756886575412 0.950285323525953 -21.7568865754121 0.196902624220001 59.3510247138426 
! Gamma         0                0                0                0                
! Port Impedance         50               0                50               0                
1.5                            0.209150030480721 58.3730081288846 0.947665754462058 -23.2453571105688 0.947665754462057 -23.2453571105689 0.209150431005167 58.3723871524149 
! Gamma         0                0                0                0                
! Port Impedance         50               0                50               0                
1.6                            0.221203045258622 57.3458050536108 0.944953801404009 -24.7259840184991 0.944953801404007 -24.7259840184991 0.221203539718807 57.3451253495556 
! Gamma         0                0                0                0                
! Port Impedance         50               0                50               0                
1.7                            0.233051243416456 56.2792151718362 0.942155264269241 -26.198449616475 0.942155264269239 -26.198449616475 0.233051830240582 56.2784766086277 
! Gamma         0                0                0                0                
! Port Impedance         50               0                50               0                
1.8                            0.244685350034092 55.1806543073152 0.939276690158477 -27.6624590491631 0.939276690158476 -27.6624590491631 0.244686027806988 55.1798570907895 
! Gamma         0                0                0                0                
! Port Impedance         50               0                50               0                
1.9                            0.25609692824557 54.0561532417362 0.936325192429096 -29.1177448940309 0.936325192429095 -29.1177448940308 0.256097695789401 54.0552977833973 
! Gamma         0                0                0                0                
! Port Impedance         50               0                50               0                
2                              0.267278369468511 52.9106702849895 0.933308299506424 -30.5640698306978 0.933308299506422 -30.5640698306978 0.267279225838313 52.9097571175642 
! Gamma         0                0                0                0                
! Port Impedance         50               0                50               0                
2.1                            0.278222878736625 51.7483197582069 0.930233828731132 -32.0012279898597 0.930233828731131 -32.0012279898597 0.278223823170182 51.747349484304  
! Gamma         0                0                0                0                
! Port Impedance         50               0                50               0                
2.2                            0.288924454506588 50.5725420060813 0.927109781126516 -33.4290454034071 0.927109781126514 -33.4290454034071 0.288925486354483 50.5715152692412 
! Gamma         0                0                0                0                
! Port Impedance         50               0                50               0                
2.3                            0.299377863169518 49.3862319966799 0.923944253596074 -34.8473798443159 0.923944253596073 -34.8473798443158 0.299378981821467 49.3851494670826 
! Gamma         0                0                0                0                
! Port Impedance         50               0                50               0                
2.4                            0.30957860891402 48.191838082922  0.920745365653848 -36.2561202539551 0.920745365653847 -36.2561202539551 0.30957981373083 48.1907004523413 
! Gamma         0                0                0                0                
! Port Impedance         50               0                50               0                
2.5                            0.319522899749752 46.9914389187228 0.917521198311118 -37.6551858924514 0.917521198311117 -37.6551858924514 0.319524190005828 46.9902469010352 
! Gamma         0                0                0                0                
! Port Impedance         50               0                50               0                
2.6                            0.329207610524951 45.7868041421231 0.914279743182506 -39.0445253055236 0.914279743182505 -39.0445253055235 0.329208985363382 45.7855584769087 
! Gamma         0                0                0                0                
! Port Impedance         50               0                50               0                
2.7                            0.338630243726905 44.5794428280167 0.911028860234764 -40.4241151724598 0.911028860234764 -40.4241151724597 0.338631702127358 44.5781442856541 
! Gamma         0                0                0                0                
! Port Impedance         50               0                50               0                
2.8                            0.347788888779461 43.3706426070077 0.907776242891725 -41.7939590803323 0.907776242891725 -41.7939590803323 0.347790429538066 43.3692919942538 
! Gamma         0                0                0                0                
! Port Impedance         50               0                50               0                
2.9                            0.356682180466736 42.1615015752002 0.904529389439893 -43.1540862561986 0.904529389439893 -43.1540862561986 0.356683802186554 42.1600997406507 
! Gamma         0                0                0                0                
! Port Impedance         50               0                50               0                
3                              0.365309257027445 40.9529545734688 0.901295579861855 -44.5045502799188 0.901295579861855 -44.5045502799188 0.36531095811784 40.9515024125624 
! Gamma         0                0                0                0                
! Port Impedance         50               0                50               0                
3.1                            0.373669718384411 39.7457950228255 0.8980818573687  -45.8454277939662 0.8980818573687  -45.8454277939662 0.373671497067577 39.7442934822313 
! Gamma         0                0                0                0                
! Port Impedance         50               0                50               0                
3.2                            0.381763584900647 38.5406932177084 0.894895014016218 -47.1768172222915 0.894895014016219 -47.1768172222914 0.381765439223593 38.5391432990503 
! Gamma         0                0                0                0                
! Port Impedance         50               0                50               0                
3.3                            0.389591256987348 37.3382117696198 0.891741579879384 -48.498837507297 0.891741579879384 -48.498837507297 0.389593184837768 37.3366145325606 
! Gamma         0                0                0                0                
! Port Impedance         50               0                50               0                
3.4                            0.397153475829968 36.1388187378796 0.888627815331103 -49.8116268718502 0.888627815331104 -49.8116268718502 0.397155474954612 36.137175302631  
! Gamma         0                0                0                0                
! Port Impedance         50               0                50               0                
3.5                            0.404451285445874 34.9428988673551 0.885559706028505 -51.1153416117276 0.885559706028505 -51.1153416117275 0.404453353470178 34.9412104167025 
! Gamma         0                0                0                0                
! Port Impedance         50               0                50               0                
3.6                            0.411485996240284 33.7507632643989 0.882542960256627 -52.4101549227364 0.882542960256627 -52.4101549227364 0.411488130688264 33.749031045338  
! Gamma         0                0                0                0                
! Port Impedance         50               0                50               0                
3.7                            0.418259150185933 32.5626577744368 0.879583008317741 -53.6962557658794 0.879583008317741 -53.6962557658794 0.418261348499493 32.5608830995229 
! Gamma         0                0                0                0                
! Port Impedance         50               0                50               0                
3.8                            0.424772487715683 31.378770272368  0.876685003686735 -54.9738477732144 0.876685003686735 -54.9738477732144 0.424774747272686 31.3769545208743 
! Gamma         0                0                0                0                
! Port Impedance         50               0                50               0                
3.9                            0.431027916385664 30.1992370363168 0.873853825680417 -56.2431481964723 0.873853825680417 -56.2431481964724 0.43103023451626 30.1973816552917 
! Gamma         0                0                0                0                
! Port Impedance         50               0                50               0                
4                              0.437027481339208 29.0241483434715 0.871094083412468 -57.5043868999817 0.871094083412469 -57.5043868999817 0.437029855340079 29.0222548487773 
! Gamma         0                0                0                0                
! Port Impedance         50               0                50               0                
4.1                            0.442773337578471 27.8535534016839 0.868410120826867 -58.7578053989924 0.868410120826867 -58.7578053989924 0.442775764724751 27.8516233790901 
! Gamma         0                0                0                0                
! Port Impedance         50               0                50               0                
4.2                            0.448267724030815 26.6874647106164 0.8658060226215  -60.0036559440814 0.8658060226215  -60.0036559440814 0.448270201585588 26.6854998170129 
! Gamma         0                0                0                0                
! Port Impedance         50               0                50               0                
4.3                            0.45351293938059 25.5258619303531 0.863285620890915 -61.2422006519431 0.863285620890915 -61.2422006519431 0.453515464601922 25.5238638951379 
! Gamma         0                0                0                0                
! Port Impedance         50               0                50               0                
4.4                            0.45851131962342 24.368695322636  0.860852502332878 -62.4737106825253 0.860852502332879 -62.4737106825253 0.458513889768988 24.3666659493273 
! Gamma         0                0                0                0                
! Port Impedance         50               0                50               0                
4.5                            0.463265217289372 23.2158888195911 0.858510015878036 -63.6984654621517 0.858510015878036 -63.6984654621517 0.463267829618808 23.2138299877044 
! Gamma         0                0                0                0                
! Port Impedance         50               0                50               0                
4.6                            0.467776982273024 22.0673427664344 0.856261280615434 -64.9167519519828 0.856261280615434 -64.9167519519828 0.467779634048111 22.0652564336595 
! Gamma         0                0                0                0                
! Port Impedance         50               0                50               0                
4.7                            0.472048944202233 20.9229363778075 0.854109193899265 -66.1288639609064 0.854109193899265 -66.1288639609064 0.472051632685174 20.920824582516  
! Gamma         0                0                0                0                
! Port Impedance         50               0                50               0                
4.8                            0.476083396273182 19.7825299417717 0.852056439533845 -67.335101501712 0.852056439533845 -67.335101501712 0.476086118723137 19.7803948058791 
! Gamma         0                0                0                0                
! Port Impedance         50               0                50               0                
4.9                            0.479882580476601 18.6459668008408 0.850105495944718 -68.5357701891906 0.850105495944718 -68.5357701891907 0.479885334144739 18.6438105330475 
! Gamma         0                0                0                0                
! Port Impedance         50               0                50               0                
5                              0.483448674138938 17.5130751355802 0.848258644253799 -69.7311806786224 0.848258644253799 -69.7311806786223 0.483451456262236 17.5109000350082 
! Gamma         0                0                0                0                
! Port Impedance         50               0                50               0                
5.1                            0.486783777702296 16.3836695730709 0.84651797618577 -70.921648142946 0.84651797618577 -70.921648142946 0.486786585496325 16.3814780333162 
! Gamma         0                0                0                0                
! Port Impedance         50               0                50               0                
5.2                            0.489889903668064 15.2575526398419 0.844885401741484 -72.1074917867726 0.844885401741484 -72.1074917867725 0.489892734319001 15.2553471534572 
! Gamma         0                0                0                0                
! Port Impedance         50               0                50               0                
5.3                            0.492768966631214 14.1345160765891 0.843362656581967 -73.2890343952825 0.843362656581967 -73.2890343952825 0.492771817287295 14.1322992400148 
! Gamma         0                0                0                0                
! Port Impedance         50               0                50               0                
5.4                            0.495422774334916 13.0143420300759 0.841951309073739 -74.4666019159517 0.841951309073739 -74.4666019159517 0.495425642097552 13.0121165490347 
! Gamma         0                0                0                0                
! Port Impedance         50               0                50               0                
5.5                            0.497853019678521 11.8968041359662 0.840652766952671 -75.6405230709687 0.840652766952671 -75.6405230709687 0.497855901593276 11.8945728313401 
! Gamma         0                0                0                0                
! Port Impedance         50               0                50               0                
5.6                            0.50006127361576 10.7816685049477 0.839468283569485 -76.8111289981424 0.839468283569485 -76.8111289981424 0.500064166663362 10.7794343191561 
! Gamma         0                0                0                0                
! Port Impedance         50               0                50               0                
5.7                            0.502048978884225 9.66869462330279 0.838398963685246 -77.9787529180464 0.838398963685246 -77.9787529180463 0.502051879971792 9.66646062720299 
! Gamma         0                0                0                0                
! Port Impedance         50               0                50               0                
5.8                            0.503817444511723 8.55763617806385 0.837445768789976 -79.14372982511  0.837445768789977 -79.14372982511  0.503820350464338 8.55540557839898 
! Gamma         0                0                0                0                
! Port Impedance         50               0                50               0                
5.9                            0.505367841049834 7.44824181600941 0.836609521921747 -80.3063962003334 0.836609521921747 -80.3063962003333 0.505370748602612 7.4460179634309  
! Gamma         0                0                0                0                
! Port Impedance         50               0                50               0                
6                              0.506701196489897 6.34025584500434 0.835890911967361 -81.4670897432872 0.835890911967361 -81.4670897432871 0.506704102280657 6.33804224270046 
! Gamma         0                0                0                0                
! Port Impedance         50               0                50               0                
6.1                            0.507818392821717 5.23341888554152 0.835290497429147 -82.62614912104  0.835290497429147 -82.62614912104  0.50782129338436 5.2312191985081  
! Gamma         0                0                0                0                
! Port Impedance         50               0                50               0                
6.2                            0.508720163200328 4.12746847979248 0.834808709645344 -83.7839137316516 0.834808709645344 -83.7839137316516 0.508723054959015 4.12528654478636 
! Gamma         0                0                0                0                
! Port Impedance         50               0                50               0                
6.3                            0.509407089691357 3.02213966500525 0.834445855454264 -84.9407234798625 0.834445855454265 -84.9407234798625 0.509409968955555 3.01997950122767 
! Gamma         0                0                0                0                
! Port Impedance         50               0                50               0                
6.4                            0.509879601570639 1.91716551769549 0.834202119294822 -86.0969185626139 0.834202119294822 -86.0969185626138 0.509882464531103 1.91503133825782 
! Gamma         0                0                0                0                
! Port Impedance         50               0                50               0                
6.5                            0.510137974158922 0.812277674750196 0.834077564738185 -87.2528392620259 0.834077564738185 -87.2528392620259 0.510140816884679 0.810173898982076 
! Gamma         0                0                0                0                
! Port Impedance         50               0                50               0                
6.6                            0.510182328177635 -0.292793162703418 0.834072135447365 -88.4088257434729 0.834072135447366 -88.4088257434729 0.510185146614001 -0.294861896035692 
! Gamma         0                0                0                0                
! Port Impedance         50               0                50               0                
6.7                            0.510012629616759 -1.39831673701965 0.834185655563402 -89.5652178563908 0.834185655563402 -89.5652178563909 0.510015419584453 -1.40034555550798 
! Gamma         0                0                0                0                
! Port Impedance         50               0                50               0                
6.8                            0.50962869011095 -2.50456274785933 0.834417829518634 -90.7223549354589 0.834417829518635 -90.7223549354589 0.509631447306323 -2.50654653017575 
! Gamma         0                0                0                0                
! Port Impedance         50               0                50               0                
6.9                            0.509030167825006 -3.61180036673802 0.834768241279344 -91.8805755998006 0.834768241279344 -91.8805755998005 0.509032887821438 -3.61373372618649 
! Gamma         0                0                0                0                
! Port Impedance         50               0                50               0                
7                              0.508216568854734 -4.72029774697447 0.83523635302184 -93.0402175478547 0.835236353021841 -93.0402175478546 0.508219247105228 -4.72217501376335 
! Gamma         0                0                0                0                
! Port Impedance         50               0                50               0                
7.1                            0.507187249154125 -5.83032152372719 0.835821503247955 -94.2016173455711 0.835821503247956 -94.2016173455709 0.507189880995136 -5.83213672583933 
! Gamma         0                0                0                0                
! Port Impedance         50               0                50               0                
7.2                            0.505941417004501 -6.94213629876984 0.836522904347892 -95.3651102055922 0.836522904347893 -95.365110205592 0.505943997661041 -6.94388314129193 
! Gamma         0                0                0                0                
! Port Impedance         50               0                50               0                
7.3                            0.504478136045972 -8.05600410456874 0.837339639620535 -96.5310297550896 0.837339639620536 -96.5310297550895 0.504480660638034 -8.05767594732428 
! Gamma         0                0                0                0                
! Port Impedance         50               0                50               0                
7.4                            0.502796328896077 -9.17218384209004 0.838270659763704 -97.6997077899375 0.838270659763705 -97.6997077899373 0.502798792446429 -9.1737736754005 
! Gamma         0                0                0                0                
! Port Impedance         50               0                50               0                
7.5                            0.500894781384886 -10.2909306865715 0.83931477884945 -98.8714740129131 0.839314778849451 -98.8714740129129 0.500897178828298 -10.2924311049481 
! Gamma         0                0                0                0                
! Port Impedance         50               0                50               0                
7.6                            0.498772147440053 -11.4124954552451 0.840470669802436 -100.046655753644 0.840470669802437 -100.046655753644 0.49877447363402 -11.4138986287884 
! Gamma         0                0                0                0                
! Port Impedance         50               0                50               0                
7.7                            0.496426954659346 -12.5371239306824 0.841736859402688 -101.22557766804 0.84173685940269 -101.225577668039 0.496429204396391 -12.5384215739371 
! Gamma         0                0                0                0                
! Port Impedance         50               0                50               0                
7.8                            0.493857610611928 -13.665056133048 0.843111722837721 -102.408561414981 0.843111722837721 -102.408561414981 0.493859778633582 -13.666239471029 
! Gamma         0                0                0                0                
! Port Impedance         50               0                50               0                
7.9                            0.491062409913172 -14.7965255340783 0.844593477833059 -103.595925308093 0.84459347783306 -103.595925308093 0.491064490925746 -14.797585265144 
! Gamma         0                0                0                0                
! Port Impedance         50               0                50               0                
8                              0.488039542120882 -15.9317582050406 0.846180178394804 -104.787983940478 0.846180178394805 -104.787983940478 0.488041530813154 -15.9326844602469 
! Gamma         0                0                0                0                
! Port Impedance         50               0                50               0                
8.1                            0.484787100503542 -17.0709718902512 0.847869708202848 -105.985047780357 0.84786970820285 -105.985047780357 0.484788991566523 -17.0717541887692 
! Gamma         0                0                0                0                
! Port Impedance         50               0                50               0                
8.2                            0.481303091733397 -18.2143749969303 0.849659773698986 -107.187422735672 0.849659773698987 -107.187422735672 0.481304879882357 -18.2150021970511 
! Gamma         0                0                0                0                
! Port Impedance         50               0                50               0                
8.3                            0.477585446558868 -19.3621654912051 0.851547896920178 -108.395409685802 0.851547896920179 -108.395409685802 0.477587126557821 -19.3626257363888 
! Gamma         0                0                0                0                
! Port Impedance         50               0                50               0                
8.4                            0.47363203151175 -20.5145296889293 0.853531408133921 -109.609303978682 0.853531408133921 -109.609303978682 0.473633598200661 -20.5148103482744 
! Gamma         0                0                0                0                
! Port Impedance         50               0                50               0                
8.5                            0.469440661704889 -21.6716409286041 0.855607438339788 -110.829394891792 0.855607438339789 -110.829394891792 0.469442110029877 -21.6717285310226 
! Gamma         0                0                0                0                
! Port Impedance         50               0                50               0                
8.6                            0.465009114775401 -22.8336581120343 0.857772911708949 -112.055965055661 0.857772911708951 -112.05596505566 0.465010439822273 -22.833538273308 
! Gamma         0                0                0                0                
! Port Impedance         50               0                50               0                
8.7                            0.46033514602685 -24.0007240963525 0.86002453804161 -113.289289838765 0.86002453804161 -113.289289838765 0.460336343058356 -24.0003814381194 
! Gamma         0                0                0                0                
! Port Impedance         50               0                50               0                
8.8                            0.45541650482108 -25.1729639186227 0.862358805330974 -114.529636692988 0.862358805330977 -114.529636692988 0.455417569318332 -25.1723819781917 
! Gamma         0                0                0                0                
! Port Impedance         50               0                50               0                
8.9                            0.45025095226646 -26.3504828312922 0.864771972531348 -115.777264459065 0.86477197253135 -115.777264459064 0.450251879975044 -26.3496439610057 
! Gamma         0                0                0                0                
! Port Impedance         50               0                50               0                
9                              0.444836280243984 -27.5333641231568 0.867260062637237 -117.032422631856 0.867260062637237 -117.032422631856 0.444837067225378 -27.5322493778095 
! Gamma         0                0                0                0                
! Port Impedance         50               0                50               0                
9.1                            0.439170331805957 -28.7216666960866 0.869818856189824 -118.295350585636 0.869818856189824 -118.295350585636 0.43917097449496 -28.7202557066546 
! Gamma         0                0                0                0                
! Port Impedance         50               0                50               0                
9.2                            0.433251022973695 -29.9154223623053 0.872443885336665 -119.566276760054 0.872443885336665 -119.566276760054 0.433251518242711 -29.9136931939392 
! Gamma         0                0                0                0                
! Port Impedance         50               0                50               0                
9.3                            0.427076365950741 -31.1146328202615 0.87513042857978 -120.845417807942 0.87513042857978 -120.845417807942 0.427076711181903 -31.1125618121295 
! Gamma         0                0                0                0                
! Port Impedance         50               0                50               0                
9.4                            0.420644493756531 -32.3192662587122 0.877873506356346 -122.132977706661 0.877873506356347 -122.132977706661 0.420644686922817 -32.3168278428414 
! Gamma         0                0                0                0                
! Port Impedance         50               0                50               0                
9.5                            0.413953686272145 -33.5292535281119 0.880667877604595 -123.429146835322 0.880667877604596 -123.429146835322 0.413953726028864 -33.5264200238395 
! Gamma         0                0                0                0                
! Port Impedance         50               0                50               0                
9.6                            0.407002397674876 -34.7444838051561 0.883508037475087 -124.734101020848 0.88350803747509 -124.734101020848 0.407002283463155 -34.7412251851526 
! Gamma         0                0                0                0                
! Port Impedance         50               0                50               0                
9.7                            0.399789285221925 -35.9647996595886 0.88638821635395 -126.048000556574 0.886388216353953 -126.048000556574 0.399789017386143 -35.9610832826131 
! Gamma         0                0                0                0                
! Port Impedance         50               0                50               0                
9.8                            0.392313239325778 -37.1899914111079 0.889302380369567 -127.370989197833 0.889302380369567 -127.370989197833 0.39231281924728 -37.1857817156728 
! Gamma         0                0                0                0                
! Port Impedance         50               0                50               0                
9.9                            0.384573414845135 -38.4197906370164 0.892244233557364 -128.703193139765 0.892244233557364 -128.703193139765 0.384572845095057 -38.4150487889186 
! Gamma         0                0                0                0                
! Port Impedance         50               0                50               0                
10                             0.376569263496088 -39.6538626563054 0.895207221858125 -130.044719983444 0.895207221858127 -130.044719983444 0.376568548010692 -39.6485461414602 
! Gamma         0                0                0                0                
! Port Impedance         50               0                50               0                
10.1                           0.368300567269241 -40.891797770657 0.898184539123614 -131.395657697245 0.898184539123615 -131.395657697244 0.36829971155194 -40.8858599227651 
! Gamma         0                0                0                0                
! Port Impedance         50               0                50               0                
10.2                           0.359767472720708 -42.1331009839674 0.90116913529845 -132.75607358128 0.901169135298451 -132.75607358128 0.359766484075903 -42.1264904341387 
! Gamma         0                0                0                0                
! Port Impedance         50               0                50               0                
10.3                           0.350970525989519 -43.3771798447988 0.904153726939173 -134.126013243588 0.904153726939175 -134.126013243588 0.350969413794569 -43.3698398771996 
! Gamma         0                0                0                0                
! Port Impedance         50               0                50               0                
10.4                           0.341910708382843 -44.6233299541504 0.907130810219416 -135.505499597613 0.907130810219415 -135.505499597613 0.341909484406052 -44.6151977478284 
! Gamma         0                0                0                0                
! Port Impedance         50               0                50               0                
10.5                           0.332589472365813 -45.8707175450544 0.910092676554156 -136.894531891355 0.910092676554157 -136.894531891355 0.332588151140312 -45.8617232770468 
! Gamma         0                0                0                0                
! Port Impedance         50               0                50               0                
10.6                           0.323008777797817 -47.1183583578895 0.913031430955736 -138.293084779334 0.913031430955739 -138.293084779334 0.323007377063834 -47.1084241361591 
! Gamma         0                0                0                0                
! Port Impedance         50               0                50               0                
10.7                           0.313171128276474 -48.3650917875805 0.915939013209236 -139.701107449183 0.915939013209234 -139.701107449183 0.313169669507939 -48.3541303737089 
! Gamma         0                0                0                0                
! Port Impedance         50               0                50               0                
10.8                           0.303079607489972 -49.6095489393543 0.918807221925314 -141.118522815322 0.918807221925317 -141.118522815321 0.303078116525941 -49.5974622095301 
! Gamma         0                0                0                0                
! Port Impedance         50               0                50               0                
10.9                           0.292737915546948 -50.8501127593106 0.921627741494288 -142.545226792573 0.921627741494291 -142.545226792573 0.292736423354502 -50.8367898369012 
! Gamma         0                0                0                0                
! Port Impedance         50               0                50               0                
11                             0.282150405363071 -52.0848677464287 0.92439217192626 -143.981087662953 0.924392171926263 -143.981087662953 0.282148948966643 -52.0701827188338 
! Gamma         0                0                0                0                
! Port Impedance         50               0                50               0                
11.1                           0.271322119353493 -53.3115358156657 0.927092061519262 -145.425945548944 0.927092061519261 -145.425945548944 0.271320742977041 -53.2953449199949 
! Gamma         0                0                0                0                
! Port Impedance         50               0                50               0                
11.2                           0.26025882693835 -54.527393532115 0.929718942250201 -146.879612006542 0.929718942250202 -146.879612006542 0.260257583422695 -54.509531655295 
! Gamma         0                0                0                0                
! Port Impedance         50               0                50               0                
11.3                           0.248967063757763 -55.7291639621966 0.932264367733614 -148.341869751047 0.932264367733613 -148.341869751047 0.248966016337927 -55.7094402465267 
! Gamma         0                0                0                0                
! Port Impedance         50               0                50               0                
11.4                           0.237454174081718 -56.9128734524436 0.934719953540698 -149.812472528035 0.934719953540704 -149.812472528035 0.237453398641229 -56.8910657200345 
! Gamma         0                0                0                0                
! Port Impedance         50               0                50               0                
11.5                           0.225728358799454 -58.0736592015994 0.937077419617519 -151.291145141151 0.937077419617516 -151.291145141151 0.225727946765539 -58.0495067991649 
! Gamma         0                0                0                0                
! Port Impedance         50               0                50               0                
11.6                           0.213798732766863 -59.205506626231 0.939328634487199 -152.777583647302 0.939328634487203 -152.777583647302 0.21379879488    -59.178701127453 
! Gamma         0                0                0                0                
! Port Impedance         50               0                50               0                
11.7                           0.201675397493094 -60.300884681411 0.941465660868547 -154.271455728474 0.941465660868549 -154.271455728474 0.201676068789628 -60.2710576389018 
! Gamma         0                0                0                0                
! Port Impedance         50               0                50               0                
11.8                           0.189369538711009 -61.3502297691683 0.943480802292943 -155.772401247783 0.943480802292942 -155.772401247783 0.189370985220329 -61.3169363349795 
! Gamma         0                0                0                0                
! Port Impedance         50               0                50               0                
11.9                           0.176893564300942 -62.3411997499289 0.945366650255737 -157.280032995493 0.945366650255734 -157.280032995493 0.176895992216599 -62.3038964043555 
! Gamma         0                0                0                0                
! Port Impedance         50               0                50               0                
12                             0.164261308199035 -63.2575697404574 0.947116131397612 -158.793937628634 0.947116131397616 -158.793937628634 0.164264976702976 -63.2155834501508 
! Gamma         0                0                0                0                
! Port Impedance         50               0                50               0                
12.1                           0.151488343976012 -64.0775532019666 0.948722554178492 -160.313676805467 0.94872255417849 -160.313676805467 0.151493583599276 -64.0300378383352 
! Gamma         0                0                0                0                
! Port Impedance         50               0                50               0                
12.2                           0.138592485155438 -64.7711697993809 0.950179654481517 -161.838788513602 0.950179654481517 -161.838788513602 0.138599724780077 -64.7170431778535 
! Gamma         0                0                0                0                
! Port Impedance         50               0                50               0                
12.3                           0.125594613932817 -65.2959708552267 0.951481639570443 -163.368788587863 0.951481639570439 -163.368788587863 0.125604421739533 -65.2338215792864 
! Gamma         0                0                0                0                
! Port Impedance         50               0                50               0                
12.4                           0.1125201116156  -65.5898080268581 0.952623229819584 -164.903172411312 0.952623229819584 -164.903172411312 0.112533259412499 -65.5177541773913 
! Gamma         0                0                0                0                
! Port Impedance         50               0                50               0                
12.5                           0.0994014491323375 -65.5580013445228 0.953599697643823 -166.441416790068 0.95359969764381 -166.441416790068 0.0994190176225775 -65.473470974258 
! Gamma         0                0                0                0                
! Port Impedance         50               0                50               0                
12.6                           0.0862831579698585 -65.0492534657666 0.954406903076374 -167.982981989851 0.954406903076376 -167.982981989851 0.0863067172825018 -64.9486380663625 
! Gamma         0                0                0                0                
! Port Impedance         50               0                50               0                
12.7                           0.0732320715493934 -63.8073586185618 0.955041325475057 -169.527313919577 0.955041325475059 -169.527313919577 0.0732640075802083 -63.6854721258674 
! Gamma         0                0                0                0                
! Port Impedance         50               0                50               0                
12.8                           0.0603603610103074 -61.366765164157 0.955500090882244 -171.073846444869 0.955500090882247 -171.073846444869 0.0604044980965092 -61.216093728426 
! Gamma         0                0                0                0                
! Port Impedance         50               0                50               0                
12.9                           0.047883179632394 -56.8082400679461 0.955780994620515 -172.622003812161 0.955780994620512 -172.622003812161 0.0479460109633181 -56.6185814714623 
! Gamma         0                0                0                0                
! Port Impedance         50               0                50               0                
13                             0.0362808264736685 -48.1627513847789 0.955882518772315 -174.171203162146 0.955882518772308 -174.171203162146 0.0363737428615194 -47.9262162388425 
! Gamma         0                0                0                0                
! Port Impedance         50               0                50               0                
13.1                           0.0267823228436606 -31.2693263262234 0.955803844267893 -175.720857109721 0.95580384426789 -175.720857109721 0.0269223277888999 -31.0202793248837 
! Gamma         0                0                0                0                
! Port Impedance         50               0                50               0                
13.2                           0.0223049677148834 -1.86734131224473 0.955544857388026 -177.270376366441 0.955544857388022 -177.270376366441 0.0224908066106873 -1.79205379491229 
! Gamma         0                0                0                0                
! Port Impedance         50               0                50               0                
13.3                           0.0256316243452806 29.060925239036  0.955106150576278 -178.819172380681 0.955106150576279 -178.819172380681 0.0258098396224661 28.8898795519905 
! Gamma         0                0                0                0                
! Port Impedance         50               0                50               0                
13.4                           0.0345546592986369 47.7703671677123 0.954489017545622 179.63334002959  0.954489017545605 179.63334002959  0.0346997266077828 47.5426437711552 
! Gamma         0                0                0                0                
! Port Impedance         50               0                50               0                
13.5                           0.0458834536086373 57.3615733792719 0.953695442755393 178.087740076392 0.953695442755389 178.087740076392 0.0460027357844248 57.1522998511922 
! Gamma         0                0                0                0                
! Port Impedance         50               0                50               0                
13.6                           0.0581874948315717 62.3944217584639 0.95272808542361 176.544598458062 0.952728085423599 176.544598458061 0.0582897288483227 62.2119282722685 
! Gamma         0                0                0                0                
! Port Impedance         50               0                50               0                
13.7                           0.0709148535460684 65.095901674396  0.951590258324016 175.004474895718 0.951590258324021 175.004474895718 0.0710056637606559 64.9361272678426 
! Gamma         0                0                0                0                
! Port Impedance         50               0                50               0                
13.8                           0.0838246565869073 66.4962783581106 0.950285901695921 173.467915771806 0.950285901695911 173.467915771806 0.0839075184025186 66.3543726230775 
! Gamma         0                0                0                0                
! Port Impedance         50               0                50               0                
13.9                           0.0967945893902667 67.1102497320276 0.948819552664452 171.935451890917 0.948819552664449 171.935451890917 0.0968717252437755 66.9823384302868 
! Gamma         0                0                0                0                
! Port Impedance         50               0                50               0                
14                             0.109753611156359 67.2176054149483 0.947196310629466 170.407596380967 0.947196310629463 170.407596380967 0.109826505769331 67.1007937925364 
! Gamma         0                0                0                0                
! Port Impedance         50               0                50               0                
14.1                           0.122655547066031 66.9818806828973 0.94542179912948 168.88484275047  0.945421799129478 168.88484275047  0.122725232976687 66.8740160390276 
! Gamma         0                0                0                0                
! Port Impedance         50               0                50               0                
14.2                           0.135467521557769 66.5045423169049 0.943502124724815 167.367663115093 0.943502124724812 167.367663115093 0.135534741981993 66.4040040990703 
! Gamma         0                0                0                0                
! Port Impedance         50               0                50               0                
14.3                           0.148164407670055 65.8517132512859 0.941443833468278 165.856506604017 0.941443833468276 165.856506604017 0.148229713299647 65.7572608527227 
! Gamma         0                0                0                0                
! Port Impedance         50               0                50               0                
14.4                           0.160725957368676 65.0682744007712 0.939253865543972 164.351797953854 0.939253865543979 164.351797953854 0.1607897663019  64.9789415234022 
! Gamma         0                0                0                0                
! Port Impedance         50               0                50               0                
14.5                           0.173135224097483 64.1857471645444 0.93693950865518 162.853936295176 0.93693950865517 162.853936295176 0.173197860350973 64.1007687424625 
! Gamma         0                0                0                0                
! Port Impedance         50               0                50               0                
14.6                           0.185377649654296 63.226920789992  0.934508350730919 161.363294133964 0.934508350730909 161.363294133964 0.185439368743266 63.1456819094596 
! Gamma         0                0                0                0                
! Port Impedance         50               0                50               0                
14.7                           0.197440511141755 62.2086850065506 0.931968232499484 159.880216527771 0.931968232499474 159.880216527771 0.197501517573963 62.1306846559752 
! Gamma         0                0                0                0                
! Port Impedance         50               0                50               0                
14.8                           0.209312571697949 61.1438277027964 0.929327200446591 158.405020453945 0.929327200446599 158.405020453945 0.209373031249779 61.0686526202261 
! Gamma         0                0                0                0                
! Port Impedance         50               0                50               0                
14.9                           0.220983850647503 60.0422120975568 0.926593460637457 156.93799436505  0.926593460637455 156.937994365049 0.221043899177357 59.9695175929045 
! Gamma         0                0                0                0                
! Port Impedance         50               0                50               0                
15                             0.232445465596685 58.9115690371    0.923775333837685 155.479397924661 0.923775333837684 155.479397924661 0.232505215502182 58.8410647087539 
! Gamma         0                0                0                0                
! Port Impedance         50               0                50               0                
15.1                           0.243689518797611 57.758043341051  0.920881212318785 154.02946191496  0.920881212318784 154.02946191496  0.243749063833151 57.6894822819196 
! Gamma         0                0                0                0                
! Port Impedance         50               0                50               0                
15.2                           0.254709011175484 56.5865787719974 0.917919518681901 152.588388306111 0.917919518681891 152.58838830611  0.254768430105566 56.5197493016922 
! Gamma         0                0                0                0                
! Port Impedance         50               0                50               0                
15.3                           0.265497773821572 55.4011946051656 0.914898666979393 151.156350476225 0.914898666979393 151.156350476225 0.265557133232204 55.335913857633  
! Gamma         0                0                0                0                
! Port Impedance         50               0                50               0                
15.4                           0.276050410582593 54.205187836568  0.911827026359873 149.733493569786 0.911827026359864 149.733493569786 0.276109767073647 54.1412967291776 
! Gamma         0                0                0                0                
! Port Impedance         50               0                50               0                
15.5                           0.286362247725334 53.0012834050479 0.908712887409295 148.31993498179  0.908712887409295 148.31993498179  0.28642164964075 52.9386426493355 
! Gamma         0                0                0                0                
! Port Impedance         50               0                50               0                
15.6                           0.29642928812913 51.791747442844  0.905564431309252 146.91576495445  0.905564431309233 146.91576495445  0.296488776937318 51.7302343499769 
! Gamma         0                0                0                0                
! Port Impedance         50               0                50               0                
15.7                           0.306248168401641 50.5784738195249 0.902389701885667 145.521047273151 0.902389701885667 145.521047273151 0.30630777980752 50.517979718793  
! Gamma         0                0                0                0                
! Port Impedance         50               0                50               0                
15.8                           0.315816117924527 49.3630511169454 0.899196580576939 144.135820048424 0.899196580576922 144.135820048423 0.315875882773362 49.3034792519315 
! Gamma         0                0                0                0                
! Port Impedance         50               0                50               0                
15.9                           0.325130919236105 48.1468150757063 0.895992764308707 142.760096570897 0.895992764308715 142.760096570897 0.325190864253839 48.0880788762398 
! Gamma         0                0                0                0                
! Port Impedance         50               0                50               0                
16                             0.334190869420645 46.9308901234524 0.892785746228422 141.393866226657 0.892785746228422 141.393866226657 0.33425101782456 46.8729117757861 
! Gamma         0                0                0                0                
! Port Impedance         50               0                50               0                
16.1                           0.342994742345849 45.7162226048093 0.889582799220011 140.037095460928 0.889582799220012 140.037095460928 0.343055114351335 45.6589318604337 
! Gamma         0                0                0                0                
! Port Impedance         50               0                50               0                
16.2                           0.351541751700316 44.5036076370205 0.886390962093376 138.689728778687 0.886390962093358 138.689728778687 0.351602364943598 44.4469408139061 
! Gamma         0                0                0                0                
! Port Impedance         50               0                50               0                
16.3                           0.359831514851807 43.2937110201089 0.883217028320964 137.351689771533 0.883217028320939 137.351689771533 0.359892384744082 43.2376101602399 
! Gamma         0                0                0                0                
! Port Impedance         50               0                50               0                
16.4                           0.367864017587262 42.0870872737016 0.880067537176829 136.022882160968 0.880067537176802 136.022882160967 0.36792515761242 42.031499428397  
! Gamma         0                0                0                0                
! Port Impedance         50               0                50               0                
16.5                           0.375639579816458 40.8841946127731 0.876948767119807 134.703190849061 0.876948767119798 134.703190849061 0.375701001781966 40.8290712331663 
! Gamma         0                0                0                0                
! Port Impedance         50               0                50               0                
16.6                           0.383158822328614 39.6854074832926 0.873866731253823 133.392482968379 0.873866731253806 133.392482968378 0.383220536577262 39.6307038978512 
! Gamma         0                0                0                0                
! Port Impedance         50               0                50               0                
16.7                           0.390422634689824 38.4910271366084 0.870827174691992 132.090608923892 0.870827174691975 132.090608923892 0.390484650278497 38.4367021011073 
! Gamma         0                0                0                0                
! Port Impedance         50               0                50               0                
16.8                           0.397432144362036 37.3012906147699 0.867835573649324 130.797403420486 0.867835573649289 130.797403420486 0.397494469212516 37.2473059228919 
! Gamma         0                0                0                0                
! Port Impedance         50               0                50               0                
16.9                           0.40418868711327 36.1163784384154 0.86489713608824 129.512686470511 0.864897136088233 129.512686470511 0.404251328139174 36.0626985833283 
! Gamma         0                0                0                0                
! Port Impedance         50               0                50               0                
17                             0.410693778776261 34.9364212273356 0.862016803744775 128.236264376647 0.86201680374475 128.236264376647 0.410756741989445 34.8830131063419 
! Gamma         0                0                0                0                
! Port Impedance         50               0                50               0                
17.1                           0.416949088398696 33.7615054367172 0.85919925536661 126.967930686121 0.859199255366593 126.967930686121 0.41701237899792 33.708338092447  
! Gamma         0                0                0                0                
! Port Impedance         50               0                50               0                
17.2                           0.422956412814864 32.5916783555212 0.85644891100143 125.70746711305  0.856448911001413 125.70746711305  0.423020035259011 32.5387227482663 
! Gamma         0                0                0                0                
! Port Impedance         50               0                50               0                
17.3                           0.42871765265516 31.42695248511   0.853769937181154 124.454644426368 0.853769937181137 124.454644426367 0.428781610722959 31.3741812917876 
! Gamma         0                0                0                0                
! Port Impedance         50               0                50               0                
17.4                           0.434234789797785 30.2673093939681 0.851166252855532 123.209223301403 0.851166252855524 123.209223301403 0.434299086635648 30.2146968299519 
! Gamma         0                0                0                0                
! Port Impedance         50               0                50               0                
17.5                           0.439509866255911 29.112703126856  0.848641535938765 121.970955133789 0.848641535938739 121.970955133788 0.439574504415263 29.0602247875016 
! Gamma         0                0                0                0                
! Port Impedance         50               0                50               0                
17.6                           0.444544964483772 27.963063232856  0.846199230341249 120.739582814855 0.846199230341242 120.739582814855 0.444609945949033 27.9106959520478 
! Gamma         0                0                0                0                
! Port Impedance         50               0                50               0                
17.7                           0.44934218907681 26.8182974656974 0.843842553369281 119.514841468168 0.843842553369257 119.514841468168 0.449407515285053 26.7660191891446 
! Gamma         0                0                0                0                
! Port Impedance         50               0                50               0                
17.8                           0.453903649833962 25.6782942008965 0.84157450338457 118.296459147272 0.841574503384555 118.296459147272 0.453969321687069 25.6260838722536 
! Gamma         0                0                0                0                
! Port Impedance         50               0                50               0                
17.9                           0.458231446144474 24.5429246071006 0.839397867626   117.084157495055 0.839397867625976 117.084157495055 0.458297464014556 24.4907620652588 
! Gamma         0                0                0                0                
! Port Impedance         50               0                50               0                
18                             0.462327652657211 23.4120446032541 0.837315230104346 115.877652365506 0.83731523010433 115.877652365506 0.462394016385915 23.3599104893909 
! Gamma         0                0                0                0                
! Port Impedance         50               0                50               0                
18.1                           0.466194306187199 22.2854966284928 0.835328979491347 114.676654408872 0.835328979491332 114.676654408872 0.466261015079489 22.2333723016583 
! Gamma         0                0                0                0                
! Port Impedance         50               0                50               0                
18.2                           0.469833393811969 21.1631112478324 0.833441316931645 113.480869621486 0.833441316931621 113.480869621487 0.469900446624837 21.110978708027  
! Gamma         0                0                0                0                
! Port Impedance         50               0                50               0                
18.3                           0.47324684210907 20.0447086135534 0.831654263715591 112.289999861743 0.831654263715577 112.289999861743 0.473314237035651 19.992550431377  
! Gamma         0                0                0                0                
! Port Impedance         50               0                50               0                
18.4                           0.476436507485865 18.9300997995641 0.829969668758161 111.103743333823 0.829969668758122 111.103743333823 0.476504242135314 18.877899051647  
! Gamma         0                0                0                0                
! Port Impedance         50               0                50               0                
18.5                           0.47940416755311 17.8190880238612 0.82838921583629 109.921795040962 0.828389215836276 109.921795040962 0.479472238926619 17.7668282333834 
! Gamma         0                0                0                0                
! Port Impedance         50               0                50               0                
18.6                           0.482151513495016 16.7114697723897 0.826914430544346 108.743847210118 0.826914430544324 108.743847210118 0.482219917958274 16.659134854078  
! Gamma         0                0                0                0                
! Port Impedance         50               0                50               0                
18.7                           0.484680143390137 15.6070358360837 0.825546686932626 107.569589690006 0.82554668693262 107.569589690006 0.48474887664253 15.5546100451547 
! Gamma         0                0                0                0                
! Port Impedance         50               0                50               0                
18.8                           0.486991556439612 14.5055722715919 0.824287213800768 106.398710324514 0.824287213800755 106.398710324514 0.487060613480457 14.4530401561673 
! Gamma         0                0                0                0                
! Port Impedance         50               0                50               0                
18.9                           0.489087148061884 13.4068612950999 0.823137100621762 105.230895303568 0.823137100621748 105.230895303569 0.489156523153938 13.3542076516727 
! Gamma         0                0                0                0                
! Port Impedance         50               0                50               0                
19                             0.490968205815857 12.3106821177417 0.822097303078262 104.065829493537 0.822097303078249 104.065829493537 0.491037892446375 12.2578919493234 
! Gamma         0                0                0                0                
! Port Impedance         50               0                50               0                
19.1                           0.492635906117625 11.2168117303035 0.821168648196442 102.903196749277 0.821168648196422 102.903196749278 0.492705896957204 11.1638702069132 
! Gamma         0                0                0                0                
! Port Impedance         50               0                50               0                
19.2                           0.494091311719174 10.1250256442373 0.820351839066801 101.742680209928 0.820351839066797 101.742680209929 0.494161598578636 10.0719180654361 
! Gamma         0                0                0                0                
! Port Impedance         50               0                50               0                
19.3                           0.495335369920924 9.03509859542705 0.8196474591452  100.583962580543 0.819647459145179 100.583962580543 0.495405943706498 8.98181035461923 
! Gamma         0                0                0                0                
! Port Impedance         50               0                50               0                
19.4                           0.496368911493457 7.94680521663421 0.819055976130111 99.4267264016296 0.819055976130106 99.42672640163   0.4964397621605  7.89332176689055 
! Gamma         0                0                0                0                
! Port Impedance         50               0                50               0                
19.5                           0.497192650287288 6.85992068411539 0.818577745415829 98.2706543086519 0.818577745415824 98.2706543086523 0.49726376679283 6.80622750528619 
! Gamma         0                0                0                0                
! Port Impedance         50               0                50               0                
19.6                           0.497807183513034 5.77422134351892 0.818213013123404 97.1154292834844 0.818213013123384 97.1154292834849 0.497878553767419 5.72030391042686 
! Gamma         0                0                0                0                
! Port Impedance         50               0                50               0                
19.7                           0.498212992677761 4.68948531983224 0.817961918714298 95.960734899796  0.817961918714279 95.9607348997965 0.498284603495675 4.6353290713454  
! Gamma         0                0                0                0                
! Port Impedance         50               0                50               0                
19.8                           0.498410445166579 3.60549311585947 0.817824497193785 94.8062555642717 0.817824497193779 94.8062555642719 0.498482282217782 3.55108342465693 
! Gamma         0                0                0                0                
! Port Impedance         50               0                50               0                
19.9                           0.498399796461739 2.52202820344948 0.817800680913616 93.6516767555303 0.81780068091362 93.6516767555303 0.498471844221831 2.46735034630029 
! Gamma         0                0                0                0                
! Port Impedance         50               0                50               0                
20                             0.498181192994463 1.43887761147102 0.817890300985747 92.4966852625372 0.817890300985747 92.4966852625372 0.498253434696041 1.38391673985318 
! Gamma         0                0                0                0                
! Port Impedance         50               0                50               0                
