! Touchstone file exported from HFSS 2026.1.0
!        File:           C:/ffzhzh/LocalFiles/Ansys_Project_Files/temp_train_TSV_RDL_928_1783280329_38820.aedt
!        Generated:      03:48:24 AM Jul  6, 2026
!        Design:         TSV_RDL
!        Project:        temp_train_TSV_RDL_928_1783280329_38820
!
! Variables:
!        h_bsmrdl = 5.98um
!        h_ox = 20um
!        h_rdl = 5um
!        h_sub = 51.65um
!        h_tmrdl = 3.94um
!        h_tsv = 51.65um
!        h_via = 3um
!        l_bsmrdl = 955.07um
!        l_sub = 4537.23um
!        l_tmrdl = 285.11um
!        m_sub = 200um
!        pitch = 45.62um
!        r_tsv = 12.42um
!        s_tmrdl = 10um
!        w_bsmrdl = 16.57um
!        w_sub = 500um
!        w_tmrdl = 27.29um
!        x_tsv_center1 = 298.755um
!        x_tsv_center2 = 1270.395um
!        x_tsv_center3 = 1582.795um
!        x_tsv_center4 = 2554.435um
!        x_tsv_center5 = 2866.835um
!        x_tsv_center6 = 3838.475um
!
# GHz S MA R 50.000000
! Terminal data exported
! Port[1] = TM_RDL1_1_T1
! Port[2] = TM_RDL5_1_T1
0.1                            0.0211419717374823 43.0473533493151 0.984840503379566 -1.57116195147212 0.98484050337957 -1.57116195147211 0.0211419611259952 43.0473539341032 
! Gamma         0                0                0                0                
! Port Impedance         50               0                50               0                
0.2                            0.0330798963541676 58.2559033612962 0.983733199130886 -3.10231640453755 0.983733199130889 -3.10231640453776 0.0330795096683102 58.2557179134581 
! Gamma         0                0                0                0                
! Port Impedance         50               0                50               0                
0.3                            0.0458289845376952 64.2460994960999 0.982598191950241 -4.60920126614651 0.98259819195024 -4.60920126614672 0.0458283039504826 64.2464484360761 
! Gamma         0                0                0                0                
! Port Impedance         50               0                50               0                
0.4                            0.0587765869440323 67.0535334316058 0.981441866509375 -6.10682152620984 0.981441866509373 -6.10682152620994 0.0587759219834433 67.0542271335377 
! Gamma         0                0                0                0                
! Port Impedance         50               0                50               0                
0.5                            0.0718123576103993 68.3679821576411 0.980196996423456 -7.59961295753045 0.980196996423454 -7.59961295753046 0.0718118245524552 68.3687944426846 
! Gamma         0                0                0                0                
! Port Impedance         50               0                50               0                
0.6                            0.0848734859351848 68.8463671687281 0.978824962861776 -9.08823230988832 0.978824962861775 -9.0882323098883 0.0848730632195392 68.8471970958621 
! Gamma         0                0                0                0                
! Port Impedance         50               0                50               0                
0.7                            0.0979105986113278 68.8085895521555 0.977309054137925 -10.572416009066 0.977309054137925 -10.5724160090659 0.0979102158815319 68.8094171302433 
! Gamma         0                0                0                0                
! Port Impedance         50               0                50               0                
0.8                            0.110885074646198 68.4318759347992 0.975643370702406 -12.0517194409292 0.975643370702406 -12.0517194409292 0.110884660969456 68.4327167975845 
! Gamma         0                0                0                0                
! Port Impedance         50               0                50               0                
0.9                            0.123766784943999 67.8226649804343 0.973827239049375 -13.5256744682152 0.973827239049375 -13.5256744682152 0.123766288436241 67.8235453815518 
! Gamma         0                0                0                0                
! Port Impedance         50               0                50               0                
1                              0.136531846677979 67.0486398478661 0.971862817702511 -14.9938168154995 0.971862817702511 -14.9938168154995 0.13653123919061 67.0495851234261 
! Gamma         0                0                0                0                
! Port Impedance         50               0                50               0                
1.1                            0.149160866311894 66.1547805443312 0.969754073401632 -16.4556915156979 0.969754073401632 -16.4556915156979 0.149160141063189 66.1558107070846 
! Gamma         0                0                0                0                
! Port Impedance         50               0                50               0                
1.2                            0.161637697161241 65.1720738593936 0.967506292535451 -17.9108575329881 0.967506292535451 -17.9108575329881 0.161636863574572 65.1732026770964 
! Gamma         0                0                0                0                
! Port Impedance         50               0                50               0                
1.3                            0.173948597199971 64.1225243112642 0.965125794584265 -19.3588934119378 0.965125794584265 -19.3588934119378 0.173947675222859 64.1237599393099 
! Gamma         0                0                0                0                
! Port Impedance         50               0                50               0                
1.4                            0.186081668781152 63.0221722916185 0.962619724143393 -20.7994028229077 0.962619724143393 -20.7994028229077 0.186080683821071 63.0235184665408 
! Gamma         0                0                0                0                
! Port Impedance         50               0                50               0                
1.5                            0.198026488773834 61.8829812039366 0.959995878624918 -22.2320191524568 0.959995878624918 -22.2320191524568 0.19802546771669 61.8844385069903 
! Gamma         0                0                0                0                
! Port Impedance         50               0                50               0                
1.6                            0.209773864312875 60.7140550681476 0.957262557616822 -23.6564088424854 0.957262557616822 -23.6564088424854 0.209772832707216 60.7156220387324 
! Gamma         0                0                0                0                
! Port Impedance         50               0                50               0                
1.7                            0.221315669830104 59.5224456432567 0.954428429434082 -25.0722735140702 0.954428429434082 -25.0722735140702 0.221314650121349 59.5241196654283 
! Gamma         0                0                0                0                
! Port Impedance         50               0                50               0                
1.8                            0.232644735593009 58.313700307241  0.951502413183909 -26.4793510497055 0.951502413183909 -26.4793510497054 0.232643746208552 58.3154782649132 
! Gamma         0                0                0                0                
! Port Impedance         50               0                50               0                
1.9                            0.243754768045741 57.0922419691187 0.948493575296364 -27.8774158389357 0.948493575296365 -27.8774158389356 0.243753823115739 57.0941206981896 
! Gamma         0                0                0                0                
! Port Impedance         50               0                50               0                
2                              0.254640289118467 55.8616376863775 0.945411039522073 -29.2662783774564 0.945411039522074 -29.2662783774563 0.254639398636138 55.8636142630851 
! Gamma         0                0                0                0                
! Port Impedance         50               0                50               0                
2.1                            0.265296586315067 54.6247920534454 0.942263909356438 -30.645784380073 0.942263909356439 -30.6457843800729 0.265295756574086 54.6268639583746 
! Gamma         0                0                0                0                
! Port Impedance         50               0                50               0                
2.2                            0.275719668496717 53.3840888134709 0.939061201833277 -32.015813537265 0.939061201833279 -32.015813537265 0.275718902680102 53.3862540058261 
! Gamma         0                0                0                0                
! Port Impedance         50               0                50               0                
2.3                            0.285906224334395 52.1414962387661 0.935811791650363 -33.3762780184437 0.935811791650364 -33.3762780184436 0.285905523163086 52.1437531690903 
! Gamma         0                0                0                0                
! Port Impedance         50               0                50               0                
2.4                            0.295853581742851 50.8986467634118 0.93252436463178 -34.7271208033232 0.932524364631782 -34.7271208033232 0.295852944120603 50.9009943465406 
! Gamma         0                0                0                0                
! Port Impedance         50               0                50               0                
2.5                            0.305559667464699 49.6568980498489 0.929207379585025 -36.068313905667 0.929207379585027 -36.068313905667 0.305559091078328 49.6593356142736 
! Gamma         0                0                0                0                
! Port Impedance         50               0                50               0                
2.6                            0.315022966505313 48.417380481179  0.925869037666859 -37.3998565401459 0.925869037666861 -37.3998565401459 0.31502244835628 48.4199077064006 
! Gamma         0                0                0                0                
! Port Impedance         50               0                50               0                
2.7                            0.324242481436094 47.181034595759  0.922517258427963 -38.7217732723147 0.922517258427964 -38.7217732723147 0.324242018291682 47.1836514456219 
! Gamma         0                0                0                0                
! Port Impedance         50               0                50               0                
2.8                            0.33321769175926 45.9486409730544 0.919159661761231 -40.0341121830921 0.919159661761233 -40.0341121830922 0.333217280520203 45.9513476303366 
! Gamma         0                0                0                0                
! Port Impedance         50               0                50               0                
2.9                            0.34194851361158 44.72084438245   0.915803555032257 -41.3369430721157 0.915803555032258 -41.3369430721158 0.341948151598679 44.7236411879926 
! Gamma         0                0                0                0                
! Port Impedance         50               0                50               0                
3                              0.350435260110827 43.4981735183303 0.912455924723355 -42.6303557185753 0.912455924723356 -42.6303557185754 0.350434945276722 43.5010609165637 
! Gamma         0                0                0                0                
! Port Impedance         50               0                50               0                
3.1                            0.358678602639785 42.2810572987622 0.909123431974636 -43.9144582133493 0.909123431974637 -43.9144582133494 0.358678333714053 42.2840357904926 
! Gamma         0                0                0                0                
! Port Impedance         50               0                50               0                
3.2                            0.366679533333185 41.0698384573709 0.905812411457099 -45.189375372295 0.9058124114571  -45.1893753722951 0.366679309909885 41.0729085600163 
! Gamma         0                0                0                0                
! Port Impedance         50               0                50               0                
3.3                            0.374439328992873 39.8647849787967 0.902528873063276 -46.4552472372546 0.902528873063276 -46.4552472372547 0.374439151569843 39.8679471938266 
! Gamma         0                0                0                0                
! Port Impedance         50               0                50               0                
3.4                            0.381959516612188 38.6660997972364 0.899278505950311 -47.7122276686148 0.899278505950311 -47.7122276686149 0.381959386591085 38.6693545842998 
! Gamma         0                0                0                0                
! Port Impedance         50               0                50               0                
3.5                            0.389241840646117 37.4739290810867 0.896066684518063 -48.9604830310435 0.896066684518063 -48.9604830310437 0.389241760301548 37.4772768381635 
! Gamma         0                0                0                0                
! Port Impedance         50               0                50               0                
3.6                            0.396288232121655 36.2883693549411 0.892898475950449 -50.2001909722313 0.892898475950449 -50.2001909722315 0.396288204546929 36.2918104037863 
! Gamma         0                0                0                0                
! Port Impedance         50               0                50               0                
3.7                            0.403100779644537 35.1094736563497 0.889778648991505 -51.4315392930538 0.889778648991505 -51.4315392930539 0.403100808680665 35.1130082324868 
! Gamma         0                0                0                0                
! Port Impedance         50               0                50               0                
3.8                            0.409681702324749 33.937256884005  0.886711683668095 -52.6547249064722 0.886711683668095 -52.6547249064724 0.4096817924784  33.9408851305502 
! Gamma         0                0                0                0                
! Port Impedance         50               0                50               0                
3.9                            0.416033324614339 32.7717004629264 0.883701781708748 -53.8699528816731 0.883701781708748 -53.8699528816732 0.416033480969546 32.7754224275708 
! Gamma         0                0                0                0                
! Port Impedance         50               0                50               0                
4                              0.422158053026844 31.6127564282881 0.880752877442544 -55.0774355693598 0.880752877442543 -55.0774355693599 0.422158281154401 31.6165720628273 
! Gamma         0                0                0                0                
! Port Impedance         50               0                50               0                
4.1                            0.428058354688067 30.4603510109696 0.877868648993255 -56.2773918037195 0.877868648993254 -56.2773918037196 0.428058660555794 30.46426017283   
! Gamma         0                0                0                0                
! Port Impedance         50               0                50               0                
4.2                            0.433736737652458 29.3143877933706 0.875052529612143 -57.4700461763588 0.875052529612142 -57.4700461763589 0.433737127538796 29.3183902486546 
! Gamma         0                0                0                0                
! Port Impedance         50               0                50               0                
4.3                            0.439195732907662 28.1747504925634 0.87230771901792 -58.6556283774035 0.872307719017919 -58.6556283774036 0.439196213320443 28.1788459201943 
! Gamma         0                0                0                0                
! Port Impedance         50               0                50               0                
4.4                            0.444437877981377 27.0413054187153 0.869637194634658 -59.8343725989595 0.869637194634657 -59.8343725989596 0.444438455583088 27.0454934153283 
! Gamma         0                0                0                0                
! Port Impedance         50               0                50               0                
4.5                            0.449465702059131 25.9139036493735 0.867043722637904 -61.0065169962229 0.867043722637903 -61.006516996223 0.449466383599538 25.9181837346532 
! Gamma         0                0                0                0                
! Port Impedance         50               0                50               0                
4.6                            0.454281712518473 24.7923829542542 0.864529868736248 -62.1723032016663 0.864529868736247 -62.1723032016663 0.454282504775075 24.7967545764705 
! Gamma         0                0                0                0                
! Port Impedance         50               0                50               0                
4.7                            0.458888382783959 23.6765695003098 0.862098008630241 -63.3319758879228 0.862098008630239 -63.3319758879229 0.458889292510455 23.6810320418506 
! Gamma         0                0                0                0                
! Port Impedance         50               0                50               0                
4.8                            0.463288141407912 22.5662793628345 0.859750338103075 -64.4857823752071 0.859750338103073 -64.4857823752072 0.463289175290588 22.5708321455719 
! Gamma         0                0                0                0                
! Port Impedance         50               0                50               0                
4.9                            0.467483362283829 21.461319865025  0.857488882708132 -65.6339722793467 0.85748888270813 -65.6339722793468 0.467484526905609 21.4659621553895 
! Gamma         0                0                0                0                
! Port Impedance         50               0                50               0                
5                              0.471476355902279 20.3614907656152 0.855315507027417 -66.7767971967473 0.855315507027415 -66.7767971967474 0.471477657713997 20.366221779278  
! Gamma         0                0                0                0                
! Port Impedance         50               0                50               0                
5.1                            0.475269361562883 19.2665853118265 0.853231923482417 -67.9145104228594 0.853231923482415 -67.9145104228595 0.475270806861265 19.2714042179209 
! Gamma         0                0                0                0                
! Port Impedance         50               0                50               0                
5.2                            0.478864540460312 18.1763911728662 0.851239700685082 -69.0473667009574 0.851239700685081 -69.0473667009575 0.478866135372066 18.1812970976954 
! Gamma         0                0                0                0                
! Port Impedance         50               0                50               0                
5.3                            0.482263969567023 17.0906912674688 0.849340271321689 -70.1756219982776 0.849340271321688 -70.1756219982776 0.482265720038379 17.0956832976691 
! Gamma         0                0                0                0                
! Port Impedance         50               0                50               0                
5.4                            0.485469636240391 16.0092644974878 0.847534939566426 -71.2995333067826 0.847534939566424 -71.2995333067827 0.485471548031453 16.0143416826277 
! Gamma         0                0                0                0                
! Port Impedance         50               0                50               0                
5.5                            0.488483433487123 14.9318863982499 0.845824888024787 -72.419358466031 0.845824888024786 -72.4193584660311 0.488485512170352 14.9370477528597 
! Gamma         0                0                0                0                
! Port Impedance         50               0                50               0                
5.6                            0.491307155822947 13.8583297152589 0.844211184209409 -73.5353560058233 0.844211184209408 -73.5353560058234 0.491309406785141 13.8635742202924 
! Gamma         0                0                0                0                
! Port Impedance         50               0                50               0                
5.7                            0.493942495670749 12.7883649158504 0.842694786552926 -74.6477850064749 0.842694786552925 -74.647785006475 0.493944924117895 12.793691519588  
! Gamma         0                0                0                0                
! Port Impedance         50               0                50               0                
5.8                            0.496391040245365 11.7217606435369 0.841276549963863 -75.7569049747305 0.841276549963863 -75.7569049747306 0.496393651209775 11.7271682619455 
! Gamma         0                0                0                0                
! Port Impedance         50               0                50               0                
5.9                            0.498654268878111 10.6582841220246 0.839957230932636 -76.8629757334796 0.839957230932635 -76.8629757334796 0.49865706722731 10.663771638592  
! Gamma         0                0                0                0                
! Port Impedance         50               0                50               0                
6                              0.500733550738889 9.59770151521798 0.838737492195388 -77.9662573235664 0.838737492195387 -77.9662573235664 0.500736541185749 9.60326778028015 
! Gamma         0                0                0                0                
! Port Impedance         50               0                50               0                
6.1                            0.502630142918222 8.53977824893738 0.837617906963844 -79.0670099161054 0.837617906963843 -79.0670099161055 0.502633330031886 8.54542207852254 
! Gamma         0                0                0                0                
! Port Impedance         50               0                50               0                
6.2                            0.504345188835895 7.48427929956542 0.836598962729525 -80.1654937338154 0.836598962729525 -80.1654937338155 0.504348577053099 7.48999947377338 
! Gamma         0                0                0                0                
! Port Impedance         50               0                50               0                
6.3                            0.50587971694701 6.43096945437881 0.835681064650697 -81.2619689799776 0.835681064650697 -81.2619689799777 0.505883310583439 6.43676471531712 
! Gamma         0                0                0                0                
! Port Impedance         50               0                50               0                
6.4                            0.507234639720187 5.379613547928   0.834864538530304 -82.3566957737032 0.834864538530304 -82.3566957737032 0.50723844298155 5.38548259722356 
! Gamma         0                0                0                0                
! Port Impedance         50               0                50               0                
6.5                            0.508410752866322 4.32997667847973 0.834149633392923 -83.4499340902595 0.834149633392922 -83.4499340902596 0.508414769858885 4.33591817438265 
! Gamma         0                0                0                0                
! Port Impedance         50               0                50               0                
6.6                            0.509408734799883 3.28182440823538 0.833536523668487 -84.5419437052663 0.833536523668487 -84.5419437052664 0.509412969540227 3.28783696232952 
! Gamma         0                0                0                0                
! Port Impedance         50               0                50               0                
6.7                            0.510229146318028 2.23492295077826 0.833025310990187 -85.6329841416186 0.833025310990187 -85.6329841416187 0.510233602741846 2.24100512431032 
! Gamma         0                0                0                0                
! Port Impedance         50               0                50               0                
6.8                            0.510872430486041 1.18903934898071 0.832616025613608 -86.7233146180325 0.832616025613607 -86.7233146180326 0.510877112455815 1.1951896488163  
! Gamma         0                0                0                0                
! Port Impedance         50               0                50               0                
6.9                            0.511338912720581 0.143941646414082 0.832308627463808 -87.8131939981444 0.832308627463808 -87.8131939981444 0.511343824032013 0.150158520626237 
! Gamma         0                0                0                0                
! Port Impedance         50               0                50               0                
7                              0.511628801065124 -0.9006009448509 0.832103006816719 -88.9028807391153 0.832103006816719 -88.9028807391154 0.511633945452244 -0.894319111759385 
! Gamma         0                0                0                0                
! Port Impedance         50               0                50               0                
7.1                            0.511742186654778 -1.9448178772911 0.831998984620898 -89.9926328387154 0.831998984620897 -89.9926328387155 0.511747567793626 -1.93847276953338 
! Gamma         0                0                0                0                
! Port Impedance         50               0                50               0                
7.2                            0.51167904437023 -2.98893709916056 0.831996312465462 -91.0827077798724 0.831996312465461 -91.0827077798725 0.511684665881095 -2.98253047518588 
! Gamma         0                0                0                0                
! Port Impedance         50               0                50               0                
7.3                            0.511439233683211 -4.03318488130814 0.8320946721998  -92.1733624716777 0.832094672199799 -92.1733624716777 0.511445099131383 -4.02671857970662 
! Gamma         0                0                0                0                
! Port Impedance         50               0                50               0                
7.4                            0.511022499698257 -5.07778563703381 0.832293675210545 -93.2648531858507 0.832293675210546 -93.2648531858507 0.511028612593281 -5.07126158284092 
! Gamma         0                0                0                0                
! Port Impedance         50               0                50               0                
7.5                            0.510428474397993 -6.12296173245388 0.832592861361272 -94.3574354876562 0.832592861361271 -94.3574354876563 0.51043483819143 -6.1163819438741 
! Gamma         0                0                0                0                
! Port Impedance         50               0                50               0                
7.6                            0.509656678101426 -7.16893328484104 0.832991697600419 -95.4513641602737 0.832991697600419 -95.4513641602738 0.509663296183127 -7.16229988041524 
! Gamma         0                0                0                0                
! Port Impedance         50               0                50               0                
7.7                            0.508706521147023 -8.2159179463763 0.833489576243174 -96.5468931216074 0.833489576243174 -96.5468931216074 0.508713396839951 -8.20923315262278 
! Gamma         0                0                0                0                
! Port Impedance         50               0                50               0                
7.8                            0.507577305814547 -9.264130670696  0.83408581293331 -97.6442753325217 0.83408581293331 -97.6442753325217 0.507584442368163 -9.25739683026084 
! Gamma         0                0                0                0                
! Port Impedance         50               0                50               0                
7.9                            0.506268228501732 -10.313783459539 0.834779644291446 -98.74376269548  0.834779644291446 -98.7437626954801 0.506275629083985 -10.3070030398973 
! Gamma         0                0                0                0                
! Port Impedance         50               0                50               0                
8                              0.504778382174009 -11.3650850866933 0.835570225256819 -99.8456059425511 0.835570225256819 -99.8456059425511 0.504786049861977 -11.3582606894502 
! Gamma         0                0                0                0                
! Port Impedance         50               0                50               0                
8.1                            0.503106759107501 -12.4182407963086 0.836456626130381 -100.950054511747 0.836456626130381 -100.950054511747 0.503114696876704 -12.4113751671553 
! Gamma         0                0                0                0                
! Port Impedance         50               0                50               0                
8.2                            0.501252253947473 -13.4734519724785 0.837437829328041 -102.057356410644 0.837437829328041 -102.057356410644 0.50126046465992 -13.4665480118671 
! Gamma         0                0                0                0                
! Port Impedance         50               0                50               0                
8.3                            0.499213667106334 -14.5309157767993 0.838512725853983 -103.167758066234 0.838512725853983 -103.167758066234 0.499222153497327 -14.52397655141  
! Gamma         0                0                0                0                
! Port Impedance         50               0                50               0                
8.4                            0.496989708527104 -15.5908247503799 0.839680111505363 -104.28150415995 0.839680111505363 -104.28150415995 0.496998473190856 -15.5838535054617 
! Gamma         0                0                0                0                
! Port Impedance         50               0                50               0                
8.5                            0.494579001839983 -16.6533663765056 0.840938682821257 -105.398837446818 0.840938682821257 -105.398837446818 0.494588047214061 -16.6463665491854 
! Gamma         0                0                0                0                
! Port Impedance         50               0                50               0                
8.6                            0.491980088941268 -17.7187225998355 0.842287032790559 -106.519998557684 0.842287032790559 -106.519998557684 0.491989417289914 -17.7116978335011 
! Gamma         0                0                0                0                
! Port Impedance         50               0                50               0                
8.7                            0.489191435025348 -18.7870692976439 0.843723646335569 -107.645225783471 0.84372364633557 -107.645225783471 0.489201048421686 -18.7800234575208 
! Gamma         0                0                0                0                
! Port Impedance         50               0                50               0                
8.8                            0.486211434101832 -19.8585756981774 0.845246895590358 -108.77475484047 0.845246895590358 -108.77475484047 0.486221334408988 -19.8515128882361 
! Gamma         0                0                0                0                
! Port Impedance         50               0                50               0                
8.9                            0.483038415030986 -20.933403740695 0.846855034995535 -109.908818615639 0.846855034995535 -109.908818615639 0.483048603882125 -20.9263283220416 
! Gamma         0                0                0                0                
! Port Impedance         50               0                50               0                
9                              0.479670648111572 -22.0117073711621 0.84854619623397 -111.047646890989 0.848546196233971 -111.047646890989 0.479681126888852 -22.0046239820892 
! Gamma         0                0                0                0                
! Port Impedance         50               0                50               0                
9.1                            0.476106352255854 -23.0936317668808 0.850318383035089 -112.191466046117 0.85031838303509 -112.191466046117 0.476117122068287 -23.0865453447754 
! Gamma         0                0                0                0                
! Port Impedance         50               0                50               0                
9.2                            0.472343702786864 -24.1793124825181 0.85216946587884 -113.340498738045 0.852169465878841 -113.340498738044 0.472354764447053 -24.1722282878532 
! Gamma         0                0                0                0                
! Port Impedance         50               0                50               0                
9.3                            0.468380839893071 -25.2688745090393 0.854097176634094 -114.494963557577 0.854097176634095 -114.494963557576 0.468392193892789 -25.2617981517074 
! Gamma         0                0                0                0                
! Port Impedance         50               0                50               0                
9.4                            0.464215877775209 -26.3624312359177 0.856099103170205 -115.655074661487 0.856099103170205 -115.655074661487 0.464227524259755 -26.3553687042002 
! Gamma         0                0                0                0                
! Port Impedance         50               0                50               0                
9.5                            0.459846914519216 -27.4600833056476 0.858172683984695 -116.821041379931 0.858172683984696 -116.821041379931 0.459858853260474 -27.4530409981563 
! Gamma         0                0                0                0                
! Port Impedance         50               0                50               0                
9.6                            0.455272042727962 -28.5619173479831 0.86031520289448 -117.993067798621 0.86031520289448 -117.993067798621 0.455284273096057 -28.554902108962 
! Gamma         0                0                0                0                
! Port Impedance         50               0                50               0                
9.7                            0.450489360942584 -29.6680045794129 0.862523783842697 -119.171352315424 0.862523783842698 -119.171352315424 0.450501881876012 -29.6610237378434 
! Gamma         0                0                0                0                
! Port Impedance         50               0                50               0                
9.8                            0.44549698588187 -30.7783992510726 0.864795385878056 -120.356087171217 0.864795385878057 -120.356087171217 0.445509795855931 -30.7714606640969 
! Gamma         0                0                0                0                
! Port Impedance         50               0                50               0                
9.9                            0.440293065525051 -31.8931369255293 0.867126798368568 -121.547457955018 0.867126798368571 -121.547457955018 0.440306162518392 -31.8862490267848 
! Gamma         0                0                0                0                
! Port Impedance         50               0                50               0                
10                             0.434875793059657 -33.012232559499 0.869514636516565 -122.745643083608 0.869514636516568 -122.745643083608 0.434889174518685 -33.0054044130536 
! Gamma         0                0                0                0                
! Port Impedance         50               0                50               0                
10.1                           0.42924342171165 -34.1356783654792 0.871955337246898 -123.950813256104 0.871955337246898 -123.950813256104 0.429257084512517 -34.1289197261678 
! Gamma         0                0                0                0                
! Port Impedance         50               0                50               0                
10.2                           0.423394280469911 -35.2634414202701 0.874445155545194 -125.163130884201 0.874445155545194 -125.163130884201 0.423408220877718 -35.2567628013717 
! Gamma         0                0                0                0                
! Port Impedance         50               0                50               0                
10.3                           0.417326790711235 -36.3954609822371 0.876980161327797 -126.382749499084 0.876980161327799 -126.382749499084 0.417341004336024 -36.3888737315885 
! Gamma         0                0                0                0                
! Port Impedance         50               0                50               0                
10.4                           0.411039483725435 -37.5316454715986 0.879556236929492 -127.609813136319 0.879556236929493 -127.609813136319 0.411053965474457 -37.5251618574375 
! Gamma         0                0                0                0                
! Port Impedance         50               0                50               0                
10.5                           0.404531019132843 -38.6718690586763 0.882169075299187 -128.844455700385 0.882169075299189 -128.844455700385 0.404545763158493 -38.665502366738 
! Gamma         0                0                0                0                
! Port Impedance         50               0                50               0                
10.6                           0.397800204178724 -39.8159677933955 0.884814178997334 -130.086800310844 0.884814178997337 -130.086800310843 0.397815203821379 -39.8097324370721 
! Gamma         0                0                0                0                
! Port Impedance         50               0                50               0                
10.7                           0.390846013880812 -40.9637351947711 0.887486860091624 -131.336958632582 0.887486860091625 -131.336958632583 0.39086126160569 -40.9576468404856 
! Gamma         0                0                0                0                
! Port Impedance         50               0                50               0                
10.8                           0.383667611997682 -42.1149172008372 0.890182241049593 -132.595030192913 0.890182241049595 -132.595030192913 0.383683099324648 -42.1089929112054 
! Gamma         0                0                0                0                
! Port Impedance         50               0                50               0                
10.9                           0.376264372777284 -43.2692063563652 0.892895256727767 -133.86110168879 0.892895256727767 -133.861101688791 0.376280090202263 -43.2634647542419 
! Gamma         0                0                0                0                
! Port Impedance         50               0                50               0                
11                             0.368635903436891 -44.4262350863975 0.895620657556738 -135.135246287835 0.895620657556741 -135.135246287835 0.368651840343343 -44.4206965435331 
! Gamma         0                0                0                0                
! Port Impedance         50               0                50               0                
11.1                           0.360782067318798 -45.5855678661136 0.898353014020148 -136.4175229273  0.898353014020149 -136.4175229273  0.360798211877274 -45.580254720959 
! Gamma         0                0                0                0                
! Port Impedance         50               0                50               0                
11.2                           0.352703007660704 -46.7466920493654 0.901086722522314 -137.707975615602 0.901086722522317 -137.707975615602 0.352719346714155 -46.741628859545 
! Gamma         0                0                0                0                
! Port Impedance         50               0                50               0                
11.3                           0.344399171917141 -47.9090070558184 0.903816012734608 -139.006632741468 0.903816012734612 -139.006632741468 0.344415690849025 -47.9042208920566 
! Gamma         0                0                0                0                
! Port Impedance         50               0                50               0                
11.4                           0.335871336569461 -49.0718115353306 0.906534956503895 -140.313506396233 0.906534956503895 -140.313506396234 0.335888019151075 -49.0673323252014 
! Gamma         0                0                0                0                
! Port Impedance         50               0                50               0                
11.5                           0.327120632368932 -50.2342880213935 0.909237478397697 -141.628591715233 0.909237478397698 -141.628591715233 0.327137460581457 -50.2301489532929 
! Gamma         0                0                0                0                
! Port Impedance         50               0                50               0                
11.6                           0.318148569972268 -51.3954844440761 0.911917367949943 -142.951866244665 0.911917367949944 -142.951866244666 0.318165523797927 -51.391722444425 
! Gamma         0                0                0                0                
! Port Impedance         50               0                50               0                
11.7                           0.308957065955152 -52.554291684079 0.914568293657966 -144.283289340658 0.914568293657966 -144.283289340658 0.308974123130368 -52.5509479841467 
! Gamma         0                0                0                0                
! Port Impedance         50               0                50               0                
11.8                           0.299548469230948 -53.7094160950243 0.917183818766169 -145.622801607602 0.917183818766169 -145.622801607603 0.299565604952512 -53.7065369081746 
! Gamma         0                0                0                0                
! Port Impedance         50               0                50               0                
11.9                           0.289925587965645 -54.8593455746632 0.919757418854016 -146.970324383092 0.919757418854016 -146.970324383092 0.289942774538317 -54.8569829106542 
! Gamma         0                0                0                0                
! Port Impedance         50               0                50               0                
12                             0.280091717174663 -56.0023072890727 0.922282501226104 -148.325759276994 0.922282501226106 -148.325759276994 0.28010892358525 -56.0005199397889 
! Gamma         0                0                0                0                
! Port Impedance         50               0                50               0                
12.1                           0.270050667326052 -57.1362144906088 0.924752426080037 -149.688987772296 0.924752426080038 -149.688987772296 0.270067858724445 -57.1350692320227 
! Gamma         0                0                0                0                
! Port Impedance         50               0                50               0                
12.2                           0.259806794477088 -58.2585989358113 0.927160529403745 -151.059870895399 0.927160529403746 -151.059870895399 0.259823931538448 -58.258172005137 
! Gamma         0                0                0                0                
! Port Impedance         50               0                50               0                
12.3                           0.249365032766791 -59.3665240750396 0.929500147528245 -152.438248963448 0.929500147528242 -152.438248963449 0.249382070900433 -59.366903001508 
! Gamma         0                0                0                0                
! Port Impedance         50               0                50               0                
12.4                           0.23873093052121 -60.4564722525209 0.93176464323463 -153.823941416078 0.931764643234629 -153.823941416078 0.238747818879642 -60.4577581473011 
! Gamma         0                0                0                0                
! Port Impedance         50               0                50               0                
12.5                           0.227910691872434 -61.5241963110983 0.933947433286083 -155.216746738657 0.933947433286086 -155.216746738656 0.227927372096753 -61.5265067601024 
! Gamma         0                0                0                0                
! Port Impedance         50               0                50               0                
12.6                           0.216911226761397 -62.5645217388008 0.936042017227044 -156.616442483644 0.936042017227041 -156.616442483644 0.216927631374357 -62.5679944967683 
! Gamma         0                0                0                0                
! Port Impedance         50               0                50               0                
12.7                           0.205740213676715 -63.5710790035947 0.938042007263144 -158.022785396122 0.938042007263142 -158.022785396122 0.205756263998313 -63.5758767672048 
! Gamma         0                0                0                0                
! Port Impedance         50               0                50               0                
12.8                           0.194406181794212 -64.5359356237331 0.939941159007693 -159.435511648806 0.939941159007695 -159.435511648806 0.194421785199849 -64.5422522786055 
! Gamma         0                0                0                0                
! Port Impedance         50               0                50               0                
12.9                           0.182918622871592 -65.4490814548562 0.941733402853829 -160.854337191034 0.941733402853826 -160.854337191034 0.18293366912947 -65.4571503670643 
! Gamma         0                0                0                0                
! Port Impedance         50               0                50               0                
13                             0.17128814929219 -66.2976944818178 0.94341287570686 -162.278958215227 0.943412875706857 -162.278958215227 0.171302505586091 -66.3077996731478 
! Gamma         0                0                0                0                
! Port Impedance         50               0                50               0                
13.1                           0.159526724822792 -67.0650705288925 0.944973952789623 -163.709051743222 0.94497395278962 -163.709051743222 0.159540228857552 -67.0775619932509 
! Gamma         0                0                0                0                
! Port Impedance         50               0                50               0                
13.2                           0.14764801233524 -67.7290245743406 0.94641127921489 -165.144276333679 0.946411279214889 -165.144276333679 0.147660462578561 -67.7443396558337 
! Gamma         0                0                0                0                
! Port Impedance         50               0                50               0                
13.3                           0.135667914610342 -68.259436219582 0.947719801004759 -166.584272910437 0.947719801004753 -166.584272910438 0.13567905614209 -68.2781300424118 
! Gamma         0                0                0                0                
! Port Impedance         50               0                50               0                
13.4                           0.12360544413612 -68.6143616049359 0.948894795226926 -168.028665710359 0.948894795226922 -168.028665710359 0.123614947555078 -68.6371512923608 
! Gamma         0                0                0                0                
! Port Impedance         50               0                50               0                
13.5                           0.111484175238438 -68.7336511214206 0.949931898913464 -169.477063347716 0.949931898913456 -169.477063347717 0.11149160422223 -68.7614813976317 
! Gamma         0                0                0                0                
! Port Impedance         50               0                50               0                
13.6                           0.0993347747801356 -68.5280370140966 0.950827136428536 -170.929059990766 0.950827136428535 -170.929059990766 0.0993395343949294 -68.5621793190973 
! Gamma         0                0                0                0                
! Port Impedance         50               0                50               0                
13.7                           0.0871996406786293 -67.8595868328734 0.951576944958813 -172.384236644668 0.951576944958808 -172.384236644668 0.0872008916803761 -67.9017904375503 
! Gamma         0                0                0                0                
! Port Impedance         50               0                50               0                
13.8                           0.0751419278506518 -66.5048105948516 0.952178197813175 -173.842162533477 0.952178197813169 -173.842162533477 0.0751384383823089 -66.5575285989369 
! Gamma         0                0                0                0                
! Port Impedance         50               0                50               0                
13.9                           0.0632643967828614 -64.0810212064395 0.952628225237723 -175.302396572578 0.952628225237714 -175.302396572578 0.0632542749719915 -64.1477104503819 
! Gamma         0                0                0                0                
! Port Impedance         50               0                50               0                
14                             0.0517520778242272 -59.8918472970787 0.952924832477165 -176.764488921607 0.952924832477163 -176.764488921607 0.0517322792861524 -59.9771426931301 
! Gamma         0                0                0                0                
! Port Impedance         50               0                50               0                
14.1                           0.0409768832767402 -52.6017975516132 0.953066314844332 -178.227982606787 0.95306631484433 -178.227982606787 0.0409423679449341 -52.7102167403622 
! Gamma         0                0                0                0                
! Port Impedance         50               0                50               0                
14.2                           0.0317612965962441 -39.6977751249915 0.953051469595317 -179.692415200517 0.953051469595314 -179.692415200517 0.031704340099378 -39.8241932692385 
! Gamma         0                0                0                0                
! Port Impedance         50               0                50               0                
14.3                           0.0258840882299112 -18.01794915734  0.952879604448098 178.842679454778 0.952879604448092 178.842679454778 0.0257987793770692 -18.1144111881219 
! Gamma         0                0                0                0                
! Port Impedance         50               0                50               0                
14.4                           0.0257712347758748 9.49991194207498 0.952550542625969 177.377769492197 0.952550542625969 177.377769492197 0.0256699863975868 9.51032948327971 
! Gamma         0                0                0                0                
! Port Impedance         50               0                50               0                
14.5                           0.0314875418507152 31.5095920568887 0.9520646243538  175.913323249491 0.952064624353793 175.913323249491 0.031391947241582 31.5973330367958 
! Gamma         0                0                0                0                
! Port Impedance         50               0                50               0                
14.6                           0.0406303725783407 44.6781913519081 0.951422704782944 174.449807496147 0.951422704782942 174.449807496147 0.0405464207778092 44.7845236036562 
! Gamma         0                0                0                0                
! Port Impedance         50               0                50               0                
14.7                           0.0513800469667777 52.1182156763028 0.950626148369641 172.987685672902 0.950626148369642 172.987685672902 0.0513058551900306 52.2215048137786 
! Gamma         0                0                0                0                
! Port Impedance         50               0                50               0                
14.8                           0.0628899966403383 56.3921608311504 0.949676819779519 171.527416157924 0.949676819779513 171.527416157923 0.0628230219947164 56.4878527402335 
! Gamma         0                0                0                0                
! Port Impedance         50               0                50               0                
14.9                           0.074778330862223 58.8674625028727 0.948577071437485 170.069450573528 0.948577071437486 170.069450573529 0.0747166802549284 58.9556193548063 
! Gamma         0                0                0                0                
! Port Impedance         50               0                50               0                
15                             0.0868558505663942 60.2562665337716 0.947329727886606 168.614232146688 0.947329727886611 168.614232146688 0.0867982233650156 60.3379330328345 
! Gamma         0                0                0                0                
! Port Impedance         50               0                50               0                
15.1                           0.0990179413417842 60.9490778358128 0.94593806715935 167.16219413575  0.945938067159355 167.16219413575  0.0989634414775346 61.0253501601796 
! Gamma         0                0                0                0                
! Port Impedance         50               0                50               0                
15.2                           0.11120058820834 61.1734684993952 0.944405799401234 165.713758334864 0.944405799401243 165.713758334864 0.111148584745217 61.2452856541918 
! Gamma         0                0                0                0                
! Port Impedance         50               0                50               0                
15.3                           0.123360999643597 61.0696276919037 0.942737043017681 164.269333666428 0.942737043017683 164.269333666428 0.123311037204507 61.1377520291501 
! Gamma         0                0                0                0                
! Port Impedance         50               0                50               0                
15.4                           0.135468353007441 60.7281367734257 0.940936298640217 162.829314870663 0.94093629864023 162.829314870663 0.135420095231744 60.7931793164095 
! Gamma         0                0                0                0                
! Port Impedance         50               0                50               0                
15.5                           0.147499048450908 60.2099442808006 0.939008421228102 161.394081300043 0.939008421228108 161.394081300043 0.147452241777908 60.2723956084612 
! Gamma         0                0                0                0                
! Port Impedance         50               0                50               0                
15.6                           0.159434123556179 59.5574978890334 0.936958590634241 159.963995824905 0.93695859063425 159.963995824906 0.159388573470889 59.6177548066904 
! Gamma         0                0                0                0                
! Port Impedance         50               0                50               0                
15.7                           0.17125777132987 58.8012450592938 0.934792280972202 158.539403855122 0.934792280972212 158.539403855122 0.171213326380791 58.8596315997869 
! Gamma         0                0                0                0                
! Port Impedance         50               0                50               0                
15.8                           0.182956452876046 57.9635879043347 0.932515229121877 157.120632481228 0.932515229121883 157.120632481227 0.182912993654108 58.0203713680652 
! Gamma         0                0                0                0                
! Port Impedance         50               0                50               0                
15.9                           0.194518345565855 57.0613769625056 0.930133402707264 155.707989736994 0.930133402707274 155.707989736994 0.194475776928699 57.1167800727404 
! Gamma         0                0                0                0                
! Port Impedance         50               0                50               0                
16                             0.205932987896775 56.1075337952919 0.927652967869917 154.301763984005 0.927652967869927 154.301763984005 0.205891233366858 56.161743927271  
! Gamma         0                0                0                0                
! Port Impedance         50               0                50               0                
16.1                           0.217191043422256 55.1121363285187 0.925080257147364 152.902223417493 0.925080257147362 152.902223417492 0.217150041073869 55.1653125617066 
! Gamma         0                0                0                0                
! Port Impedance         50               0                50               0                
16.2                           0.228284138693987 54.083162816562  0.922421737747115 151.509615691435 0.922421737747117 151.509615691435 0.228243838081299 54.1354413690312 
! Gamma         0                0                0                0                
! Port Impedance         50               0                50               0                
16.3                           0.239204748201916 53.0270130501774 0.919683980484903 150.124167659789 0.919683980484909 150.124167659789 0.239165108028987 53.0785115051013 
! Gamma         0                0                0                0                
! Port Impedance         50               0                50               0                
16.4                           0.249946109660333 51.9488807176313 0.91687362963089 148.746085229707 0.916873629630892 148.746085229706 0.249907095989204 51.9997013414608 
! Gamma         0                0                0                0                
! Port Impedance         50               0                50               0                
16.5                           0.260502159133814 50.8530241632943 0.913997373881006 147.375553321704 0.913997373880997 147.375553321703 0.260463743989396 50.9032565350919 
! Gamma         0                0                0                0                
! Port Impedance         50               0                50               0                
16.6                           0.27086747924645 49.7429664469215 0.911061918641935 146.012735930975 0.911061918641946 146.012735930975 0.270829639518342 49.7926895606238 
! Gamma         0                0                0                0                
! Port Impedance         50               0                50               0                
16.7                           0.281037256064398 48.621645343828  0.908073959790083 144.657776283438 0.908073959790088 144.657776283438 0.280999972634253 48.6709293035687 
! Gamma         0                0                0                0                
! Port Impedance         50               0                50               0                
16.8                           0.291007241744022 47.4915273349675 0.905040159034969 143.310797079583 0.905040159034978 143.310797079583 0.290970498786447 47.5404347334366 
! Gamma         0                0                0                0                
! Port Impedance         50               0                50               0                
16.9                           0.300773721018001 46.3546953159551 0.901967120990191 141.971900818866 0.901967120990192 141.971900818866 0.300737505436743 46.4032823637653 
! Gamma         0                0                0                0                
! Port Impedance         50               0                50               0                
17                             0.310333480242896 45.2129168695106 0.898861372026598 140.641170197119 0.898861372026606 140.641170197118 0.310297781213794 45.2612343273616 
! Gamma         0                0                0                0                
! Port Impedance         50               0                50               0                
17.1                           0.319683778169167 44.0676979866553 0.895729340956953 139.318668569342 0.895729340956961 139.318668569342 0.319648586768339 44.1157919401027 
! Gamma         0                0                0                0                
! Port Impedance         50               0                50               0                
17.2                           0.328822317892556 42.9203257702638 0.892577341576796 138.004440470245 0.892577341576797 138.004440470245 0.328787626793438 42.9682382779305 
! Gamma         0                0                0                0                
! Port Impedance         50               0                50               0                
17.3                           0.337747219648968 41.7719027084333 0.889411557063881 136.698512184948 0.889411557063881 136.698512184948 0.337713022875593 41.8196723477504 
! Gamma         0                0                0                0                
! Port Impedance         50               0                50               0                
17.4                           0.346456994254538 40.6233744339104 0.886238026218562 135.400892362457 0.886238026218562 135.400892362457 0.346423286981241 40.6710367633411 
! Gamma         0                0                0                0                
! Port Impedance         50               0                50               0                
17.5                           0.35495051708763 39.4755524037185 0.883062631509476 134.111572664746 0.883062631509475 134.111572664746 0.354917295477491 39.5231403564885 
! Gamma         0                0                0                0                
! Port Impedance         50               0                50               0                
17.6                           0.363227002573374 38.3291325828951 0.879891088873745 132.830528444588 0.879891088873751 132.830528444588 0.36319426364936 38.3766768042154 
! Gamma         0                0                0                0                
! Port Impedance         50               0                50               0                
17.7                           0.371285979173631 37.1847109590182 0.876728939207162 131.557719445621 0.876728939207168 131.557719445621 0.371253720717536 37.232240096439  
! Gamma         0                0                0                0                
! Port Impedance         50               0                50               0                
17.8                           0.379127264911621 36.0427965234607 0.873581541469918 130.293090518535 0.873581541469913 130.293090518536 0.379095485387029 36.0903374781308 
! Gamma         0                0                0                0                
! Port Impedance         50               0                50               0                
17.9                           0.386750943476091 34.9038222124876 0.870454067323729 129.036572347663 0.870454067323727 129.036572347663 0.386719641972109 34.9514003576628 
! Gamma         0                0                0                0                
! Port Impedance         50               0                50               0                
18                             0.394157340957234 33.7681541935056 0.867351497210659 127.78808218272  0.867351497210663 127.788082182721 0.394126517150581 33.8157935654717 
! Gamma         0                0                0                0                
! Port Impedance         50               0                50               0                
18.1                           0.40134700326891 32.6360997996643 0.864278617778535 126.547524570864 0.864278617778542 126.547524570864 0.401316657402174 32.6838232653391 
! Gamma         0                0                0                0                
! Port Impedance         50               0                50               0                
18.2                           0.408320674309583 31.5079143530832 0.861240020555517 125.31479208469  0.861240020555506 125.31479208469  0.408290807184009 31.5557437578127 
! Gamma         0                0                0                0                
! Port Impedance         50               0                50               0                
18.3                           0.415079274910358 30.38380706831   0.858240101774709 124.089766042238 0.858240101774714 124.089766042239 0.415049887891731 30.4317633667786 
! Gamma         0                0                0                0                
! Port Impedance         50               0                50               0                
18.4                           0.42162388261225 29.2639461898212 0.855283063250266 122.872317215498 0.855283063250262 122.872317215499 0.421594977648726 29.3120495625146 
! Gamma         0                0                0                0                
! Port Impedance         50               0                50               0                
18.5                           0.427955712308102 28.1484634877538 0.852372914207183 121.662306524326 0.852372914207202 121.662306524327 0.427927291958996 28.1967334450177 
! Gamma         0                0                0                0                
! Port Impedance         50               0                50               0                
18.6                           0.434076097777013 27.0374582127774 0.849513473969921 120.459585713069 0.849513473969927 120.459585713071 0.434048165251769 27.0859136881883 
! Gamma         0                0                0                0                
! Port Impedance         50               0                50               0                
18.7                           0.439986474131949 25.9310005925423 0.846708375417778 119.263998007589 0.846708375417783 119.26399800759  0.439959033338594 25.9796600270446 
! Gamma         0                0                0                0                
! Port Impedance         50               0                50               0                
18.8                           0.445688361193847 24.8291349374756 0.843961069119163 118.075378750682 0.843961069119175 118.075378750684 0.445661416796381 24.8780163555163 
! Gamma         0                0                0                0                
! Port Impedance         50               0                50               0                
18.9                           0.451183347798906 23.7318824119314 0.841274828061178 116.893556014264 0.841274828061184 116.893556014266 0.451156905283165 23.7810034906395 
! Gamma         0                0                0                0                
! Port Impedance         50               0                50               0                
19                             0.45647307703946 22.6392435172638 0.838652752895845 115.71835118692  0.838652752895858 115.718351186922 0.456447142787045 22.688621649571  
! Gamma         0                0                0                0                
! Port Impedance         50               0                50               0                
19.1                           0.461559232433278 21.5512003257506 0.83609777762962 114.549579535738 0.836097777629633 114.549579535739 0.461533813803236 21.600852678219  
! Gamma         0                0                0                0                
! Port Impedance         50               0                50               0                
19.2                           0.466443525011195 20.467718498107  0.833612675687794 113.387050741532 0.833612675687808 113.387050741534 0.466418630429173 20.517662064123  
! Gamma         0                0                0                0                
! Port Impedance         50               0                50               0                
19.3                           0.471127681308766 19.3887491122674 0.831200066291258 112.230569406805 0.83120006629127 112.230569406806 0.471103320363398 19.4390007611704 
! Gamma         0                0                0                0                
! Port Impedance         50               0                50               0                
19.4                           0.47561343224402 18.3142303269857 0.828862421088041 111.079935535935 0.828862421088061 111.079935535937 0.475589615790373 18.3648068496197 
! Gamma         0                0                0                0                
! Port Impedance         50               0                50               0                
19.5                           0.479902502860565 17.2440889003887 0.826602070987515 109.934944987276 0.826602070987534 109.934944987277 0.479879243130446 17.2950070515024 
! Gamma         0                0                0                0                
! Port Impedance         50               0                50               0                
19.6                           0.483996602912901 16.1782415808131 0.824421213150413 108.795389896929 0.824421213150434 108.79538989693  0.483973913631915 16.2295181186764 
! Gamma         0                0                0                0                
! Port Impedance         50               0                50               0                
19.7                           0.487897418269204 15.1165963849138 0.822321918092463 107.661059074099 0.822321918092474 107.6610590741   0.487875314780402 15.1682481084679 
! Gamma         0                0                0                0                
! Port Impedance         50               0                50               0                
19.8                           0.491606603105553 14.0590537760876 0.820306136864383 106.531738367987 0.820306136864388 106.531738367988 0.491585102499573 14.1110975599082 
! Gamma         0                0                0                0                
! Port Impedance         50               0                50               0                
19.9                           0.495125772864971 13.0055077546224 0.818375708275285 105.407211006269 0.818375708275288 105.407211006269 0.495104894116545 13.0579605819352 
! Gamma         0                0                0                0                
! Port Impedance         50               0                50               0                
20                             0.498456497954318 11.9558468696109 0.816532366130724 104.287257905204 0.816532366130724 104.287257905204 0.498436262065039 12.0087258635705 
! Gamma         -0               -0               -0               -0               
! Port Impedance         50               0                50               0                
