! Touchstone file exported from HFSS 2026.1.0
!        File:           C:/ffzhzh/LocalFiles/Ansys_Project_Files/temp_train_TSV_431_1783021163_51716.aedt
!        Generated:      03:40:56 AM Jul  3, 2026
!        Design:         TSV
!        Project:        temp_train_TSV_431_1783021163_51716
!
! Variables:
!        h_bsmrdl = 2um
!        h_ox = 20um
!        h_rdl = 5um
!        h_sub = 64.8um
!        h_tmrdl = 5um
!        h_tsv = 64.8um
!        h_via = 3um
!        l_bsmrdl = 300um
!        l_sub = 424.02um
!        l_tmrdl = 200um
!        m_sub = 200um
!        pitch = 31.38um
!        r_tsv = 12.01um
!        s_tmrdl = 10um
!        w_bsmrdl = 18um
!        w_sub = 500um
!        w_tmrdl = 12um
!        x_tsv_center1 = 206um
!        x_tsv_center2 = 524um
!        x_tsv_center3 = 736um
!        x_tsv_center4 = 1054um
!        x_tsv_center5 = 1266um
!        x_tsv_center6 = 1584um
!
# GHz S MA R 50.000000
! Terminal data exported
! Port[1] = TSV1_1_T1
! Port[2] = TSV1_1_T2
0.1                            0.000291574898921583 -71.280556600439 0.999906199274895 -0.0386202472294285 0.999906199274899 -0.0386202472297358 0.00029157497374326 -71.2805431074879 
! Gamma         0                0                0                0                
! Port Impedance         50               0                50               0                
0.2                            0.000566920783009939 -79.0086126897421 0.999891113264524 -0.0770042137511079 0.999891113264524 -0.0770042137516197 0.000566920743076437 -79.00860043273  
! Gamma         0                0                0                0                
! Port Impedance         50               0                50               0                
0.3                            0.000853658920225262 -81.3161381988476 0.999869258013306 -0.114995564029783 0.999869258013302 -0.114995564030351 0.000853658603513508 -81.3161118745076 
! Gamma         0                0                0                0                
! Port Impedance         50               0                50               0                
0.4                            0.00114916840212158 -82.3725615663987 0.999843995454462 -0.152546939083247 0.999843995454453 -0.152546939083741 0.00114916773443522 -82.372511754839 
! Gamma         0                0                0                0                
! Port Impedance         50               0                50               0                
0.5                            0.0014519176966478 -83.0290067483018 0.999818098754517 -0.189696072556034 0.999818098754505 -0.189696072556376 0.00145191672839742 -83.0289294900316 
! Gamma         0                0                0                0                
! Port Impedance         50               0                50               0                
0.6                            0.00176018038428699 -83.5356518637167 0.999793347534162 -0.22652221317331 0.999793347534148 -0.226522213173475 0.00176017925339077 -83.5355472799357 
! Gamma         0                0                0                0                
! Port Impedance         50               0                50               0                
0.7                            0.00207233802017584 -83.9742621776873 0.999770620910346 -0.26311110484277 0.999770620910333 -0.263111104842766 0.00207233689780274 -83.9741325747063 
! Gamma         0                0                0                0                
! Port Impedance         50               0                50               0                
0.8                            0.00238708769121983 -84.3718398790408 0.999750178795422 -0.299536702019644 0.999750178795409 -0.299536702019497 0.00238708674212259 -84.3716882879447 
! Gamma         0                0                0                0                
! Port Impedance         50               0                50               0                
0.9                            0.00270347673022331 -84.7372723865341 0.999731930508252 -0.335855644922467 0.999731930508239 -0.335855644922207 0.00270347609311082 -84.737101741485 
! Gamma         0                0                0                0                
! Port Impedance         50               0                50               0                
1                              0.00302085066498995 -85.0738780183705 0.99971562314651 -0.372108298907127 0.999715623146499 -0.372108298906785 0.00302085044716722 -85.0736908093407 
! Gamma         0                0                0                0                
! Port Impedance         50               0                50               0                
1.1                            0.00333877920428951 -85.3835951685984 0.99970095271428 -0.408322071170092 0.999700952714271 -0.408322071169695 0.00333877948375187 -85.3833933606666 
! Gamma         0                0                0                0                
! Port Impedance         50               0                50               0                
1.2                            0.003656989495421 -85.6682286341013 0.999687621326732 -0.444514889538947 0.999687621326724 -0.444514889538514 0.00365699032579411 -85.6680137082516 
! Gamma         0                0                0                0                
! Port Impedance         50               0                50               0                
1.3                            0.00397531486982613 -85.9297050761266 0.999675362266518 -0.480698077777069 0.999675362266511 -0.480698077776619 0.00397531628572931 -85.9294781115332 
! Gamma         0                0                0                0                
! Port Impedance         50               0                50               0                
1.4                            0.00429365843296567 -86.170036527726 0.999663947820554 -0.516878497226658 0.999663947820548 -0.516878497226202 0.00429366045477307 -86.1697982879761 
! Gamma         0                0                0                0                
! Port Impedance         50               0                50               0                
1.5                            0.00461196826610991 -86.391229121377 0.999653188776656 -0.553060057324103 0.999653188776651 -0.55306005732365 0.00461197090381153 -86.3909801299797 
! Gamma         0                0                0                0                
! Port Impedance         50               0                50               0                
1.6                            0.00493022093520059 -86.5952071312837 0.999642930413613 -0.589244748653522 0.99964293041361 -0.58924474865308 0.00493022419138734 -86.594947732683 
! Gamma         0                0                0                0                
! Port Impedance         50               0                50               0                
1.7                            0.00524841067681491 -86.7837652901997 0.999633047431478 -0.62543333675302 0.999633047431475 -0.625433336752593 0.00524841454892557 -86.7834956970361 
! Gamma         0                0                0                0                
! Port Impedance         50               0                50               0                
1.8                            0.00556654236972043 -86.9585452903436 0.999623438962061 -0.661625822867539 0.999623438962059 -0.661625822867131 0.00556654685170805 -86.9582656192114 
! Gamma         0                0                0                0                
! Port Impedance         50               0                50               0                
1.9                            0.00588462699780874 -87.1210291404102 0.999614024123123 -0.69782174755496 0.999614024123121 -0.697821747554572 0.00588463208136654 -87.120739438552 
! Gamma         0                0                0                0                
! Port Impedance         50               0                50               0                
2                              0.00620267874174211 -87.2725429891873 0.999604738248617 -0.734020389401012 0.999604738248616 -0.734020389400647 0.00620268441720208 -87.2722432542767 
! Gamma         0                0                0                0                
! Port Impedance         50               0                50               0                
2.1                            0.00652071313204231 -87.4142667945423 0.999595529777155 -0.770220894094131 0.999595529777154 -0.770220894093788 0.00652071938903289 -87.4139569892902 
! Gamma         0                0                0                0                
! Port Impedance         50               0                50               0                
2.2                            0.00683874589297422 -87.5472467880487 0.999586357721707 -0.806422357387568 0.999586357721707 -0.806422357387248 0.00683875272090151 -87.5469268509672 
! Gamma         0                0                0                0                
! Port Impedance         50               0                50               0                
2.3                            0.00715679223558647 -87.6724088455707 0.999577189628023 -0.842623877571886 0.999577189628023 -0.842623877571589 0.0071567996239863 -87.6720786989017 
! Gamma         0                0                0                0                
! Port Impedance         50               0                50               0                
2.4                            0.00747486644235333 -87.7905716607902 0.999567999933063 -0.878824587814082 0.999567999933063 -0.878824587813807 0.00747487438114826 -87.7902312163437 
! Gamma         0                0                0                0                
! Port Impedance         50               0                50               0                
2.5                            0.00779298164054403 -87.9024591256597 0.999558768645968 -0.915023675229309 0.999558768645968 -0.915023675229055 0.00779299012023017 -87.9021082891094 
! Gamma         0                0                0                0                
! Port Impedance         50               0                50               0                
2.6                            0.00811114969702687 -88.008711636151 0.999549480286962 -0.951220391242305 0.999549480286962 -0.951220391242072 0.00811115870880843 -88.0083503101915 
! Gamma         0                0                0                0                
! Port Impedance         50               0                50               0                
2.7                            0.0084293811904167 -88.1098962294753 0.999540123031802 -0.987414056267496 0.999540123031803 -0.987414056267283 0.00842939072630119 -88.1095243161351 
! Gamma         0                0                0                0                
! Port Impedance         50               0                50               0                
2.8                            0.00874768543164548 -88.2065155661006 0.999530688019853 -1.02360406072352 0.999530688019854 -1.02360406072333 0.00874769548450911 -88.2061329684282 
! Gamma         0                0                0                0                
! Port Impedance         50               0                50               0                
2.9                            0.00906607051398843 -88.2990158269319 0.999521168792586 -1.05978986372445 0.999521168792587 -1.05978986372427 0.00906608107761841 -88.2986224502147 
! Gamma         0                0                0                0                
! Port Impedance         50               0                50               0                
3                              0.00938454338012596 -88.3877936226835 0.999511560836285 -1.09597099034103 0.999511560836286 -1.09597099034087 0.00938455444924501 -88.3873893753156 
! Gamma         0                0                0                0                
! Port Impedance         50               0                50               0                
3.1                            0.00970310989814195 -88.4732020212559 0.999501861208293 -1.13214702802547 0.999501861208294 -1.13214702802533 0.0097031214684187 -88.4727868153442 
! Gamma         0                0                0                0                
! Port Impedance         50               0                50               0                
3.2                            0.010021774941214 -88.55555579763  0.999492068230506 -1.1683176225922 0.999492068230507 -1.16831762259207 0.0100217870092622 -88.5551295494018 
! Gamma         0                0                0                0                
! Port Impedance         50               0                50               0                
3.3                            0.0103405424676411 -88.6351360041686 0.999482181237234 -1.20448247401241 0.999482181237236 -1.2044824740123 0.0103405550310096 -88.6346986342292 
! Gamma         0                0                0                0                
! Port Impedance         50               0                50               0                
3.4                            0.0106594155991041 -88.7121939501429 0.999472200367233 -1.2406413321897 0.999472200367233 -1.2406413321896 0.0106594286562599 -88.71174538362  
! Gamma         0                0                0                0                
! Port Impedance         50               0                50               0                
3.5                            0.0109783966958808 -88.7869546694431 0.999462126391773 -1.27679399282329 0.999462126391775 -1.2767939928232 0.0109784102461861 -88.7864948360453 
! Gamma         0                0                0                0                
! Port Impedance         50               0                50               0                
3.6                            0.0112974874282813 -88.85961994574  0.999451960572294 -1.3129402934247 0.999451960572295 -1.31294029342462 0.0112975014719653 -88.8591487797497 
! Gamma         0                0                0                0                
! Port Impedance         50               0                50               0                
3.7                            0.0116166888439258 -88.9303709553105 0.999441704542399 -1.34908010952652 0.9994417045424  -1.34908010952645 0.0116167033820534 -88.9298883955275 
! Gamma         0                0                0                0                
! Port Impedance         50               0                50               0                
3.8                            0.0119360014307176 -88.9993705795634 0.999431360210033 -1.3852133511038 0.999431360210034 -1.38521335110374 0.0119360164651542 -88.9988765692113 
! Gamma         0                0                0                0                
! Port Impedance         50               0                50               0                
3.9                            0.0122554251755134 -89.0667654320614 0.999420929676419 -1.4213399592167 0.99942092967642 -1.42133995921665 0.0122554407088877 -89.0662599186661 
! Gamma         0                0                0                0                
! Port Impedance         50               0                50               0                
4                              0.012574959618584 -89.1326876385089 0.999410415168988 -1.45745990287536 0.999410415168989 -1.45745990287531 0.0125749756542491 -89.1321705737567 
! Gamma         0                0                0                0                
! Port Impedance         50               0                50               0                
4.1                            0.0128946039040164 -89.1972564027079 0.999399818986025 -1.49357317612275 0.999399818986026 -1.49357317612271 0.012894620446009 -89.1967277422884 
! Gamma         0                0                0                0                
! Port Impedance         50               0                50               0                
4.2                            0.0132143568262403 -89.2605793867773 0.99938914345117 -1.52967979532858 0.999389143451171 -1.52967979532854 0.0132143738792397 -89.2600390902165 
! Gamma         0                0                0                0                
! Port Impedance         50               0                50               0                
4.3                            0.0135342168728773 -89.3227539299086 0.999378390876206 -1.56577979668505 0.999378390876207 -1.56577979668502 0.0135342344421632 -89.3222019603946 
! Gamma         0                0                0                0                
! Port Impedance         50               0                50               0                
4.4                            0.0138541822641199 -89.3838681264895 0.999367563530863 -1.60187323389478 0.999367563530864 -1.60187323389476 0.0138542003555305 -89.383304450695 
! Gamma         0                0                0                0                
! Port Impedance         50               0                50               0                
4.5                            0.0141742509888455 -89.4440017815019 0.999356663618539 -1.63796017604029 0.999356663618539 -1.63796017604027 0.0141742696087356 -89.4434263694041 
! Gamma         0                0                0                0                
! Port Impedance         50               0                50               0                
4.6                            0.0144944208376677 -89.5032272585997 0.999345693257038 -1.67404070562469 0.999345693257038 -1.67404070562468 0.0144944399928673 -89.5026400833017 
! Gamma         0                0                0                0                
! Port Impedance         50               0                50               0                
4.7                            0.0148146894331215 -89.5616102341527 0.999334654463562 -1.7101149167733 0.999334654463563 -1.71011491677329 0.014814709130895 -89.5610112717051 
! Gamma         0                0                0                0                
! Port Impedance         50               0                50               0                
4.8                            0.0151350542571702 -89.6192103687249 0.999323549143297 -1.74618291358604 0.999323549143297 -1.74618291358603 0.0151350745051765 -89.6185995979514 
! Gamma         0                0                0                0                
! Port Impedance         50               0                50               0                
4.9                            0.0154555126762144 -89.6760819059178 0.999312379081038 -1.782244808631  0.999312379081039 -1.782244808631  0.015455533482468 -89.6754593082435 
! Gamma         0                0                0                0                
! Port Impedance         50               0                50               0                
5                              0.0157760619637746 -89.7322742071836 0.9993011459354  -1.81830072156995 0.9993011459354  -1.81830072156995 0.0157760833366081 -89.7316397664686 
! Gamma         0                0                0                0                
! Port Impedance         50               0                50               0                
5.1                            0.0160966993210113 -89.7878322300913 0.999289851235176 -1.85435077790682 0.999289851235176 -1.85435077790682 0.0160967212690389 -89.7871859324688 
! Gamma         0                0                0                0                
! Port Impedance         50               0                50               0                
5.2                            0.0164174218952356 -89.8427969565575 0.99927849637753 -1.89039510785092 0.999278496377531 -1.89039510785092 0.0164174444273185 -89.8421387902775 
! Gamma         0                0                0                0                
! Port Impedance         50               0                50               0                
5.3                            0.0167382267965585 -89.8972057767285 0.9992670826277  -1.92643384528677 0.9992670826277  -1.92643384528678 0.0167382499217712 -89.8965357320076 
! Gamma         0                0                0                0                
! Port Impedance         50               0                50               0                
5.4                            0.0170591111128159 -89.9510928334856 0.999255611119961 -1.96246712684307 0.999255611119961 -1.96246712684307 0.0170591348404146 -89.9504109023625 
! Gamma         0                0                0                0                
! Port Impedance         50               0                50               0                
5.5                            0.0173800719229002 -90.0044893319301 0.999244082859641 -1.99849509105364 0.99924408285964 -1.99849509105364 0.0173800962622927 -90.0037955081277 
! Gamma         0                0                0                0                
! Port Impedance         50               0                50               0                
5.6                            0.0177011063086226 -90.0574238176776 0.999232498725968 -2.03451787760357 0.999232498725967 -2.03451787760358 0.0177011312693394 -90.0567180964708 
! Gamma         0                0                0                0                
! Port Impedance         50               0                50               0                
5.7                            0.0180222113652203 -90.1099224273281 0.999220859475618 -2.07053562665427 0.999220859475617 -2.07053562665428 0.0180222369568882 -90.1092048054187 
! Gamma         0                0                0                0                
! Port Impedance         50               0                50               0                
5.8                            0.0183433842106189 -90.1620091140843 0.999209165746791 -2.10654847824123 0.999209165746791 -2.10654847824124 0.0183434104429354 -90.1612795894814 
! Gamma         0                0                0                0                
! Port Impedance         50               0                50               0                
5.9                            0.0186646219935525 -90.2137058511403 0.999197418063717 -2.14255657173916 0.999197418063716 -2.14255657173916 0.0186646488762623 -90.2129644230479 
! Gamma         0                0                0                0                
! Port Impedance         50               0                50               0                
6                              0.0189859219006362 -90.2650328151662 0.99918561684147 -2.17856004538877 0.999185616841469 -2.17856004538878 0.0189859494435093 -90.2642794838761 
! Gamma         0                0                0                0                
! Port Impedance         50               0                50               0                
6.1                            0.0193072811624821 -90.3160085519463 0.999173762391012 -2.21455903588068 0.999173762391012 -2.21455903588069 0.0193073093752931 -90.3152433187377 
! Gamma         0                0                0                0                
! Port Impedance         50               0                50               0                
6.2                            0.0196286970589421 -90.3666501260023 0.999161854924384 -2.25055367799129 0.999161854924384 -2.2505536779913 0.0196287259514516 -90.3658729930467 
! Gamma         0                0                0                0                
! Port Impedance         50               0                50               0                
6.3                            0.0199501669235557 -90.4169732558273 0.999149894559976 -2.28654410426661 0.999149894559975 -2.28654410426662 0.019950196505493 -90.4161842260997 
! Gamma         0                0                0                0                
! Port Impedance         50               0                50               0                
6.4                            0.020271688147277 -90.4669924361826 0.999137881327832 -2.32253044474973 0.999137881327831 -2.32253044474973 0.0202717184283238 -90.466191513378 
! Gamma         0                0                0                0                
! Port Impedance         50               0                50               0                
6.5                            0.0205932581815465 -90.5167210487498 0.999125815174933 -2.35851282674819 0.999125815174932 -2.3585128267482 0.0205932891713224 -90.5159082372049 
! Gamma         0                0                0                0                
! Port Impedance         50               0                50               0                
6.6                            0.020914874540773 -90.5661714622955 0.999113695970423 -2.39449137463766 0.999113695970422 -2.39449137463767 0.0209149062488227 -90.5653467669158 
! Gamma         0                0                0                0                
! Port Impedance         50               0                50               0                
6.7                            0.0212365348042827 -90.6153551233813 0.999101523510745 -2.43046620969855 0.999101523510744 -2.43046620969856 0.0212365672400637 -90.6145185495733 
! Gamma         0                0                0                0                
! Port Impedance         50               0                50               0                
6.8                            0.0215582366177897 -90.664282638548 0.999089297524664 -2.46643744998257 0.999089297524663 -2.46643744998257 0.0215582697906615 -90.6634341921552 
! Gamma         0                0                0                0                
! Port Impedance         50               0                50               0                
6.9                            0.0218799776944377 -90.7129638488012 0.999077017678153 -2.50240521020626 0.999077017678152 -2.50240521020626 0.0218800116136526 -90.7121035360462 
! Gamma         0                0                0                0                
! Port Impedance         50               0                50               0                
7                              0.0222017558154596 -90.7614078971474 0.999064683579122 -2.5383696016689 0.999064683579121 -2.5383696016689 0.0222017904901539 -90.7605357245766 
! Gamma         0                0                0                0                
! Port Impedance         50               0                50               0                
7.1                            0.0225235688304955 -90.8096232898478 0.999052294781988 -2.57433073219233 0.999052294781987 -2.57433073219234 0.0225236042696822 -90.8087392642815 
! Gamma         0                0                0                0                
! Port Impedance         50               0                50               0                
7.2                            0.0228454146576107 -90.8576179519942 0.999039850792059 -2.61028870608039 0.999039850792059 -2.61028870608039 0.0228454508701728 -90.8567220804799 
! Gamma         0                0                0                0                
! Port Impedance         50               0                50               0                
7.3                            0.0231672912830456 -90.9053992779477 0.999027351069749 -2.64624362409585 0.999027351069749 -2.64624362409585 0.0231673282777306 -90.904491567717 
! Gamma         0                0                0                0                
! Port Impedance         50               0                50               0                
7.4                            0.0234891967607337 -90.9529741771296 0.999014795034591 -2.68219558345305 0.999014795034591 -2.68219558345305 0.0234892345461491 -90.952054635559 
! Gamma         0                0                0                0                
! Port Impedance         50               0                50               0                
7.5                            0.023811129211615 -91.0003491156049 0.999002182069071 -2.71814467782429 0.99900218206907 -2.71814467782429 0.0238111677962242 -90.9994177501795 
! Gamma         0                0                0                0                
! Port Impedance         50               0                50               0                
7.6                            0.0241330868227729 -91.0475301538542 0.99898951152227 -2.75409099735846 0.99898951152227 -2.75409099735846 0.0241331262148915 -91.0465869721348 
! Gamma         0                0                0                0                
! Port Impedance         50               0                50               0                
7.7                            0.0244550678464179 -91.0945229810949 0.998976782713317 -2.79003462871044 0.998976782713316 -2.79003462871044 0.0244551080542121 -91.0935679906874 
! Gamma         0                0                0                0                
! Port Impedance         50               0                50               0                
7.8                            0.0247770705987432 -91.1413329464725 0.998963994934652 -2.8259756550798 0.998963994934652 -2.8259756550798 0.024777111630227 -91.1403661550005 
! Gamma         0                0                0                0                
! Port Impedance         50               0                50               0                
7.9                            0.0250990934586685 -91.1879650874171 0.998951147455113 -2.86191415625771 0.998951147455113 -2.86191415625771 0.025099135321703 -91.186986502497 
! Gamma         0                0                0                0                
! Port Impedance         50               0                50               0                
8                              0.0254211348664942 -91.2344241554277 0.998938239522837 -2.89785020868079 0.998938239522837 -2.89785020868079 0.0254211775687863 -91.233433784646 
! Gamma         0                0                0                0                
! Port Impedance         50               0                50               0                
8.1                            0.0257431933224789 -91.280714639525 0.99892527036799 -2.93378388549096 0.99892527036799 -2.93378388549096 0.0257432368715814 -91.2797124904177 
! Gamma         0                0                0                0                
! Port Impedance         50               0                50               0                
8.2                            0.0260652673853577 -91.3268407875878 0.998912239205328 -2.96971525660038 0.998912239205328 -2.96971525660038 0.0260653117886692 -91.325826867622 
! Gamma         0                0                0                0                
! Port Impedance         50               0                50               0                
8.3                            0.0263873556708129 -91.3728066257694 0.998899145236595 -3.00564438876056 0.998899145236594 -3.00564438876056 0.0263874009355785 -91.3717809423272 
! Gamma         0                0                0                0                
! Port Impedance         50               0                50               0                
8.4                            0.0267094568499096 -91.4186159761726 0.998885987652759 -3.04157134563494 0.998885987652758 -3.04157134563494 0.0267095029832217 -91.4175785365358 
! Gamma         0                0                0                0                
! Port Impedance         50               0                50               0                
8.5                            0.0270315696475066 -91.4642724729409 0.998872765636107 -3.07749618787426 0.998872765636106 -3.07749618787425 0.0270316166563061 -91.4632232842784 
! Gamma         0                0                0                0                
! Port Impedance         50               0                50               0                
8.6                            0.0273536928406515 -91.5097795769158 0.998859478362185 -3.11341897319403 0.998859478362185 -3.11341897319403 0.0273537407317295 -91.5087186462717 
! Gamma         0                0                0                0                
! Port Impedance         50               0                50               0                
8.7                            0.0276758252569695 -91.5551405889878 0.998846125001607 -3.14933975645372 0.998846125001607 -3.14933975645372 0.027675874036969 -91.5540679232715 
! Gamma         0                0                0                0                
! Port Impedance         50               0                50               0                
8.8                            0.0279979657730512 -91.600358662264 0.998832704721727 -3.18525858973697 0.998832704721727 -3.18525858973697 0.0279980154484692 -91.5992742682412 
! Gamma         0                0                0                0                
! Port Impedance         50               0                50               0                
8.9                            0.0283201133128481 -91.6454368131594 0.998819216688191 -3.22117552243253 0.998819216688191 -3.22117552243253 0.0283201638900378 -91.6443406974446 
! Gamma         0                0                0                0                
! Port Impedance         50               0                50               0                
9                              0.0286422668460794 -91.6903779315101 0.998805660066365 -3.2570906013155 0.998805660066364 -3.2570906013155 0.0286423183312528 -91.6892701005598 
! Gamma         0                0                0                0                
! Port Impedance         50               0                50               0                
9.1                            0.0289644253866561 -91.7351847897982 0.998792034022654 -3.29300387062854 0.998792034022654 -3.29300387062854 0.0289644777858863 -91.7340652499058 
! Gamma         0                0                0                0                
! Port Impedance         50               0                50               0                
9.2                            0.0292865879911261 -91.7798600515698 0.998778337725716 -3.3289153721627 0.998778337725716 -3.3289153721627 0.0292866413103503 -91.7787288088605 
! Gamma         0                0                0                0                
! Port Impedance         50               0                50               0                
9.3                            0.0296087537571438 -91.8244062791183 0.998764570347568 -3.3648251453377 0.998764570347568 -3.3648251453377 0.0296088080021664 -91.8232633395456 
! Gamma         0                0                0                0                
! Port Impedance         50               0                50               0                
9.4                            0.0299309218219682 -91.8688259405009 0.998750731064605 -3.40073322728131 0.998750731064605 -3.40073322728131 0.0299309769984631 -91.8676713098438 
! Gamma         0                0                0                0                
! Port Impedance         50               0                50               0                
9.5                            0.0302530913609896 -91.9131214159487 0.998736819058524 -3.43663965290778 0.998736819058524 -3.43663965290777 0.030253147474504 -91.9119550998093 
! Gamma         0                0                0                0                
! Port Impedance         50               0                50               0                
9.6                            0.0305752615862906 -91.9572950037252 0.998722833517169 -3.47254445499496 0.998722833517169 -3.47254445499496 0.0305753186422475 -91.9561170075267 
! Gamma         0                0                0                0                
! Port Impedance         50               0                50               0                
9.7                            0.0308974317452393 -92.0013489254825 0.998708773635292 -3.50844766426022 0.998708773635293 -3.50844766426022 0.0308974897489412 -92.0001592544689 
! Gamma         0                0                0                0                
! Port Impedance         50               0                50               0                
9.8                            0.0312196011191192 -92.0452853311624 0.998694638615246 -3.54434930943476 0.998694638615245 -3.54434930943476 0.0312196600757511 -92.0440839903973 
! Gamma         0                0                0                0                
! Port Impedance         50               0                50               0                
9.9                            0.0315417690217945 -92.0891063034815 0.998680427667599 -3.58024941733643 0.998680427667599 -3.58024941733643 0.0315418289364269 -92.0878932978487 
! Gamma         0                0                0                0                
! Port Impedance         50               0                50               0                
10                             0.031863934798413 -92.1328138620396 0.998666140011699 -3.61614801294086 0.998666140011699 -3.61614801294086 0.0318639956760056 -92.1315891962429 
! Gamma         0                0                0                0                
! Port Impedance         50               0                50               0                
10.1                           0.0321860978241465 -92.1764099670836 0.998651774876161 -3.65204511945093 0.998651774876161 -3.65204511945093 0.0321861596695513 -92.1751736456481 
! Gamma         0                0                0                0                
! Port Impedance         50               0                50               0                
10.2                           0.0325082575029695 -92.2198965229595 0.99863733149931 -3.68794075836439 0.99863733149931 -3.68794075836438 0.0325083203209341 -92.2186485502326 
! Gamma         0                0                0                0                
! Port Impedance         50               0                50               0                
10.3                           0.0328304132664748 -92.2632753812795 0.998622809129567 -3.72383494953971 0.998622809129567 -3.72383494953972 0.0328304770616456 -92.2620157614323 
! Gamma         0                0                0                0                
! Port Impedance         50               0                50               0                
10.4                           0.0331525645727286 -92.3065483438305 0.998608207025786 -3.75972771126015 0.998608207025786 -3.75972771126015 0.0331526293496541 -92.3052770808596 
! Gamma         0                0                0                0                
! Port Impedance         50               0                50               0                
10.5                           0.0334747109051617 -92.3497171652461 0.998593524457545 -3.79561906029583 0.998593524457545 -3.79561906029583 0.0334747766682958 -92.3484342629753 
! Gamma         0                0                0                0                
! Port Impedance         50               0                50               0                
10.6                           0.0337968517714994 -92.3927835554642 0.9985787607054  -3.83150901196409 0.9985787607054  -3.83150901196409 0.0337969185252046 -92.3914890175473 
! Gamma         0                0                0                0                
! Port Impedance         50               0                50               0                
10.7                           0.0341189867027277 -92.4357491819893 0.998563915061093 -3.86739758018794 0.998563915061093 -3.86739758018794 0.034119054451278 -92.434443011912 
! Gamma         0                0                0                0                
! Port Impedance         50               0                50               0                
10.8                           0.0344411152520955 -92.4786156719766 0.998548986827729 -3.90328477755263 0.998548986827729 -3.90328477755263 0.0344411839996801 -92.4772978730589 
! Gamma         0                0                0                0                
! Port Impedance         50               0                50               0                
10.9                           0.0347632369941537 -92.5213846141529 0.998533975319915 -3.93917061536038 0.998533975319915 -3.93917061536039 0.0347633067448795 -92.5200551895526 
! Gamma         0                0                0                0                
! Port Impedance         50               0                50               0                
11                             0.0350853515238279 -92.5640575605912 0.998518879863875 -3.9750551036834 0.998518879863876 -3.97505510368341 0.0350854222817228 -92.5627165133058 
! Gamma         0                0                0                0                
! Port Impedance         50               0                50               0                
11.1                           0.0354074584555265 -92.6066360283492 0.998503699797532 -4.01093825141496 0.998503699797533 -4.01093825141497 0.0354075302245425 -92.6052833612192 
! Gamma         0                0                0                0                
! Port Impedance         50               0                50               0                
11.2                           0.0357295574222821 -92.6491215009855 0.998488434470562 -4.04682006631879 0.998488434470563 -4.04682006631879 0.0357296302062981 -92.6477572166975 
! Gamma         0                0                0                0                
! Port Impedance         50               0                50               0                
11.3                           0.0360516480749251 -92.6915154299635 0.998473083244431 -4.08270055507674 0.998473083244431 -4.08270055507675 0.0360517218777498 -92.690139531053 
! Gamma         0                0                0                0                
! Port Impedance         50               0                50               0                
11.4                           0.0363737300812895 -92.7338192359534 0.998457645492401 -4.11857972333475 0.998457645492402 -4.11857972333475 0.0363738049066645 -92.7324317248081 
! Gamma         0                0                0                0                
! Port Impedance         50               0                50               0                
11.5                           0.0366958031254502 -92.7760343100407 0.998442120599529 -4.15445757574706 0.99844212059953 -4.15445757574707 0.0366958789770522 -92.7746351889036 
! Gamma         0                0                0                0                
! Port Impedance         50               0                50               0                
11.6                           0.0370178669069888 -92.8181620148498 0.998426507962631 -4.19033411601897 0.998426507962632 -4.19033411601897 0.0370179437884331 -92.8167512858223 
! Gamma         0                0                0                0                
! Port Impedance         50               0                50               0                
11.7                           0.0373399211402906 -92.8602036855894 0.998410806990244 -4.22620934694782 0.998410806990245 -4.22620934694783 0.0373399990551331 -92.8587813506346 
! Gamma         0                0                0                0                
! Port Impedance         50               0                50               0                
11.8                           0.0376619655538682 -92.9021606310279 0.998395017102566 -4.26208327046259 0.998395017102567 -4.2620832704626 0.0376620445056084 -92.9007266919737 
! Gamma         0                0                0                0                
! Port Impedance         50               0                50               0                
11.9                           0.0379839998897134 -92.9440341344028 0.998379137731382 -4.2979558876619 0.998379137731382 -4.29795588766191 0.0379840798817966 -92.9425885929452 
! Gamma         0                0                0                0                
! Port Impedance         50               0                50               0                
12                             0.0383060239026751 -92.985825454272 0.99836316831998 -4.33382719885058 0.998363168319981 -4.33382719885059 0.0383061049384955 -92.9843683119782 
! Gamma         0                0                0                0                
! Port Impedance         50               0                50               0                
12.1                           0.0386280373598633 -93.0275358253099 0.998347108323055 -4.36969720357484 0.998347108323056 -4.36969720357485 0.0386281194427657 -93.0260670836215 
! Gamma         0                0                0                0                
! Port Impedance         50               0                50               0                
12.2                           0.0389500400400773 -93.0691664590547 0.998330957206604 -4.40556590065601 0.998330957206605 -4.40556590065602 0.03895012317336 -93.0676861192909 
! Gamma         0                0                0                0                
! Port Impedance         50               0                50               0                
12.3                           0.0392720317332579 -93.11071854461  0.998314714447809 -4.44143328822303 0.998314714447809 -4.44143328822304 0.0392721159201748 -93.1092266079705 
! Gamma         0                0                0                0                
! Port Impedance         50               0                50               0                
12.4                           0.0395940122399628 -93.1521932493046 0.998298379534914 -4.47729936374358 0.998298379534915 -4.47729936374359 0.0395940974837257 -93.1506897168732 
! Gamma         0                0                0                0                
! Port Impedance         50               0                50               0                
12.5                           0.0399159813708638 -93.1935917193151 0.9982819519671  -4.513164124054  0.9982819519671  -4.51316412405402 0.0399160676746445 -93.1920765920621 
! Gamma         0                0                0                0                
! Port Impedance         50               0                50               0                
12.6                           0.0402379389462659 -93.2349150802523 0.998265431254341 -4.549027565388  0.998265431254341 -4.54902756538802 0.0402380263131985 -93.233388359038 
! Gamma         0                0                0                0                
! Port Impedance         50               0                50               0                
12.7                           0.0405598847956461 -93.2761644377169 0.998248816917269 -4.58488968340419 0.998248816917269 -4.5848896834042 0.040559973228829 -93.2746261232943 
! Gamma         0                0                0                0                
! Port Impedance         50               0                50               0                
12.8                           0.0408818187572127 -93.3173408778247 0.998232108487025 -4.6207504732125 0.998232108487026 -4.62075047321251 0.0408819082597106 -93.3157909708425 
! Gamma         0                0                0                0                
! Port Impedance         50               0                50               0                
12.9                           0.0412037406774835 -93.3584454677053 0.998215305505111 -4.65660992939951 0.998215305505112 -4.65660992939953 0.0412038312523293 -93.356883968711 
! Gamma         0                0                0                0                
! Port Impedance         50               0                50               0                
13                             0.0415256504108818 -93.3994792559762 0.998198407523234 -4.69246804605278 0.998198407523235 -4.6924680460528 0.0415257420610788 -93.3979061654184 
! Gamma         0                0                0                0                
! Port Impedance         50               0                50               0                
13.1                           0.0418475478193503 -93.4404432731932 0.99818141410315 -4.72832481678405 0.998181414103151 -4.72832481678407 0.0418476405478737 -93.4388585914248 
! Gamma         0                0                0                0                
! Port Impedance         50               0                50               0                
13.2                           0.0421694327719821 -93.4813385322804 0.99816432481651 -4.76418023475163 0.99816432481651 -4.76418023475165 0.0421695265817811 -93.4797422595613 
! Gamma         0                0                0                0                
! Port Impedance         50               0                50               0                
13.3                           0.0424913051446673 -93.5221660289406 0.998147139244691 -4.80003429268173 0.998147139244691 -4.80003429268175 0.0424914000386666 -93.52055816544  
! Gamma         0                0                0                0                
! Port Impedance         50               0                50               0                
13.4                           0.0428131648197554 -93.5629267420476 0.998129856978643 -4.83588698288896 0.998129856978644 -4.83588698288899 0.0428132608008571 -93.5613072878469 
! Gamma         0                0                0                0                
! Port Impedance         50               0                50               0                
13.5                           0.0431350116857328 -93.6036216340217 0.998112477618722 -4.87173829729595 0.998112477618723 -4.87173829729597 0.043135108756818 -93.601990589117 
! Gamma         0                0                0                0                
! Port Impedance         50               0                50               0                
13.6                           0.0434568456369142 -93.6442516511904 0.998095000774528 -4.90758822745208 0.998095000774528 -4.9075882274521 0.0434569438008447 -93.6426090154949 
! Gamma         0                0                0                0                
! Port Impedance         50               0                50               0                
13.7                           0.043778666573148 -93.6848177241347 0.998077426064738 -4.94343676455155 0.998077426064739 -4.94343676455158 0.0437787658327677 -93.683163497481 
! Gamma         0                0                0                0                
! Port Impedance         50               0                50               0                
13.8                           0.0441004743995348 -93.7253207680212 0.99805975311695 -4.97928389945054 0.998059753116951 -4.97928389945056 0.0441005747576713 -93.7236549501641 
! Gamma         0                0                0                0                
! Port Impedance         50               0                50               0                
13.9                           0.0444222690261581 -93.7657616829238 0.998041981567512 -5.01512962268366 0.998041981567513 -5.01512962268369 0.044422370485624 -93.7640842735422 
! Gamma         0                0                0                0                
! Port Impedance         50               0                50               0                
14                             0.0447440503678277 -93.8061413541322 0.998024111061364 -5.05097392447981 0.998024111061365 -5.05097392447984 0.0447441529314223 -93.8044523528314 
! Gamma         0                0                0                0                
! Port Impedance         50               0                50               0                
14.1                           0.0450658183438338 -93.8464606524506 0.998006141251875 -5.08681679477719 0.998006141251876 -5.08681679477722 0.0450659220143445 -93.8447600587647 
! Gamma         0                0                0                0                
! Port Impedance         50               0                50               0                
14.2                           0.0453875728777131 -93.8867204344864 0.997988071800683 -5.12265822323778 0.997988071800684 -5.12265822323781 0.0453876776579166 -93.8850082478802 
! Gamma         0                0                0                0                
! Port Impedance         50               0                50               0                
14.3                           0.0457093138970251 -93.9269215429297 0.997969902377535 -5.15849819926112 0.997969902377536 -5.15849819926115 0.0457094197896884 -93.9251977628009 
! Gamma         0                0                0                0                
! Port Impedance         50               0                50               0                
14.4                           0.0460310413331378 -93.9670648068235 0.997951632660128 -5.19433671199756 0.997951632660129 -5.19433671199759 0.0460311483410201 -93.9653294325047 
! Gamma         0                0                0                0                
! Port Impedance         50               0                50               0                
14.5                           0.0463527551210244 -94.0071510418263 0.997933262333955 -5.23017375036085 0.997933262333956 -5.23017375036088 0.046352863246878 -94.0054040725871 
! Gamma         0                0                0                0                
! Port Impedance         50               0                50               0                
14.6                           0.0466744551990683 -94.0471810504672 0.997914791092146 -5.26600930304025 0.997914791092147 -5.26600930304028 0.0466745644456396 -94.0454224855158 
! Gamma         0                0                0                0                
! Port Impedance         50               0                50               0                
14.7                           0.0469961415088774 -94.0871556223931 0.997896218635319 -5.3018433585121 0.99789621863532 -5.30184335851213 0.0469962518789085 -94.0853854608784 
! Gamma         0                0                0                0                
! Port Impedance         50               0                50               0                
14.8                           0.0473178139951068 -94.1270755346096 0.997877544671427 -5.33767590505082 0.997877544671428 -5.33767590505085 0.0473179254913361 -94.1252937756229 
! Gamma         0                0                0                0                
! Port Impedance         50               0                50               0                
14.9                           0.0476394726052894 -94.1669415517152 0.997858768915609 -5.37350693073947 0.99785876891561 -5.3735069307395 0.0476395852304533 -94.165148194292 
! Gamma         0                0                0                0                
! Port Impedance         50               0                50               0                
15                             0.0479611172896749 -94.2067544261297 0.997839891090042 -5.40933642347991 0.997839891090043 -5.40933642347994 0.0479612310465083 -94.2049494692516 
! Gamma         0                0                0                0                
! Port Impedance         50               0                50               0                
15.1                           0.0482827480010756 -94.2465148983166 0.997820910923797 -5.44516437100234 0.997820910923798 -5.44516437100237 0.048282862892313 -94.2446983409125 
! Gamma         0                0                0                0                
! Port Impedance         50               0                50               0                
15.2                           0.0486043646947191 -94.2862236970002 0.997801828152695 -5.48099076087461 0.997801828152696 -5.48099076087464 0.0486044807230961 -94.2843955379482 
! Gamma         0                0                0                0                
! Port Impedance         50               0                50               0                
15.3                           0.0489259673281091 -94.325881539377 0.997782642519168 -5.51681558051099 0.997782642519169 -5.51681558051102 0.0489260844963627 -94.324041777506 
! Gamma         0                0                0                0                
! Port Impedance         50               0                50               0                
15.4                           0.0492475558608909 -94.365489131323 0.997763353772118 -5.55263881718055 0.997763353772119 -5.55263881718058 0.0492476741717609 -94.363637765414 
! Gamma         0                0                0                0                
! Port Impedance         50               0                50               0                
15.5                           0.0495691302547245 -94.4050471675953 0.997743961666785 -5.58846045801526 0.997743961666786 -5.58846045801529 0.049569249710954 -94.4031841963832 
! Gamma         0                0                0                0                
! Port Impedance         50               0                50               0                
15.6                           0.049890690473163 -94.4445563320301 0.997724465964608 -5.62428049001764 0.997724465964609 -5.62428049001767 0.0498908110774997 -94.4426817542048 
! Gamma         0                0                0                0                
! Port Impedance         50               0                50               0                
15.7                           0.0502122364815367 -94.4840172977355 0.997704866433098 -5.66009890006808 0.997704866433099 -5.66009890006811 0.0502123582367335 -94.4821311119433 
! Gamma         0                0                0                0                
! Port Impedance         50               0                50               0                
15.8                           0.0505337682468429 -94.5234307272805 0.997685162845706 -5.69591567493186 0.997685162845707 -5.6959156749319 0.0505338911556587 -94.5215329321258 
! Gamma         0                0                0                0                
! Port Impedance         50               0                50               0                
15.9                           0.0508552857376404 -94.5627972728805 0.9976653549817  -5.73173080126586 0.997665354981701 -5.73173080126589 0.0508554098028411 -94.5608878669265 
! Gamma         0                0                0                0                
! Port Impedance         50               0                50               0                
16                             0.0511767889239496 -94.6021175765777 0.997645442626036 -5.76754426562489 0.997645442626037 -5.76754426562493 0.0511769141483085 -94.6001965583481 
! Gamma         0                0                0                0                
! Port Impedance         50               0                50               0                
16.1                           0.0514982777771563 -94.6413922704191 0.99762542556924 -5.80335605446785 0.99762542556924 -5.80335605446788 0.0514984041634555 -94.6394596383993 
! Gamma         0                0                0                0                
! Port Impedance         50               0                50               0                
16.2                           0.0518197522699216 -94.6806219766301 0.997605303607284 -5.8391661541635 0.997605303607285 -5.83916615416353 0.051819879820952 -94.6786777292681 
! Gamma         0                0                0                0                
! Port Impedance         50               0                50               0                
16.3                           0.0521412123760941 -94.719807307785 0.997585076541475 -5.87497455099605 0.997585076541476 -5.87497455099608 0.0521413410946566 -94.7178514434928 
! Gamma         0                0                0                0                
! Port Impedance         50               0                50               0                
16.4                           0.0524626580706281 -94.7589488669739 0.997564744178336 -5.91078123117045 0.997564744178337 -5.91078123117048 0.0524627879595342 -94.7569813841284 
! Gamma         0                0                0                0                
! Port Impedance         50               0                50               0                
16.5                           0.0527840893295047 -94.7980472479664 0.997544306329492 -5.94658618081744 0.997544306329493 -5.94658618081747 0.0527842203915768 -94.7960681449107 
! Gamma         0                0                0                0                
! Port Impedance         50               0                50               0                
16.6                           0.0531055061296563 -94.8371030353723 0.997523762811564 -5.98238938599839 0.997523762811565 -5.98238938599842 0.0531056383677291 -94.8351123104166 
! Gamma         0                0                0                0                
! Port Impedance         50               0                50               0                
16.7                           0.0534269084488963 -94.8761168047995 0.99750311344606 -6.01819083270993 0.99750311344606 -6.01819083270996 0.0534270418658167 -94.8741144562219 
! Gamma         0                0                0                0                
! Port Impedance         50               0                50               0                
16.8                           0.0537482962658501 -94.9150891230076 0.997482358059264 -6.05399050688827 0.997482358059265 -6.05399050688831 0.0537484308644781 -94.9130751490556 
! Gamma         0                0                0                0                
! Port Impedance         50               0                50               0                
16.9                           0.0540696695598912 -94.9540205480609 0.997461496482143 -6.0897883944135 0.997461496482144 -6.08978839441353 0.0540698053431006 -94.9519949469516 
! Gamma         0                0                0                0                
! Port Impedance         50               0                50               0                
17                             0.0543910283110792 -94.992911629476 0.997440528550235 -6.12558448111349 0.997440528550236 -6.12558448111352 0.0543911652817581 -94.9908743993977 
! Gamma         0                0                0                0                
! Port Impedance         50               0                50               0                
17.1                           0.0547123725001016 -95.0317629083687 0.997419454103556 -6.16137875276775 0.997419454103557 -6.16137875276778 0.0547125106611528 -95.0297140474815 
! Gamma         0                0                0                0                
! Port Impedance         50               0                50               0                
17.2                           0.0550337021082179 -95.0705749175971 0.997398272986502 -6.19717119511105 0.997398272986502 -6.19717119511108 0.0550338414625597 -95.0685144240336 
! Gamma         0                0                0                0                
! Port Impedance         50               0                50               0                
17.3                           0.0553550171172063 -95.1093481819025 0.997376985047753 -6.23296179383691 0.997376985047754 -6.23296179383694 0.0553551576677729 -95.1072760537688 
! Gamma         0                0                0                0                
! Port Impedance         50               0                50               0                
17.4                           0.0556763175093141 -95.1480832180476 0.997355590140184 -6.26875053460087 0.997355590140184 -6.2687505346009 0.0556764592590561 -95.145999453424 
! Gamma         0                0                0                0                
! Port Impedance         50               0                50               0                
17.5                           0.0559976032672089 -95.1867805349523 0.997334088120767 -6.30453740302366 0.997334088120767 -6.30453740302369 0.0559977462190939 -95.1846851318942 
! Gamma         0                0                0                0                
! Port Impedance         50               0                50               0                
17.6                           0.0563188743739338 -95.225440633827 0.99731247885049 -6.34032238469419 0.997312478850491 -6.34032238469422 0.0563190185309467 -95.2233335903653 
! Gamma         0                0                0                0                
! Port Impedance         50               0                50               0                
17.7                           0.0566401308128634 -95.2640640083033 0.997290762194268 -6.3761054651724 0.997290762194269 -6.37610546517242 0.0566402761780071 -95.2619453224457 
! Gamma         0                0                0                0                
! Port Impedance         50               0                50               0                
17.8                           0.0569613725676631 -95.3026511445628 0.997268938020856 -6.41188662999199 0.997268938020857 -6.41188662999202 0.056961519143959 -95.3005208142939 
! Gamma         0                0                0                0                
! Port Impedance         50               0                50               0                
17.9                           0.05728259962225 -95.3412025214634 0.997247006202768 -6.44766586466304 0.997247006202769 -6.44766586466306 0.0572827474127381 -95.3390605447458 
! Gamma         0                0                0                0                
! Port Impedance         50               0                50               0                
18                             0.0576038119607554 -95.3797186106633 0.997224966616197 -6.48344315467442 0.997224966616197 -6.48344315467445 0.0576039609684952 -95.3775649854379 
! Gamma         0                0                0                0                
! Port Impedance         50               0                50               0                
18.1                           0.0579250095674902 -95.4181998767426 0.997202819140932 -6.51921848549621 0.997202819140933 -6.51921848549623 0.0579251597955606 -95.4160346009294 
! Gamma         0                0                0                0                
! Port Impedance         50               0                50               0                
18.2                           0.0582461924269106 -95.4566467773231 0.997180563660288 -6.55499184258185 0.997180563660289 -6.55499184258187 0.0582463438784108 -95.454469848822 
! Gamma         0                0                0                0                
! Port Impedance         50               0                50               0                
18.3                           0.0585673605235871 -95.4950597631861 0.997158200061025 -6.59076321137037 0.997158200061025 -6.5907632113704 0.0585675132016367 -95.492871179877 
! Gamma         0                0                0                0                
! Port Impedance         50               0                50               0                
18.4                           0.0588885138421736 -95.5334392783876 0.997135728233272 -6.62653257728835 0.997135728233273 -6.62653257728836 0.0588886677499134 -95.5312390381313 
! Gamma         0                0                0                0                
! Port Impedance         50               0                50               0                
18.5                           0.0592096523673797 -95.5717857603716 0.997113148070464 -6.66229992575183 0.997113148070465 -6.66229992575185 0.0592098075079715 -95.5695738610104 
! Gamma         0                0                0                0                
! Port Impedance         50               0                50               0                
18.6                           0.0595307760839428 -95.610099640082 0.997090459469263 -6.69806524216823 0.997090459469264 -6.69806524216825 0.0595309324605701 -95.60787607944  
! Gamma         0                0                0                0                
! Port Impedance         50               0                50               0                
18.7                           0.0598518849766028 -95.6483813420717 0.997067662329494 -6.733828511938  0.997067662329494 -6.73382851193801 0.0598520425924714 -95.6461461179554 
! Gamma         0                0                0                0                
! Port Impedance         50               0                50               0                
18.8                           0.0601729790300777 -95.6866312846103 0.997044756554074 -6.76958972045631 0.997044756554075 -6.76958972045633 0.0601731378884155 -95.684384394809 
! Gamma         0                0                0                0                
! Port Impedance         50               0                50               0                
18.9                           0.0604940582290405 -95.7248498797895 0.997021742048954 -6.80534885311467 0.997021742048954 -6.80534885311468 0.0604942183330984 -95.7225913220762 
! Gamma         0                0                0                0                
! Port Impedance         50               0                50               0                
19                             0.0608151225580974 -95.7630375336275 0.996998618723045 -6.84110589530232 0.996998618723045 -6.84110589530233 0.0608152839111493 -95.7607673057586 
! Gamma         0                0                0                0                
! Port Impedance         50               0                50               0                
19.1                           0.061136172001767 -95.8011946461702 0.996975386488162 -6.87686083240777 0.996975386488163 -6.87686083240778 0.0611363346071103 -95.7989127458866 
! Gamma         0                0                0                0                
! Port Impedance         50               0                50               0                
19.2                           0.061457206544461 -95.8393216115919 0.996952045258964 -6.91261364982006 0.996952045258965 -6.91261364982007 0.0614573704054168 -95.8370280366191 
! Gamma         0                0                0                0                
! Port Impedance         50               0                50               0                
19.3                           0.0617782261704655 -95.8774188182936 0.99692859495289 -6.94836433293007 0.99692859495289 -6.94836433293008 0.0617783912903791 -95.8751135663423 
! Gamma         0                0                0                0                
! Port Impedance         50               0                50               0                
19.4                           0.0620992308639237 -95.9154866489998 0.996905035490102 -6.98411286713174 0.996905035490103 -6.98411286713175 0.0620993972461647 -95.913169717766 
! Gamma         0                0                0                0                
! Port Impedance         50               0                50               0                
19.5                           0.0624202206088192 -95.9535254808529 0.99688136679343 -7.01985923782323 0.996881366793431 -7.01985923782323 0.0624203882567821 -95.9511968680187 
! Gamma         0                0                0                0                
! Port Impedance         50               0                50               0                
19.6                           0.0627411953889607 -95.9915356855073 0.996857588788317 -7.05560343040797 0.996857588788318 -7.05560343040797 0.0627413643060647 -95.9891953887409 
! Gamma         0                0                0                0                
! Port Impedance         50               0                50               0                
19.7                           0.0630621551879668 -96.0295176292208 0.996833701402761 -7.09134543029573 0.996833701402762 -7.09134543029573 0.0630623253776566 -96.0271656461769 
! Gamma         0                0                0                0                
! Port Impedance         50               0                50               0                
19.8                           0.0633830999892528 -96.0674716729443 0.996809704567266 -7.12708522290361 0.996809704567267 -7.12708522290361 0.0633832714549989 -96.0651080012646 
! Gamma         0                0                0                0                
! Port Impedance         50               0                50               0                
19.9                           0.0637040297760172 -96.1053981724106 0.996785598214789 -7.16282279365692 0.99678559821479 -7.16282279365692 0.0637042025213157 -96.1030228097243 
! Gamma         0                0                0                0                
! Port Impedance         50               0                50               0                
20                             0.0640249445312295 -96.1432974782215 0.99676138228069 -7.19855812799011 0.99676138228069 -7.19855812799011 0.0640251185596027 -96.1409104221452 
! Gamma         -0               -0               -0               -0               
! Port Impedance         50               0                50               0                
