! Touchstone file exported from HFSS 2026.1.0
!        File:           C:/ffzhzh/LocalFiles/Ansys_Project_Files/temp_train_TSV_661_1783026920_55676.aedt
!        Generated:      05:17:04 AM Jul  3, 2026
!        Design:         TSV
!        Project:        temp_train_TSV_661_1783026920_55676
!
! Variables:
!        h_bsmrdl = 2um
!        h_ox = 20um
!        h_rdl = 5um
!        h_sub = 85.93um
!        h_tmrdl = 5um
!        h_tsv = 85.93um
!        h_via = 3um
!        l_bsmrdl = 300um
!        l_sub = 418.34um
!        l_tmrdl = 200um
!        m_sub = 200um
!        pitch = 55.84um
!        r_tsv = 9.17um
!        s_tmrdl = 10um
!        w_bsmrdl = 18um
!        w_sub = 500um
!        w_tmrdl = 12um
!        x_tsv_center1 = 206um
!        x_tsv_center2 = 524um
!        x_tsv_center3 = 736um
!        x_tsv_center4 = 1054um
!        x_tsv_center5 = 1266um
!        x_tsv_center6 = 1584um
!
# GHz S MA R 50.000000
! Terminal data exported
! Port[1] = TSV1_1_T1
! Port[2] = TSV1_1_T2
0.1                            0.000336852854228078 63.4754727559741 0.99984978253681 -0.0494305378199575 0.99984978253681 -0.0494305378199574 0.000336852883213428 63.4754651768021 
! Gamma         0                0                0                0                
! Port Impedance         50               0                50               0                
0.2                            0.00062198538719465 74.9252967447747 0.999839326893069 -0.0987423941177409 0.999839326893069 -0.0987423941177395 0.00062198544558035 74.9252733976905 
! Gamma         0                0                0                0                
! Port Impedance         50               0                50               0                
0.3                            0.000913555166556716 78.68619149557   0.999823199831378 -0.147840011811345 0.999823199831378 -0.147840011811341 0.000913555224175554 78.686154931573  
! Gamma         0                0                0                0                
! Port Impedance         50               0                50               0                
0.4                            0.00120297054192157 80.3765361762187 0.999802975066493 -0.196665182065464 0.999802975066493 -0.196665182065456 0.00120297057536993 80.3764880899975 
! Gamma         0                0                0                0                
! Port Impedance         50               0                50               0                
0.5                            0.00148823998059431 81.2782522031191 0.999780289002593 -0.245198892752075 0.999780289002593 -0.245198892752061 0.0014882399811669 81.2781937804064 
! Gamma         0                0                0                0                
! Port Impedance         50               0                50               0                
0.6                            0.00176903734602467 81.8282651287443 0.999756570679317 -0.293453555808535 0.999756570679316 -0.293453555808514 0.00176903732259255 81.8281970761593 
! Gamma         0                0                0                0                
! Port Impedance         50               0                50               0                
0.7                            0.00204571118874263 82.2075961457992 0.999732906838197 -0.341461228760691 0.999732906838197 -0.341461228760664 0.00204571116527128 82.2075187339212 
! Gamma         0                0                0                0                
! Port Impedance         50               0                50               0                
0.8                            0.00231888220518216 82.4988056506002 0.999710023991737 -0.389262586044065 0.999710023991737 -0.389262586044031 0.00231888221547507 82.4987188087392 
! Gamma         0                0                0                0                
! Port Impedance         50               0                50               0                
0.9                            0.00258923171478767 82.741202428938  0.999688340066145 -0.436898969413984 0.999688340066145 -0.436898969413944 0.00258923179696382 82.7411058595455 
! Gamma         0                0                0                0                
! Port Impedance         50               0                50               0                
1                              0.00285739287411872 82.953759870602  0.999668041590842 -0.484407795820789 0.999668041590842 -0.484407795820744 0.00285739306623794 82.9536531530389 
! Gamma         0                0                0                0                
! Port Impedance         50               0                50               0                
1.1                            0.00312390429176295 83.1456251556794 0.999649158757219 -0.531820577325009 0.999649158757219 -0.531820577324961 0.00312390462899907 83.1455078250301 
! Gamma         0                0                0                0                
! Port Impedance         50               0                50               0                
1.2                            0.00338919940597129 83.3211977160967 0.999631626114312 -0.579162593091105 0.999631626114312 -0.579162593091053 0.00338919991915434 83.3210693153169 
! Gamma         0                0                0                0                
! Port Impedance         50               0                50               0                
1.3                            0.00365361390428799 83.4826345899009 0.99961532645839 -0.62645342788881 0.999615326458391 -0.626453427888756 0.00365361461943421 83.4824946998561 
! Gamma         0                0                0                0                
! Port Impedance         50               0                50               0                
1.4                            0.0039174004285174 83.6310842209758 0.99960012008086 -0.673707858413029 0.99960012008086 -0.673707858412973 0.00391740136697305 83.6309324746138 
! Gamma         0                0                0                0                
! Port Impedance         50               0                50               0                
1.5                            0.00418074472407437 83.7672811875013 0.999585862918851 -0.720936794449135 0.999585862918852 -0.720936794449078 0.00418074590298624 83.7671172737958 
! Gamma         0                0                0                0                
! Port Impedance         50               0                50               0                
1.6                            0.00444378047392568 83.8918199930769 0.999572416983615 -0.768148134213255 0.999572416983616 -0.768148134213197 0.00444378190684641 83.8916436550113 
! Gamma         0                0                0                0                
! Port Impedance         50               0                50               0                
1.7                            0.00470660179510703 84.0052702276275 0.999559655736323 -0.815347482324763 0.999559655736324 -0.815347482324705 0.00470660349262067 84.0050812571256 
! Gamma         0                0                0                0                
! Port Impedance         50               0                50               0                
1.8                            0.00496927325707046 84.1082159312324 0.999547466325576 -0.862538724969489 0.999547466325576 -0.862538724969431 0.00496927522737713 84.1080141628609 
! Gamma         0                0                0                0                
! Port Impedance         50               0                50               0                
1.9                            0.00523183766929647 84.2012609711405 0.999535749976288 -0.909724477280269 0.999535749976289 -0.909724477280212 0.00523183991872867 84.2010462756468 
! Gamma         0                0                0                0                
! Port Impedance         50               0                50               0                
2                              0.00549432201408635 84.2850210434972 0.999524421360107 -0.956906424655729 0.999524421360108 -0.956906424655672 0.00549432454754918 84.2847933217457 
! Gamma         0                0                0                0                
! Port Impedance         50               0                50               0                
2.1                            0.00575674190504619 84.3601120376869 0.999513407461673 -1.00408557978313 0.999513407461674 -1.00408557978308 0.0057567447263841 84.3598712152518 
! Gamma         0                0                0                0                
! Port Impedance         50               0                50               0                
2.2                            0.00601910490559433 84.4271390138782 0.999502646247414 -1.05126247443727 0.999502646247415 -1.05126247443721 0.00601910801789166 84.4268850363729 
! Gamma         0                0                0                0                
! Port Impedance         50               0                50               0                
2.3                            0.00628141298131544 84.4866873533388 0.99949208531164 -1.09843730166933 0.999492085311641 -1.09843730166928 0.00628141638714011 84.486420182464  
! Gamma         0                0                0                0                
! Port Impedance         50               0                50               0                
2.4                            0.00654366430160121 84.5393163855699 0.999481680593141 -1.14561002067689 0.999481680593142 -1.14561002067684 0.00654366800320035 84.5390359958189 
! Gamma         0                0                0                0                
! Port Impedance         50               0                50               0                
2.5                            0.00680585455597484 84.5855552634982 0.999471395206564 -1.19278043379938 0.999471395206565 -1.19278043379932 0.00680585855543073 84.5852616394356 
! Gamma         0                0                0                0                
! Port Impedance         50               0                50               0                
2.6                            0.00706797791013508 84.6259006772946 0.999461198404338 -1.23994824278613 0.99946119840434 -1.23994824278608 0.00706798220948859 84.625593811326  
! Gamma         0                0                0                0                
! Port Impedance         50               0                50               0                
2.7                            0.00733002769533004 84.6608159788265 0.999451064669128 -1.28711308969373 0.999451064669129 -1.28711308969368 0.00733003229667746 84.6604958693797 
! Gamma         0                0                0                0                
! Port Impedance         50               0                50               0                
2.8                            0.00759199690072712 84.6907313369047 0.999440972928568 -1.33427458640332 0.999440972928569 -1.33427458640327 0.00759200180629548 84.6903979869525 
! Gamma         0                0                0                0                
! Port Impedance         50               0                50               0                
2.9                            0.00785387852044934 84.7160446122299 0.999430905880393 -1.38143233572103 0.999430905880394 -1.38143233572099 0.0078538837326542 84.7156980280948 
! Gamma         0                0                0                0                
! Port Impedance         50               0                50               0                
3                              0.00811566579353643 84.737122709342  0.99942084941489 -1.42858594625762 0.999420849414892 -1.42858594625758 0.00811567131502533 84.7367628997321 
! Gamma         0                0                0                0                
! Port Impedance         50               0                50               0                
3.1                            0.00837735236514442 84.7543032225969 0.99941079212194 -1.47573504271431 0.999410792121941 -1.47573504271427 0.0083773581988289 84.7539301978305 
! Gamma         0                0                0                0                
! Port Impedance         50               0                50               0                
3.2                            0.00863893238994501 84.7678962419626 0.999400724870814 -1.52287927278052 0.999400724870815 -1.52287927278048 0.00863893853902297 84.7675100133473 
! Gamma         0                0                0                0                
! Port Impedance         50               0                50               0                
3.3                            0.00890040059325453 84.7781862226655 0.999390640452217 -1.57001831153758 0.999390640452218 -1.57001831153755 0.00890040706122507 84.7777868020039 
! Gamma         0                0                0                0                
! Port Impedance         50               0                50               0                
3.4                            0.00916175230141177 84.7854338518784 0.999380533273356 -1.61715186403252 0.999380533273357 -1.61715186403249 0.00916175909208352 84.7850212510759 
! Gamma         0                0                0                0                
! Port Impedance         50               0                50               0                
3.5                            0.00942298344995792 84.7898778674281 0.999370399098087 -1.66427966651544 0.999370399098088 -1.66427966651541 0.00942299056745236 84.7894520981851 
! Gamma         0                0                0                0                
! Port Impedance         50               0                50               0                
3.6                            0.0096840905759769 84.7917367994945 0.999360234825379 -1.71140148670811 0.99936023482538 -1.71140148670808 0.00968409802472736 84.7912978730672 
! Gamma         0                0                0                0                
! Port Impedance         50               0                50               0                
3.7                            0.00994507079932585 84.7912106178378 0.999350038300321 -1.75851712337767 0.999350038300322 -1.75851712337764 0.00994507858407309 84.7907585448552 
! Gamma         0                0                0                0                
! Port Impedance         50               0                50               0                
3.8                            0.0102059217962745 84.7884822753089 0.999339808152814 -1.80562640541977 0.999339808152815 -1.80562640541975 0.0102059299220594 84.7880170656354 
! Gamma         0                0                0                0                
! Port Impedance         50               0                50               0                
3.9                            0.0104666417681701 84.7837191441426 0.999329543659825 -1.85272919060359 0.999329543659826 -1.85272919060356 0.0104666502403246 84.7832408067779 
! Gamma         0                0                0                0                
! Port Impedance         50               0                50               0                
4                              0.0107272294070719 84.7770743454481 0.999319244627738 -1.89982536409259 0.999319244627739 -1.89982536409257 0.0107272382312069 84.7765828884584 
! Gamma         0                0                0                0                
! Port Impedance         50               0                50               0                
4.1                            0.0109876838597901 84.7686879749095 0.999308911291875 -1.9469148368258 0.999308911291876 -1.94691483682578 0.0109876930417837 84.7681834053832 
! Gamma         0                0                0                0                
! Port Impedance         50               0                50               0                
4.2                            0.0112480046913927 84.7586882293466 0.999298544230697 -1.99399754382256 0.999298544230698 -1.99399754382254 0.0112480142373756 84.7581705533704 
! Gamma         0                0                0                0                
! Port Impedance         50               0                50               0                
4.3                            0.0115081918489489 84.7471924397523 0.999288144292603 -2.04107344245748 0.999288144292604 -2.04107344245747 0.0115082017652905 84.7466616624037 
! Gamma         0                0                0                0                
! Port Impedance         50               0                50               0                
4.4                            0.0117682456260713 84.7343080169101 0.999277712533549 -2.08814251074003 0.99927771253355 -2.08814251074001 0.0117682559193642 84.7337641422637 
! Gamma         0                0                0                0                
! Port Impedance         50               0                50               0                
4.5                            0.0120281666286506 84.7201333158581 0.999267250163961 -2.13520474562363 0.999267250163962 -2.13520474562362 0.012028177305695 84.7195763470022 
! Gamma         0                0                0                0                
! Port Impedance         50               0                50               0                
4.6                            0.0122879557420557 84.7047584254043 0.999256758503675 -2.18226016136245 0.999256758503676 -2.18226016136244 0.0122879668098442 84.7041883644659 
! Gamma         0                0                0                0                
! Port Impedance         50               0                50               0                
4.7                            0.0125476140999807 84.688265888696  0.99924623894379 -2.22930878792836 0.999246238943792 -2.22930878792835 0.0125476255656823 84.6876827368726 
! Gamma         0                0                0                0                
! Port Impedance         50               0                50               0                
4.8                            0.012807143055045 84.6707313605514 0.999235692914505 -2.27635066949676 0.999235692914506 -2.27635066949675 0.0128071549259898 84.6701351181484 
! Gamma         0                0                0                0                
! Port Impedance         50               0                50               0                
4.9                            0.0130665441512059 84.652224206922  0.99922512185811 -2.32338586300685 0.999225121858111 -2.32338586300685 0.0130665564348694 84.651614873393  
! Gamma         0                0                0                0                
! Port Impedance         50               0                50               0                
5                              0.0133258190979964 84.6328080514811 0.999214527206457 -2.37041443679936 0.999214527206458 -2.37041443679935 0.0133258318019851 84.6321856254719 
! Gamma         0                0                0                0                
! Port Impedance         50               0                50               0                
5.1                            0.0135849697465774 84.6125412739675 0.999203910362302 -2.41743646933332 0.999203910362303 -2.41743646933332 0.0135849828786138 84.6119057533613 
! Gamma         0                0                0                0                
! Port Impedance         50               0                50               0                
5.2                            0.013843998067566 84.5914774645408 0.999193272683986 -2.46445204798197 0.999193272683987 -2.46445204798197 0.0138440116354746 84.5908288465051 
! Gamma         0                0                0                0                
! Port Impedance         50               0                50               0                
5.3                            0.0141029061305877 84.5696658380575 0.999182615473021 -2.51146126790677 0.999182615473022 -2.51146126790677 0.0141029201422815 84.5690041190907 
! Gamma         0                0                0                0                
! Port Impedance         50               0                50               0                
5.4                            0.0143616960854895 84.5471516118403 0.999171939964173 -2.55846423100796 0.999171939964174 -2.55846423100796 0.0143617105489571 84.5464767878194 
! Gamma         0                0                0                0                
! Port Impedance         50               0                50               0                
5.5                            0.0146203701451416 84.523976350205  0.999161247317716 -2.60546104494944 0.999161247317717 -2.60546104494944 0.0146203850684346 84.5232884164319 
! Gamma         0                0                0                0                
! Port Impedance         50               0                50               0                
5.6                            0.0148789305697492 84.5001782787162 0.999150538613545 -2.65245182225541 0.999150538613546 -2.65245182225542 0.0148789459609705 84.4994772299639 
! Gamma         0                0                0                0                
! Port Impedance         50               0                50               0                
5.7                            0.0151373796525954 84.475792570881  0.999139814846889 -2.69943667947579 0.99913981484689 -2.6994366794758 0.0151373955198882 84.4750784014382 
! Gamma         0                0                0                0                
! Port Impedance         50               0                50               0                
5.8                            0.0153957197071337 84.450851609742  0.99912907692541 -2.74641573641749 0.999129076925411 -2.7464157364175 0.015395736058671 84.4501243134567 
! Gamma         0                0                0                0                
! Port Impedance         50               0                50               0                
5.9                            0.0156539530553463 84.4253852266098 0.999118325667469 -2.79338911543829 0.999118325667469 -2.79338911543829 0.015653969899321 84.4246447969314 
! Gamma         0                0                0                0                
! Port Impedance         50               0                50               0                
6                              0.0159120820172898 84.3994209189705 0.999107561801398 -2.84035694080011 0.999107561801398 -2.84035694080011 0.0159120993619055 84.3986673489902 
! Gamma         0                0                0                0                
! Port Impedance         50               0                50               0                
6.1                            0.0161701089017468 84.3729840494186 0.999096785965623 -2.88731933807851 0.999096785965624 -2.88731933807852 0.0161701267552096 84.3722173319085 
! Gamma         0                0                0                0                
! Port Impedance         50               0                50               0                
6.2                            0.016428035997908 84.3460980272979 0.999085998709497 -2.93427643362514 0.999085998709498 -2.93427643362515 0.0164280543684185 84.3453181547473 
! Gamma         0                0                0                0                
! Port Impedance         50               0                50               0                
6.3                            0.0166858655680097 84.3187844745782 0.999075200494735 -2.98122835407998 0.999075200494735 -2.98122835407999 0.0166858844637555 84.3179914392295 
! Gamma         0                0                0                0                
! Port Impedance         50               0                50               0                
6.4                            0.0169435998408549 84.2910633773611 0.999064391697339 -3.0281752259304 0.999064391697339 -3.02817522593041 0.0169436192700043 84.2902571712424 
! Gamma         0                0                0                0                
! Port Impedance         50               0                50               0                
6.5                            0.0172012410061511 84.2629532242755 0.999053572609935 -3.07511717511391 0.999053572609935 -3.07511717511392 0.0172012609768469 84.2621338392325 
! Gamma         0                0                0                0                
! Port Impedance         50               0                50               0                
6.6                            0.0174587912095984 84.2344711329181 0.99904274344443 -3.12205432666181 0.99904274344443 -3.12205432666182 0.0174588117299526 84.2336385606434 
! Gamma         0                0                0                0                
! Port Impedance         50               0                50               0                
6.7                            0.017716252548668 84.2056329653821 0.999031904334929 -3.16898680438092 0.999031904334929 -3.16898680438094 0.0177162736267567 84.2047871974431 
! Gamma         0                0                0                0                
! Port Impedance         50               0                50               0                
6.8                            0.0179736270690115 84.1764534338302 0.999021055340853 -3.21591473057072 0.999021055340853 -3.21591473057073 0.0179736487128705 84.1755944616949 
! Gamma         0                0                0                0                
! Port Impedance         50               0                50               0                
6.9                            0.0182309167614474 84.1469461969785 0.999010196450202 -3.26283822577332 0.999010196450202 -3.26283822577333 0.0182309389790687 84.1460740120399 
! Gamma         0                0                0                0                
! Port Impedance         50               0                50               0                
7                              0.0184881235594737 84.1171239482832 0.998999327582916 -3.30975740855394 0.998999327582917 -3.30975740855396 0.0184881463588014 84.1162385418815 
! Gamma         0                0                0                0                
! Port Impedance         50               0                50               0                
7.1                            0.018745249337257 84.0869984965498 0.998988448594313 -3.35667239530949 0.998988448594313 -3.35667239530951 0.0187452727261848 84.0860998599935 
! Gamma         0                0                0                0                
! Port Impedance         50               0                50               0                
7.2                            0.0190022959080552 84.0565808396233 0.998977559278536 -3.40358330010304 0.998977559278536 -3.40358330010305 0.0190023198944237 84.0556689642083 
! Gamma         0                0                0                0                
! Port Impedance         50               0                50               0                
7.3                            0.0192592650230306 84.0258812317572 0.998966659372028 -3.45049023452224 0.998966659372028 -3.45049023452225 0.0192592896146255 84.0249561087846 
! Gamma         0                0                0                0                
! Port Impedance         50               0                50               0                
7.4                            0.0195161583704159 83.9949092452083 0.998955748556959 -3.49739330755962 0.998955748556959 -3.49739330755963 0.0195161835749656 83.9939708660008 
! Gamma         0                0                0                0                
! Port Impedance         50               0                50               0                
7.5                            0.0197729775749948 83.9636738265563 0.998944826464634 -3.54429262551304 0.998944826464634 -3.54429262551305 0.0197730034001693 83.9627221824726 
! Gamma         0                0                0                0                
! Port Impedance         50               0                50               0                
7.6                            0.0200297241978668 83.9321833482018 0.998933892678826 -3.59118829190444 0.998933892678826 -3.59118829190445 0.0200297506512769 83.9312184306507 
! Gamma         0                0                0                0                
! Port Impedance         50               0                50               0                
7.7                            0.0202863997364634 83.90044565546   0.998922946739042 -3.63808040741537 0.998922946739042 -3.63808040741538 0.0202864268256593 83.8994674559124 
! Gamma         0                0                0                0                
! Port Impedance         50               0                50               0                
7.8                            0.0205430056247875 83.8684681096274 0.998911988143705 -3.6849690698378 0.998911988143705 -3.68496906983781 0.0205430333572588 83.8674766196275 
! Gamma         0                0                0                0                
! Port Impedance         50               0                50               0                
7.9                            0.0207995432338511 83.836257627369  0.998901016353241 -3.7318543740387 0.99890101635324 -3.73185437403871 0.0207995716170263 83.8352528385443 
! Gamma         0                0                0                0                
! Port Impedance         50               0                50               0                
8                              0.0210560138722859 83.8038207167419 0.998890030793062 -3.77873641193718 0.998890030793062 -3.77873641193719 0.0210560429135326 83.8028026208121 
! Gamma         0                0                0                0                
! Port Impedance         50               0                50               0                
8.1                            0.0213124187871059 83.7711635101435 0.998879030856452 -3.82561527249292 0.998879030856451 -3.82561527249293 0.0213124484937307 83.7701320989285 
! Gamma         0                0                0                0                
! Port Impedance         50               0                50               0                
8.2                            0.0215687591646018 83.7382917944502 0.998868015907326 -3.87249104170472 0.998868015907325 -3.87249104170473 0.0215687895438509 83.7372470598767 
! Gamma         0                0                0                0                
! Port Impedance         50               0                50               0                
8.3                            0.0218250361313479 83.7052110385845 0.998856985282894 -3.91936380261819 0.998856985282893 -3.9193638026182 0.0218250671904079 83.7041529726929 
! Gamma         0                0                0                0                
! Port Impedance         50               0                50               0                
8.4                            0.022081250755307 83.6719264187352 0.998845938296196 -3.96623363534154 0.998845938296195 -3.96623363534154 0.0220812825013051 83.6708550136841 
! Gamma         0                0                0                0                
! Port Impedance         50               0                50               0                
8.5                            0.0223374040470155 83.6384428414278 0.998834874238528 -4.01310061706856 0.998834874238528 -4.01310061706857 0.022337436487021 83.6373580894992 
! Gamma         0                0                0                0                
! Port Impedance         50               0                50               0                
8.6                            0.0225934969608372 83.6047649646325 0.998823792381755 -4.05996482210809 0.998823792381754 -4.0599648221081 0.0225935301018622 83.6036668582352 
! Gamma         0                0                0                0                
! Port Impedance         50               0                50               0                
8.7                            0.0228495303962728 83.5708972170767 0.998812691980498 -4.10682632191899 0.998812691980497 -4.10682632191899 0.0228495642452734 83.5697857487498 
! Gamma         0                0                0                0                
! Port Impedance         50               0                50               0                
8.8                            0.0231055051993127 83.5368438159157 0.998801572274223 -4.15368518515008 0.998801572274223 -4.15368518515008 0.0231055397631905 83.5357189783309 
! Gamma         0                0                0                0                
! Port Impedance         50               0                50               0                
8.9                            0.0233614221638254 83.5026087829028 0.998790432489211 -4.20054147768435 0.998790432489211 -4.20054147768435 0.0233614574494288 83.5014705688668 
! Gamma         0                0                0                0                
! Port Impedance         50               0                50               0                
9                              0.0236172820329704 83.4681959591878 0.998779271840418 -4.24739526268688 0.998779271840417 -4.24739526268688 0.0236173180470956 83.4670443616436 
! Gamma         0                0                0                0                
! Port Impedance         50               0                50               0                
9.1                            0.0238730855006283 83.4336090188605 0.998768089533231 -4.29424660065578 0.998768089533231 -4.29424660065578 0.0238731222500214 83.4324440308882 
! Gamma         0                0                0                0                
! Port Impedance         50               0                50               0                
9.2                            0.0241288332128413 83.3988514813471 0.998756884765128 -4.34109554947588 0.998756884765127 -4.34109554947588 0.0241288707041995 83.3976730961651 
! Gamma         0                0                0                0                
! Port Impedance         50               0                50               0                
9.3                            0.0243845257692573 83.3639267227585 0.998745656727224 -4.3879421644746 0.998745656727223 -4.38794216447459 0.0243845640092309 83.3627349337233 
! Gamma         0                0                0                0                
! Port Impedance         50               0                50               0                
9.4                            0.0246401637245721 83.32883798628   0.998734404605737 -4.43478649847948 0.998734404605736 -4.43478649847948 0.0246402027197658 83.327632786886  
! Gamma         0                0                0                0                
! Port Impedance         50               0                50               0                
9.5                            0.0248957475899641 83.2935883916836 0.998723127583348 -4.48162860187729 0.998723127583347 -4.48162860187729 0.0248957873469389 83.2923697755629 
! Gamma         0                0                0                0                
! Port Impedance         50               0                50               0                
9.6                            0.0251512778345189 83.2581809440401 0.998711824840481 -4.52846852267409 0.99871182484048 -4.52846852267408 0.0251513183597937 83.2569489049616 
! Gamma         0                0                0                0                
! Port Impedance         50               0                50               0                
9.7                            0.0254067548866373 83.2226185416981 0.998700495556493 -4.57530630655605 0.998700495556492 -4.57530630655604 0.0254067961866909 83.2213730735664 
! Gamma         0                0                0                0                
! Port Impedance         50               0                50               0                
9.8                            0.0256621791354261 83.1869039835935 0.998689138910782 -4.62214199695087 0.998689138910781 -4.62214199695086 0.0256622212166987 83.1856450804475 
! Gamma         0                0                0                0                
! Port Impedance         50               0                50               0                
9.9                            0.025917550932067 83.1510399759466 0.99867775408382 -4.66897563508936 0.998677754083819 -4.66897563508935 0.0259175938009622 83.1497676319585 
! Gamma         0                0                0                0                
! Port Impedance         50               0                50               0                
10                             0.0261728705911623 83.1150291384005 0.99866634025811 -4.71580726006706 0.998666340258109 -4.71580726006705 0.0261729142540487 83.1137433478735 
! Gamma         0                0                0                0                
! Port Impedance         50               0                50               0                
10.1                           0.0264281383920545 83.0788740096466 0.998654896619069 -4.76263690890571 0.998654896619068 -4.7626369089057 0.0264281828552674 83.0775747670132 
! Gamma         0                0                0                0                
! Port Impedance         50               0                50               0                
10.2                           0.0266833545801184 83.0425770525836 0.998643422355849 -4.80946461661442 0.998643422355848 -4.80946461661441 0.0266833998499619 83.041264352404  
! Gamma         0                0                0                0                
! Port Impedance         50               0                50               0                
10.3                           0.0269385193680252 83.0061406590491 0.998631916662086 -4.85629041625027 0.998631916662084 -4.85629041625026 0.0269385654507736 83.0048144960083 
! Gamma         0                0                0                0                
! Port Impedance         50               0                50               0                
10.4                           0.0271936329369756 82.9695671541598 0.998620378736598 -4.90311433897835 0.998620378736597 -4.90311433897833 0.0271936798388754 82.968227523066  
! Gamma         0                0                0                0                
! Port Impedance         50               0                50               0                
10.5                           0.0274486954379027 82.9328588002957 0.99860880778402 -4.94993641413101 0.998608807784019 -4.94993641413099 0.0274487431651743 82.9315056960776 
! Gamma         0                0                0                0                
! Port Impedance         50               0                50               0                
10.6                           0.0277037069926437 82.8960178007572 0.99859720301538 -4.9967566692663 0.998597203015379 -4.99675666926628 0.0277037555514829 82.8946512184616 
! Gamma         0                0                0                0                
! Port Impedance         50               0                50               0                
10.7                           0.0279586676950789 82.8590463031246 0.998585563648633 -5.04357513022547 0.998585563648632 -5.04357513022545 0.0279587170916587 82.8576662379137 
! Gamma         0                0                0                0                
! Port Impedance         50               0                50               0                
10.8                           0.0282135776122388 82.8219464023445 0.99857388890914 -5.09039182118942 0.998573888909139 -5.0903918211894 0.0282136278527112 82.8205528494937 
! Gamma         0                0                0                0                
! Port Impedance         50               0                50               0                
10.9                           0.0284684367853794 82.7847201435677 0.998562178030103 -5.13720676473413 0.998562178030102 -5.13720676473411 0.0284684878758768 82.7833130984626 
! Gamma         0                0                0                0                
! Port Impedance         50               0                50               0                
11                             0.0287232452310245 82.747369524759  0.998550430252958 -5.18401998188493 0.998550430252957 -5.18401998188491 0.0287232971776614 82.745948982893  
! Gamma         0                0                0                0                
! Port Impedance         50               0                50               0                
11.1                           0.0289780029419757 82.7098964990994 0.998538644827724 -5.23083149216958 0.998538644827723 -5.23083149216955 0.0289780557508502 82.7084624560709 
! Gamma         0                0                0                0                
! Port Impedance         50               0                50               0                
11.2                           0.0292327098882909 82.6723029771981 0.998526821013321 -5.27764131367019 0.99852682101332 -5.27764131367016 0.0292327635654865 82.6708554287077 
! Gamma         0                0                0                0                
! Port Impedance         50               0                50               0                
11.3                           0.0294873660182312 82.6345908291307 0.998514958077843 -5.3244494630739 0.998514958077841 -5.32444946307387 0.0294874205698178 82.6331297709785 
! Gamma         0                0                0                0                
! Port Impedance         50               0                50               0                
11.4                           0.0297419712591757 82.5967618863186 0.998503055298804 -5.37125595572221 0.998503055298803 -5.37125595572218 0.0297420266912116 82.5952873144016 
! Gamma         0                0                0                0                
! Port Impedance         50               0                50               0                
11.5                           0.0299965255185062 82.5588179432639 0.998491111963354 -5.41806080565922 0.998491111963352 -5.41806080565919 0.0299965818370393 82.5573298535732 
! Gamma         0                0                0                0                
! Port Impedance         50               0                50               0                
11.6                           0.0302510286844617 82.5207607591511 0.998479127368459 -5.46486402567839 0.998479127368458 -5.46486402567836 0.0302510858955309 82.5192591477692 
! Gamma         0                0                0                0                
! Port Impedance         50               0                50               0                
11.7                           0.0305054806269624 82.4825920593281 0.998467100821062 -5.51166562736819 0.99846710082106 -5.51166562736815 0.030505538736599 82.4810769224261 
! Gamma         0                0                0                0                
! Port Impedance         50               0                50               0                
11.8                           0.0307598811984058 82.4443135366763 0.998455031638209 -5.55846562115633 0.998455031638207 -5.55846562115629 0.0307599402126346 82.4427848705114 
! Gamma         0                0                0                0                
! Port Impedance         50               0                50               0                
11.9                           0.0310142302344327 82.4059268528799 0.998442919147162 -5.60526401635284 0.99844291914716 -5.6052640163528 0.0310142901592738 82.4043846537925 
! Gamma         0                0                0                0                
! Port Impedance         50               0                50               0                
12                             0.0312685275546673 82.3674336396022 0.998430762685481 -5.65206082119179 0.99843076268548 -5.65206082119175 0.031268588396137 82.3658779040136 
! Gamma         0                0                0                0                
! Port Impedance         50               0                50               0                
12.1                           0.0315227729634288 82.3288354995778 0.998418561601095 -5.6988560428718 0.998418561601093 -5.69885604287175 0.0315228347275408 82.3272662239876 
! Gamma         0                0                0                0                
! Port Impedance         50               0                50               0                
12.2                           0.0317769662504168 82.290134007628  0.998406315252339 -5.74564968759527 0.998406315252338 -5.74564968759523 0.0317770289431835 82.2885511886109 
! Gamma         0                0                0                0                
! Port Impedance         50               0                50               0                
12.3                           0.0320311071913719 82.2513307116042 0.998394023007992 -5.79244176060646 0.998394023007991 -5.79244176060642 0.0320311708188057 82.2497343458084 
! Gamma         0                0                0                0                
! Port Impedance         50               0                50               0                
12.4                           0.0322851955487104 82.2124271332686 0.998381684247284 -5.83923226622829 0.998381684247283 -5.83923226622824 0.0322852601168244 82.2108172174129 
! Gamma         0                0                0                0                
! Port Impedance         50               0                50               0                
12.5                           0.0325392310721353 82.1734247691147 0.998369298359898 -5.88602120789797 0.998369298359896 -5.88602120789792 0.0325392965869447 82.1718012999858 
! Gamma         0                0                0                0                
! Port Impedance         50               0                50               0                
12.6                           0.0327932134992232 82.1343250911339 0.998356864745948 -5.9328085882015 0.998356864745946 -5.93280858820145 0.0327932799667465 82.1326880655843 
! Gamma         0                0                0                0                
! Port Impedance         50               0                50               0                
12.7                           0.0330471425559897 82.0951295475333 0.998344382815957 -5.97959440890702 0.998344382815955 -5.97959440890697 0.0330472099822494 82.093478962479  
! Gamma         0                0                0                0                
! Port Impedance         50               0                50               0                
12.8                           0.0333010179574314 82.0558395634079 0.998331851990811 -6.026378670997  0.99833185199081 -6.02637867099695 0.0333010863484549 82.054175415826  
! Gamma         0                0                0                0                
! Port Impedance         50               0                50               0                
12.9                           0.0335548394080472 82.0164565413718 0.998319271701713 -6.07316137469941 0.998319271701712 -6.07316137469936 0.0335549087698682 82.0147788282983 
! Gamma         0                0                0                0                
! Port Impedance         50               0                50               0                
13                             0.0338086066023392 81.9769818621516 0.998306641390118 -6.11994251951775 0.998306641390116 -6.11994251951769 0.0338086769409981 81.9752905806789 
! Gamma         0                0                0                0                
! Port Impedance         50               0                50               0                
13.1                           0.0340623192252932 81.9374168851447 0.998293960507663 -6.1667221042601 0.998293960507661 -6.16672210426005 0.0340623905468383 81.9357120324199 
! Gamma         0                0                0                0                
! Port Impedance         50               0                50               0                
13.2                           0.0343159769528401 81.8977629489465 0.998281228516093 -6.21350012706716 0.998281228516092 -6.2135001270671 0.0343160492633285 81.8960445221691 
! Gamma         0                0                0                0                
! Port Impedance         50               0                50               0                
13.3                           0.0345695794522991 81.8580213718486 0.998268444887174 -6.26027658543923 0.998268444887172 -6.26027658543917 0.0345696527577974 81.8562893682682 
! Gamma         0                0                0                0                
! Port Impedance         50               0                50               0                
13.4                           0.0348231263828026 81.8181934523096 0.998255609102599 -6.30705147626231 0.998255609102597 -6.30705147626226 0.0348232006893875 81.8164478692243 
! Gamma         0                0                0                0                
! Port Impedance         50               0                50               0                
13.5                           0.0350766173957038 81.7782804694027 0.998242720653895 -6.35382479583327 0.998242720653893 -6.35382479583321 0.0350766927094632 81.7765213041567 
! Gamma         0                0                0                0                
! Port Impedance         50               0                50               0                
13.6                           0.0353300521349679 81.7382836832396 0.998229779042313 -6.400596539884  0.998229779042311 -6.40059653988394 0.0353301284620014 81.7365109332217 
! Gamma         0                0                0                0                
! Port Impedance         50               0                50               0                
13.7                           0.0355834302375472 81.6982043353753 0.998216783778729 -6.44736670360485 0.998216783778728 -6.44736670360479 0.0355835075839671 81.6964179980168 
! Gamma         0                0                0                0                
! Port Impedance         50               0                50               0                
13.8                           0.0358367513337408 81.6580436491926 0.998203734383525 -6.49413528166709 0.998203734383523 -6.49413528166703 0.0358368297056723 81.6562437219653 
! Gamma         0                0                0                0                
! Port Impedance         50               0                50               0                
13.9                           0.0360900150475392 81.6178028302702 0.998190630386476 -6.54090226824457 0.998190630386474 -6.54090226824451 0.0360900944511214 81.6159893106852 
! Gamma         0                0                0                0                
! Port Impedance         50               0                50               0                
14                             0.0363432209969547 81.5774830667347 0.99817747132663 -6.58766765703465 0.998177471326628 -6.58766765703459 0.0363433014383412 81.5756559523401 
! Gamma         0                0                0                0                
! Port Impedance         50               0                50               0                
14.1                           0.0365963687943386 81.5370855295977 0.998164256752187 -6.63443144127825 0.998164256752185 -6.63443144127818 0.0365964502796979 81.5352448179771 
! Gamma         0                0                0                0                
! Port Impedance         50               0                50               0                
14.2                           0.036849458046684 81.4966113730793 0.998150986220375 -6.68119361377919 0.998150986220373 -6.68119361377912 0.0368495405822004 81.4947570618504 
! Gamma         0                0                0                0                
! Port Impedance         50               0                50               0                
14.3                           0.0371024883559174 81.4560617349196 0.998137659297323 -6.72795416692285 0.998137659297321 -6.72795416692279 0.0371025719477911 81.4541938217322 
! Gamma         0                0                0                0                
! Port Impedance         50               0                50               0                
14.4                           0.0373554593191765 81.4154377366779 0.998124275557932 -6.77471309269408 0.998124275557931 -6.77471309269402 0.0373555439736246 81.4135562192128 
! Gamma         0                0                0                0                
! Port Impedance         50               0                50               0                
14.5                           0.0376083705290775 81.3747404840224 0.99811083458575 -6.82147038269442 0.998110834585748 -6.82147038269435 0.0376084562523341 81.3728453599895 
! Gamma         0                0                0                0                
! Port Impedance         50               0                50               0                
14.6                           0.0378612215739705 81.3339710670086 0.998097335972833 -6.86822602815866 0.998097335972832 -6.8682260281586 0.0378613083722874 81.3320623341457 
! Gamma         0                0                0                0                
! Port Impedance         50               0                50               0                
14.7                           0.0381140120381845 81.2931305603497 0.998083779319625 -6.91498001997087 0.998083779319623 -6.91498001997081 0.0381140999178316 81.2912082164211 
! Gamma         0                0                0                0                
! Port Impedance         50               0                50               0                
14.8                           0.0383667415022612 81.2522200236781 0.998070164234816 -6.96173234867966 0.998070164234814 -6.9617323486796 0.038366830469527 81.2502840664731 
! Gamma         0                0                0                0                
! Port Impedance         50               0                50               0                
14.9                           0.0386194095431799 81.2112405017991 0.998056490335216 -7.00848300451296 0.998056490335214 -7.00848300451289 0.0386194996043718 81.2092909291306 
! Gamma         0                0                0                0                
! Port Impedance         50               0                50               0                
15                             0.0388720157345722 81.1701930249369 0.998042757245621 -7.05523197739217 0.99804275724562 -7.0552319773921 0.0388721068960168 81.1682298346405 
! Gamma         0                0                0                0                
! Port Impedance         50               0                50               0                
15.1                           0.0391245596469272 81.1290786089746 0.998028964598682 -7.10197925694583 0.99802896459868 -7.10197925694576 0.039124651914971 81.1271017989067 
! Gamma         0                0                0                0                
! Port Impedance         50               0                50               0                
15.2                           0.0393770408477888 81.0878982556865 0.99801511203477 -7.14872483252267 0.998015112034769 -7.14872483252261 0.0393771342287983 81.0859078237238 
! Gamma         0                0                0                0                
! Port Impedance         50               0                50               0                
15.3                           0.0396294589019439 81.046652952966  0.998001199201849 -7.19546869320425 0.998001199201847 -7.19546869320418 0.039629553402306 81.0446488970037 
! Gamma         0                0                0                0                
! Port Impedance         50               0                50               0                
15.4                           0.0398818133716025 81.0053436750463 0.997987225755341 -7.24221082781696 0.99798722575534 -7.24221082781689 0.0398819089977247 81.0033259929976 
! Gamma         0                0                0                0                
! Port Impedance         50               0                50               0                
15.5                           0.0401341038165703 80.9639713827173 0.997973191358001 -7.28895122494373 0.997973191357999 -7.28895122494366 0.0401342005748812 80.9619400725118 
! Gamma         0                0                0                0                
! Port Impedance         50               0                50               0                
15.6                           0.0403863297944134 80.9225370235364 0.997959095679781 -7.33568987293516 0.99795909567978 -7.33568987293509 0.0403864276913629 80.920492083119  
! Gamma         0                0                0                0                
! Port Impedance         50               0                50               0                
15.7                           0.0406384908606169 80.881041532035  0.99794493839771 -7.38242675992019 0.997944938397709 -7.38242675992012 0.0406385899026765 80.8789829593653 
! Gamma         0                0                0                0                
! Port Impedance         50               0                50               0                
15.8                           0.0408905865687351 80.8394858299209 0.997930719195761 -7.42916187381646 0.997930719195759 -7.42916187381639 0.0408906867623979 80.8374136229719 
! Gamma         0                0                0                0                
! Port Impedance         50               0                50               0                
15.9                           0.0411426164705363 80.7978708262762 0.997916437764725 -7.47589520234016 0.997916437764724 -7.47589520234009 0.0411427178223178 80.7957849830333 
! Gamma         0                0                0                0                
! Port Impedance         50               0                50               0                
16                             0.0413945801161412 80.7561974177507 0.997902093802092 -7.52262673301552 0.997902093802091 -7.52262673301545 0.0413946826325788 80.754097936211  
! Gamma         0                0                0                0                
! Port Impedance         50               0                50               0                
16.1                           0.0416464770541548 80.714466488753  0.997887687011922 -7.56935645318394 0.997887687011921 -7.56935645318387 0.0416465807418085 80.712353366924  
! Gamma         0                0                0                0                
! Port Impedance         50               0                50               0                
16.2                           0.0418983068317925 80.6726789116362 0.997873217104726 -7.61608435001271 0.997873217104724 -7.61608435001264 0.0418984116972449 80.6705521475354 
! Gamma         0                0                0                0                
! Port Impedance         50               0                50               0                
16.3                           0.0421500689950015 80.6308355468813 0.997858683797343 -7.66281041050343 0.997858683797341 -7.66281041050337 0.0421501750448582 80.6286951385351 
! Gamma         0                0                0                0                
! Port Impedance         50               0                50               0                
16.4                           0.042401763088576 80.5889372432772 0.997844086812825 -7.70953462150007 0.997844086812823 -7.70953462150001 0.0424018703294654 80.5867831887199 
! Gamma         0                0                0                0                
! Port Impedance         50               0                50               0                
16.5                           0.0426533886562677 80.5469848380966 0.997829425880316 -7.75625696969669 0.997829425880315 -7.75625696969662 0.0426534970948414 80.5448171353701 
! Gamma         0                0                0                0                
! Port Impedance         50               0                50               0                
16.6                           0.0429049452408916 80.5049791572705 0.99781470073494 -7.80297744164485 0.997814700734938 -7.80297744164478 0.0429050548838245 80.5027978044231 
! Gamma         0                0                0                0                
! Port Impedance         50               0                50               0                
16.7                           0.0431564323844266 80.4629210155581 0.997799911117682 -7.84969602376076 0.99779991111768 -7.8496960237607 0.043156543238417 80.4607260106438 
! Gamma         0                0                0                0                
! Port Impedance         50               0                50               0                
16.8                           0.0434078496281125 80.4208112167146 0.997785056775281 -7.89641270233213 0.997785056775279 -7.89641270233207 0.043407961699882 80.4186025577927 
! Gamma         0                0                0                0                
! Port Impedance         50               0                50               0                
16.9                           0.0436591965125416 80.3786505536566 0.997770137460114 -7.94312746352464 0.997770137460112 -7.94312746352458 0.0436593098088357 80.3764282387908 
! Gamma         0                0                0                0                
! Port Impedance         50               0                50               0                
17                             0.0439104725777474 80.3364398086243 0.997755152930092 -7.98984029338832 0.997755152930091 -7.98984029338826 0.0439105871053352 80.3342038358818 
! Gamma         0                0                0                0                
! Port Impedance         50               0                50               0                
17.1                           0.0441616773632885 80.294179753341  0.99774010294855 -8.03655117786355 0.997740102948549 -8.03655117786349 0.0441617931289629 80.2919301207924 
! Gamma         0                0                0                0                
! Port Impedance         50               0                50               0                
17.2                           0.0444128104083295 80.2518711491707 0.99772498728414 -8.08326010278681 0.997724987284138 -8.08326010278676 0.0444129274189072 80.2496078548889 
! Gamma         0                0                0                0                
! Port Impedance         50               0                50               0                
17.3                           0.0446638712517174 80.2095147472728 0.99770980571073 -8.12996705389629 0.997709805710729 -8.12996705389623 0.044663989514039 80.2072377893327 
! Gamma         0                0                0                0                
! Port Impedance         50               0                50               0                
17.4                           0.0449148594320552 80.1671112887545 0.997694558007301 -8.17667201683715 0.9976945580073  -8.17667201683709 0.0449149789529853 80.1648206652322 
! Gamma         0                0                0                0                
! Port Impedance         50               0                50               0                
17.5                           0.0451657744877724 80.1246615048211 0.997679243957847 -8.22337497716665 0.997679243957846 -8.2233749771666 0.0451658952741996 80.1223572137934 
! Gamma         0                0                0                0                
! Port Impedance         50               0                50               0                
17.6                           0.0454166159571917 80.0821661169235 0.997663863351274 -8.27007592035905 0.997663863351273 -8.270075920359  0.0454167380160288 80.0798481564676 
! Gamma         0                0                0                0                
! Port Impedance         50               0                50               0                
17.7                           0.0456673833785934 80.0396258369042 0.997648415981307 -8.31677483181027 0.997648415981306 -8.31677483181022 0.0456675067167769 80.0372942050968 
! Gamma         0                0                0                0                
! Port Impedance         50               0                50               0                
17.8                           0.0459180762902761 79.9970413671404 0.997632901646392 -8.36347169684241 0.997632901646391 -8.36347169684236 0.0459182009147669 79.9946960620576 
! Gamma         0                0                0                0                
! Port Impedance         50               0                50               0                
17.9                           0.0461686942306156 79.9544134006857 0.997617320149602 -8.41016650070803 0.997617320149601 -8.41016650070798 0.0461688201483984 79.9520544204022 
! Gamma         0                0                0                0                
! Port Impedance         50               0                50               0                
18                             0.0464192367381201 79.9117426214091 0.997601671298551 -8.4568592285943 0.99760167129855 -8.45685922859425 0.0464193639562039 79.9093699639979 
! Gamma         0                0                0                0                
! Port Impedance         50               0                50               0                
18.1                           0.046669703351484 79.869029704132  0.997585954905295 -8.50354986562694 0.997585954905294 -8.50354986562689 0.0466698318769017 79.8666433676639 
! Gamma         0                0                0                0                
! Port Impedance         50               0                50               0                
18.2                           0.0469200936096384 79.8262753147638 0.997570170786251 -8.55023839687402 0.997570170786251 -8.55023839687397 0.0469202234494472 79.8238752973068 
! Gamma         0                0                0                0                
! Port Impedance         50               0                50               0                
18.3                           0.0471704070517999 79.7834801104345 0.997554318762109 -8.5969248073496 0.997554318762108 -8.59692480734956 0.0471705382130807 79.7810664100539 
! Gamma         0                0                0                0                
! Port Impedance         50               0                50               0                
18.4                           0.0474206432175166 79.7406447396264 0.997538398657743 -8.64360908201718 0.997538398657742 -8.64360908201713 0.0474207757073744 79.7382173543839 
! Gamma         0                0                0                0                
! Port Impedance         50               0                50               0                
18.5                           0.0476708016467123 79.6977698423033 0.997522410302133 -8.69029120579304 0.997522410302132 -8.69029120579301 0.0476709354722762 79.6953287702567 
! Gamma         0                0                0                0                
! Port Impedance         50               0                50               0                
18.6                           0.0479208818797291 79.6548560500375 0.997506353528279 -8.73697116354948 0.997506353528279 -8.73697116354944 0.0479210170481518 79.6524012892406 
! Gamma         0                0                0                0                
! Port Impedance         50               0                50               0                
18.7                           0.0481708834573671 79.6119039861358 0.997490228173126 -8.78364894011778 0.997490228173125 -8.78364894011775 0.0481710199758255 79.6094355346377 
! Gamma         0                0                0                0                
! Port Impedance         50               0                50               0                
18.8                           0.0484208059209232 79.5689142657629 0.997474034077478 -8.83032452029124 0.997474034077477 -8.8303245202912 0.0484209437966177 79.5664321216079 
! Gamma         0                0                0                0                
! Port Impedance         50               0                50               0                
18.9                           0.0486706488122274 79.5258874960634 0.99745777108593 -8.87699788882787 0.997457771085929 -8.87699788882784 0.0486707880523824 79.5233916572906 
! Gamma         0                0                0                0                
! Port Impedance         50               0                50               0                
19                             0.0489204116736782 79.482824276282  0.997441439046783 -8.92366903045316 0.997441439046783 -8.92366903045313 0.0489205522855415 79.4803147409249 
! Gamma         0                0                0                0                
! Port Impedance         50               0                50               0                
19.1                           0.0491700940482752 79.4397251978813 0.99742503781198 -8.97033792986261 0.99742503781198 -8.97033792986259 0.0491702360391184 79.4372019639677 
! Gamma         0                0                0                0                
! Port Impedance         50               0                50               0                
19.2                           0.0494196954796515 79.396590844659  0.997408567237026 -9.01700457172419 0.997408567237026 -9.01700457172417 0.0494198388567695 79.3940539102105 
! Gamma         0                0                0                0                
! Port Impedance         50               0                50               0                
19.3                           0.0496692155121037 79.3534217928624 0.997392027180921 -9.06366894068068 0.99739202718092 -9.06366894068066 0.0496693602828149 79.3508711558943 
! Gamma         0                0                0                0                
! Port Impedance         50               0                50               0                
19.4                           0.0499186536906206 79.3102186113018 0.997375417506086 -9.11033102135195 0.997375417506086 -9.11033102135194 0.0499187998622668 79.3076542698225 
! Gamma         0                0                0                0                
! Port Impedance         50               0                50               0                
19.5                           0.0501680095609111 79.2669818614615 0.997358738078305 -9.15699079833709 0.997358738078304 -9.15699079833708 0.0501681571408573 79.2644038134728 
! Gamma         0                0                0                0                
! Port Impedance         50               0                50               0                
19.6                           0.05041728266943 79.2237120976102 0.997341988766645 -9.20364825621647 0.997341988766644 -9.20364825621646 0.0504174316650643 79.2211203411065 
! Gamma         0                0                0                0                
! Port Impedance         50               0                50               0                
19.7                           0.0506664725634033 79.1804098669089 0.997325169443401 -9.25030337955372 0.9973251694434  -9.25030337955371 0.0506666229821367 79.1778043998773 
! Gamma         0                0                0                0                
! Port Impedance         50               0                50               0                
19.8                           0.0509155787908516 79.1370757095175 0.997308279984027 -9.2969561528976 0.997308279984027 -9.2969561528976 0.0509157306401183 79.1344565299375 
! Gamma         0                0                0                0                
! Port Impedance         50               0                50               0                
19.9                           0.0511646009006133 79.0937101586999 0.997291320267077 -9.34360656078382 0.997291320267077 -9.34360656078381 0.0511647541878701 79.091077264543  
! Gamma         0                0                0                0                
! Port Impedance         50               0                50               0                
20                             0.0514135384423656 79.0503137409272 0.997274290174141 -9.39025458773672 0.997274290174141 -9.39025458773672 0.051413693175092 79.047667130157  
! Gamma         -0               -0               -0               -0               
! Port Impedance         50               0                50               0                
