! Touchstone file exported from HFSS 2026.1.0
!        File:           C:/ffzhzh/LocalFiles/Ansys_Project_Files/temp_train_TSV_643_1783026506_53980.aedt
!        Generated:      05:09:48 AM Jul  3, 2026
!        Design:         TSV
!        Project:        temp_train_TSV_643_1783026506_53980
!
! Variables:
!        h_bsmrdl = 2um
!        h_ox = 20um
!        h_rdl = 5um
!        h_sub = 98.78um
!        h_tmrdl = 5um
!        h_tsv = 98.78um
!        h_via = 3um
!        l_bsmrdl = 300um
!        l_sub = 429.22um
!        l_tmrdl = 200um
!        m_sub = 200um
!        pitch = 57.8um
!        r_tsv = 14.61um
!        s_tmrdl = 10um
!        w_bsmrdl = 18um
!        w_sub = 500um
!        w_tmrdl = 12um
!        x_tsv_center1 = 206um
!        x_tsv_center2 = 524um
!        x_tsv_center3 = 736um
!        x_tsv_center4 = 1054um
!        x_tsv_center5 = 1266um
!        x_tsv_center6 = 1584um
!
# GHz S MA R 50.000000
! Terminal data exported
! Port[1] = TSV1_1_T1
! Port[2] = TSV1_1_T2
0.1                            9.34996759293584E-05 24.9161963270175 0.999915237793622 -0.0519868755683671 0.999915237793622 -0.0519868755683647 9.3499653469693E-05 24.9161882804518 
! Gamma         0                0                0                0                
! Port Impedance         50               0                50               0                
0.2                            0.000125492548938444 36.2403981573402 0.999899030380965 -0.103716660115536 0.999899030380966 -0.103716660115533 0.000125493026877038 36.2396336882483 
! Gamma         0                0                0                0                
! Port Impedance         50               0                50               0                
0.3                            0.000160858201382062 39.067440967501  0.999875594995693 -0.155019152473456 0.999875594995693 -0.155019152473457 0.00016085798684055 39.0659259237855 
! Gamma         0                0                0                0                
! Port Impedance         50               0                50               0                
0.4                            0.000193776278533169 38.2958548365775 0.999848591256749 -0.205842674010461 0.999848591256749 -0.205842674010469 0.000193774178841588 38.2938355702111 
! Gamma         0                0                0                0                
! Port Impedance         50               0                50               0                
0.5                            0.000222450487966251 36.1074645453836 0.999821040438367 -0.256228204448174 0.999821040438367 -0.256228204448188 0.000222445691640267 36.1051839466431 
! Gamma         0                0                0                0                
! Port Impedance         50               0                50               0                
0.6                            0.000246711354374041 33.4384841069318 0.999794883520591 -0.30626203578123 0.999794883520591 -0.306262035781252 0.000246703483159433 33.4361322576909 
! Gamma         0                0                0                0                
! Port Impedance         50               0                50               0                
0.7                            0.000267027493339979 30.69919021542   0.999771080855092 -0.356037651024337 0.999771080855092 -0.356037651024368 0.000267016509916741 30.6969011645464 
! Gamma         0                0                0                0                
! Port Impedance         50               0                50               0                
0.8                            0.000284058454827124 28.0658106865472 0.999749917506866 -0.405635772038633 0.999749917506866 -0.40563577203867 0.00028404453695244 28.0636716986309 
! Gamma         0                0                0                0                
! Port Impedance         50               0                50               0                
0.9                            0.000298455741333685 25.606170869329  0.99973129553179 -0.455118295758806 0.99973129553179 -0.455118295758848 0.000298439176376167 25.6042339703777 
! Gamma         0                0                0                0                
! Port Impedance         50               0                50               0                
1                              0.000310786788193087 23.3374018849812 0.999714939286838 -0.50452939339676 0.999714939286838 -0.504529393396805 0.000310767901674778 23.3356940601223 
! Gamma         0                0                0                0                
! Port Impedance         50               0                50               0                
1.1                            0.000321517161007848 21.2535424157717 0.999700516738598 -0.553899105830025 0.999700516738597 -0.553899105830074 0.000321496274546136 21.2520734965013 
! Gamma         0                0                0                0                
! Port Impedance         50               0                50               0                
1.2                            0.000331017285019232 19.3389800948979 0.999687702022456 -0.603247126399514 0.999687702022456 -0.603247126399565 0.000330994694637324 19.3377484621577 
! Gamma         0                0                0                0                
! Port Impedance         50               0                50               0                
1.3                            0.000339577320511482 17.5749836847706 0.999676202923113 -0.652585932192071 0.999676202923112 -0.652585932192124 0.000339553287433295 17.5739802444826 
! Gamma         0                0                0                0                
! Port Impedance         50               0                50               0                
1.4                            0.000347422950224317 15.9427963097391 0.999665769537715 -0.701923118677465 0.999665769537714 -0.701923118677519 0.000347397698665631 15.9420072104923 
! Gamma         0                0                0                0                
! Port Impedance         50               0                50               0                
1.5                            0.000354729335230906 14.4250049977411 0.999656193808335 -0.751263047601647 0.999656193808335 -0.751263047601702 0.000354703053775561 14.4244134714203 
! Gamma         0                0                0                0                
! Port Impedance         50               0                50               0                
1.6                            0.000361632526017814 13.0060512579285 0.999647305204007 -0.800607974716606 0.999647305204007 -0.800607974716662 0.000361605370607853 13.0056388625969 
! Gamma         0                0                0                0                
! Port Impedance         50               0                50               0                
1.7                            0.000368238439284252 11.6723233856313 0.999638965229136 -0.849958807617107 0.999638965229136 -0.849958807617163 0.000368210536751503 11.6720708454202 
! Gamma         0                0                0                0                
! Port Impedance         50               0                50               0                
1.8                            0.000374629782291504 10.4120557213997 0.999631062007867 -0.899315609316024 0.999631062007867 -0.899315609316081 0.000374601233884482 10.4119434955631 
! Gamma         0                0                0                0                
! Port Impedance         50               0                50               0                
1.9                            0.000380871344704622 9.21514922082605 0.999623505454147 -0.948677930292788 0.999623505454146 -0.948677930292845 0.00038084222935908 9.21515789038038 
! Gamma         0                0                0                0                
! Port Impedance         50               0                50               0                
2                              0.000387014029995616 8.07297023497864 0.999616223174557 -0.998045026012029 0.999616223174556 -0.998045026012085 0.000386984407254762 8.07308076571274 
! Gamma         0                0                0                0                
! Port Impedance         50               0                50               0                
2.1                            0.000393097928357632 6.97815458861548 0.999609157086153 -1.0474159983834 0.999609157086152 -1.04741599838345 0.000393067840928168 6.97834850951029 
! Gamma         0                0                0                0                
! Port Impedance         50               0                50               0                
2.2                            0.000399154665803421 5.92442867384541 0.999602260666319 -1.09678988684995 0.999602260666318 -1.09678988685   0.000399124141770989 5.92468819689588 
! Gamma         0                0                0                0                
! Port Impedance         50               0                50               0                
2.3                            0.000405209207753669 4.90645149426182 0.999595496734317 -1.14616572616811 0.999595496734316 -1.14616572616816 0.000405178262496029 4.90675959310941 
! Gamma         0                0                0                0                
! Port Impedance         50               0                50               0                
2.4                            0.000411281251035066 3.91967779923041 0.999588835668113 -1.19554258219269 0.999588835668112 -1.19554258219274 0.000411249888874506 3.9200182583684  
! Gamma         0                0                0                0                
! Port Impedance         50               0                50               0                
2.5                            0.000417386304362185 2.96024073532184 0.999582253972116 -1.24491957316813 0.999582253972115 -1.24491957316818 0.000417354519996394 2.96059817791614 
! Gamma         0                0                0                0                
! Port Impedance         50               0                50               0                
2.6                            0.000423536532006394 2.02485179957757 0.999575733125503 -1.29429588150495 0.999575733125503 -1.294295881505  0.000423504311752489 2.02521169948783 
! Gamma         0                0                0                0                
! Port Impedance         50               0                50               0                
2.7                            0.000429741416500994 1.11071576934294 0.999569258653995 -1.34367075934988 0.999569258653994 -1.34367075934993 0.000429708739382312 1.11106445129487 
! Gamma         0                0                0                0                
! Port Impedance         50               0                50               0                
2.8                            0.000436008282270227 0.215458421485266 0.999562819379408 -1.39304353015078 0.999562819379406 -1.39304353015083 0.00043597512097061 0.215783052251291 
! Gamma         0                0                0                0                
! Port Impedance         50               0                50               0                
2.9                            0.000442342711734194 -0.662934908099822 0.999556406810777 -1.44241358768099 0.999556406810776 -1.44241358768104 0.000442309033440139 -0.662646335395298 
! Gamma         0                0                0                0                
! Port Impedance         50               0                50               0                
3                              0.000448748877776431 -1.52617161056741 0.999550014648467 -1.491780393497  0.999550014648466 -1.49178039349704 0.000448714644923813 -1.52593029741017 
! Gamma         0                0                0                0                
! Port Impedance         50               0                50               0                
3.1                            0.000455229810757565 -2.37569636908896 0.999543638378752 -1.5411434734753 0.999543638378751 -1.54114347347535 0.000455194981696573 -2.37551273655282 
! Gamma         0                0                0                0                
! Port Impedance         50               0                50               0                
3.2                            0.000461787613997103 -3.21272920928869 0.999537274941115 -1.59050241385496 0.999537274941114 -1.590502413855  0.000461752143586528 -3.21261292603268 
! Gamma         0                0                0                0                
! Port Impedance         50               0                50               0                
3.3                            0.000468423638446074 -4.03829804551265 0.999530922454249 -1.63985685706494 0.999530922454248 -1.63985685706498 0.000468387478586085 -4.03825805798871 
! Gamma         0                0                0                0                
! Port Impedance         50               0                50               0                
3.4                            0.000475138624858586 -4.85326656704373 0.999524579989669 -1.68920649751687 0.999524579989668 -1.68920649751691 0.000475101724969526 -4.85331113125021 
! Gamma         0                0                0                0                
! Port Impedance         50               0                50               0                
3.5                            0.000481932819937929 -5.65835816929788 0.999518247384117 -1.73855107747755 0.999518247384116 -1.73855107747758 0.000481895127391352 -5.65849488352563 
! Gamma         0                0                0                0                
! Port Impedance         50               0                50               0                
3.6                            0.000488806071534296 -6.4541765195359 0.999511925083721 -1.78789038309129 0.99951192508372 -1.78789038309133 0.000488767532041473 -6.45441235764546 
! Gamma         0                0                0                0                
! Port Impedance         50               0                50               0                
3.7                            0.000495757906897677 -7.24122325106853 0.999505614014302 -1.837224240593  0.999505614014301 -1.83722424059303 0.000495718464859957 -7.24156459591206 
! Gamma         0                0                0                0                
! Port Impedance         50               0                50               0                
3.8                            0.0005027875971607 -8.01991320098366 0.999499315473267 -1.88655251273304 0.999499315473266 -1.88655251273306 0.000502747195985488 -8.02036587764945 
! Gamma         0                0                0                0                
! Port Impedance         50               0                50               0                
3.9                            0.000509894210582695 -8.79058754117456 0.99949303103945 -1.93587509542267 0.999493031039449 -1.9358750954227 0.000509852792968254 -8.79115684978719 
! Gamma         0                0                0                0                
! Port Impedance         50               0                50               0                
4                              0.00051707665658372 -9.55352509843448 0.999486762497901 -1.9851919146003 0.9994867624979  -1.98519191460032 0.000517034164775631 -9.55421584629157 
! Gamma         0                0                0                0                
! Port Impedance         50               0                50               0                
4.1                            0.000524333722202799 -10.3089521145611 0.999480511777207 -2.03450292331378 0.999480511777206 -2.0345029233138 0.000524290098224522 -10.3097686474294 
! Gamma         0                0                0                0                
! Port Impedance         50               0                50               0                
4.2                            0.000531664102303059 -11.0570506601045 0.999474280897335 -2.083808099011  0.999474280897333 -2.08380809901102 0.000531619288162815 -11.0579968925344 
! Gamma         0                0                0                0                
! Port Impedance         50               0                50               0                
4.3                            0.000539066424599277 -11.7979658842248 0.999468071926345 -2.13310744102903 0.999468071926344 -2.13310744102905 0.000539020362475191 -11.7990453287758 
! Gamma         0                0                0                0                
! Port Impedance         50               0                50               0                
4.4                            0.000546539270386098 -12.5318122569964 0.999461886944617 -2.18240096827145 0.999461886944616 -2.18240096827146 0.000546491902791402 -12.5330280522906 
! Gamma         0                0                0                0                
! Port Impedance         50               0                50               0                
4.5                            0.000554081191687077 -13.2586789384913 0.999455728015432 -2.23168871706295 0.999455728015431 -2.23168871706296 0.000554032461616977 -13.2600338760408 
! Gamma         0                0                0                0                
! Port Impedance         50               0                50               0                
4.6                            0.000561690725417325 -13.9786343903888 0.999449597160964 -2.28097073917059 0.999449597160963 -2.2809707391706 0.000561640576479005 -13.9801309401587 
! Gamma         0                0                0                0                
! Port Impedance         50               0                50               0                
4.7                            0.000569366405049431 -14.6917303300792 0.99944349634286 -2.33024709998124 0.999443496342859 -2.33024709998125 0.000569314781576571 -14.6933706647699 
! Gamma         0                0                0                0                
! Port Impedance         50               0                50               0                
4.8                            0.00057710677018859 -15.3980051137988 0.999437427446748 -2.37951787682515 0.999437427446746 -2.37951787682515 0.000577053617341637 -15.3997911318427 
! Gamma         0                0                0                0                
! Port Impedance         50               0                50               0                
4.9                            0.00058491037439441 -16.0974866238478 0.999431392270069 -2.42878315743601 0.999431392270068 -2.42878315743602 0.000584855638247781 -16.0994199711305 
! Gamma         0                0                0                0                
! Port Impedance         50               0                50               0                
5                              0.000592775791530882 -16.7901947250947 0.999425392512757 -2.47804303853871 0.999425392512756 -2.47804303853872 0.000592719419148164 -16.7922768154203 
! Gamma         0                0                0                0                
! Port Impedance         50               0                50               0                
5.1                            0.000600701620879819 -17.4761433474975 0.99941942977033 -2.52729762455583 0.999419429770329 -2.52729762455583 0.000600643560377984 -17.4783753818252 
! Gamma         0                0                0                0                
! Port Impedance         50               0                50               0                
5.2                            0.000608686491215056 -18.1553422440573 0.999413505529045 -2.57654702642514 0.999413505529044 -2.57654702642514 0.000608626691818619 -18.1577252285441 
! Gamma         0                0                0                0                
! Port Impedance         50               0                50               0                
5.3                            0.000616729064003117 -18.827798467294 0.999407621162778 -2.62579136052033 0.999407621162777 -2.62579136052033 0.000616667476089106 -18.8303332301842 
! Gamma         0                0                0                0                
! Port Impedance         50               0                50               0                
5.4                            0.000624828035869867 -19.4935176018454 0.999401777931396 -2.6750307476679 0.999401777931395 -2.6750307476679 0.000624764611004425 -19.4962048092489 
! Gamma         0                0                0                0                
! Port Impedance         50               0                50               0                
5.5                            0.000632982140450808 -20.1525047860218 0.99939597698035 -2.72426531225339 0.999395976980349 -2.72426531225339 0.000632916831418176 -20.1553449566291 
! Gamma         0                0                0                0                
! Port Impedance         50               0                50               0                
5.6                            0.000641190149724397 -20.8047655509912 0.999390219341317 -2.77349518141073 0.999390219341316 -2.77349518141073 0.000641122910548981 -20.8077590697729 
! Gamma         0                0                0                0                
! Port Impedance         50               0                50               0                
5.7                            0.000649450874912478 -21.4503065026516 0.999384505933692 -2.82272048428871 0.999384505933692 -2.8227204842887 0.000649381660874654 -21.4534536335913 
! Gamma         0                0                0                0                
! Port Impedance         50               0                50               0                
5.8                            0.000657763167019013 -22.0891358680764 0.999378837566806 -2.87194135138897 0.999378837566805 -2.87194135138897 0.000657691934665285 -22.0924367659881 
! Gamma         0                0                0                0                
! Port Impedance         50               0                50               0                
5.9                            0.000666125917067509 -22.7212639256553 0.999373214942705 -2.92115791397029 0.999373214942705 -2.92115791397028 0.000666052624215574 -22.7247186471332 
! Gamma         0                0                0                0                
! Port Impedance         50               0                50               0                
6                              0.000674538056088341 -23.346703335625 0.99936763865941 -2.97037030351415 0.999367638659409 -2.97037030351414 0.000674462661827589 -23.3503118491761 
! Gamma         0                0                0                0                
! Port Impedance         50               0                50               0                
6.1                            0.000682998554899479 -23.9654693855655 0.999362109214534 -3.01957865124707 0.999362109214533 -3.01957865124706 0.000682921019587411 -23.9692315809725 
! Gamma         0                0                0                0                
! Port Impedance         50               0                50               0                
6.2                            0.000691506423717534 -24.5775801635715 0.999356627009185 -3.0687830877152 0.999356627009185 -3.06878308771518 0.000691426708972545 -24.581495860532 
! Gamma         0                0                0                0                
! Port Impedance         50               0                50               0                
6.3                            0.000700060711630516 -25.1830566701778 0.999351192352079 -3.11798374240717 0.999351192352078 -3.11798374240716 0.000699978780321459 -25.1871256262665 
! Gamma         0                0                0                0                
! Port Impedance         50               0                50               0                
6.4                            0.00070866050595892 -25.7819228786853 0.999345805463793 -3.16718074342139 0.999345805463793 -3.16718074342138 0.000708576322191828 -25.7861447966807 
! Gamma         0                0                0                0                
! Port Impedance         50               0                50               0                
6.5                            0.000717304931527793 -26.3742057522736 0.999340466481118 -3.2163742171741 0.999340466481117 -3.21637421717409 0.000717218460630106 -26.3785802868934 
! Gamma         0                0                0                0                
! Port Impedance         50               0                50               0                
6.6                            0.000725993149868938 -26.9599352251872 0.999335175461445 -3.26556428814487 0.999335175461444 -3.26556428814485 0.000725904358371562 -26.9644619892698 
! Gamma         0                0                0                0                
! Port Impedance         50               0                50               0                
6.7                            0.000734724358369541 -27.5391441543089 0.999329932387172 -3.31475107865645 0.999329932387172 -3.31475107865643 0.000734633213987038 -27.5438227244805 
! Gamma         0                0                0                0                
! Port Impedance         50               0                50               0                
6.8                            0.000743497789380982 -28.1118682465881 0.999324737170075 -3.36393470868595 0.999324737170075 -3.36393470868594 0.000743404260990146 -28.1166981684511 
! Gamma         0                0                0                0                
! Port Impedance         50               0                50               0                
6.9                            0.000752312709299454 -28.6781459670452 0.999319589655621 -3.41311529570468 0.99931958965562 -3.41311529570467 0.000752216766916526 -28.6831267599213 
! Gamma         0                0                0                0                
! Port Impedance         50               0                50               0                
7                              0.000761168417628194 -29.2380184314192 0.999314489627213 -3.46229295454401 0.999314489627213 -3.462292954544  0.000761070032384946 -29.2431495926798 
! Gamma         0                0                0                0                
! Port Impedance         50               0                50               0                
7.1                            0.000770064246029571 -29.791529286954 0.999309436810334 -3.51146779728499 0.999309436810334 -3.51146779728497 0.000769963390148459 -29.796810295969 
! Gamma         0                0                0                0                
! Port Impedance         50               0                50               0                
7.2                            0.000778999557373937 -30.3387245843194 0.999304430876574 -3.56063993316943 0.999304430876574 -3.56063993316941 0.000778896204142499 -30.3441549060507 
! Gamma         0                0                0                0                
! Port Impedance         50               0                50               0                
7.3                            0.000787973744790986 -30.8796526432204 0.999299471447543 -3.60980946853047 0.999299471447543 -3.60980946853045 0.00078786786853566 -30.8852317314894 
! Gamma         0                0                0                0                
! Port Impedance         50               0                50               0                
7.4                            0.000796986230728409 -31.4143639138699 0.99929455809864 -3.65897650674065 0.99929455809864 -3.65897650674063 0.000796877806787929 -31.4200912143217 
! Gamma         0                0                0                0                
! Port Impedance         50               0                50               0                
7.5                            0.000806036466021784 -31.9429108361625 0.999289690362688 -3.70814114817579 0.999289690362688 -3.70814114817578 0.000805925470720271 -31.9487857889517 
! Gamma         0                0                0                0                
! Port Impedance         50               0                50               0                
7.6                            0.000815123928978913 -32.4653476980961 0.999284867733421 -3.75730349019311 0.999284867733421 -3.75730349019309 0.000815010339598797 -32.4713697403153 
! Gamma         0                0                0                0                
! Port Impedance         50               0                50               0                
7.7                            0.000824248124481215 -32.9817304947354 0.999280089668821 -3.80646362712188 0.999280089668821 -3.80646362712186 0.000824131919236092 -32.9878990626068 
! Gamma         0                0                0                0                
! Port Impedance         50               0                50               0                
7.8                            0.000833408583104266 -33.4921167887887 0.999275355594308 -3.85562165026553 0.999275355594309 -3.85562165026552 0.000833289741111788 -33.4984313196381 
! Gamma         0                0                0                0                
! Port Impedance         50               0                50               0                
7.9                            0.0008426048602591 -33.99656557368  0.999270664905774 -3.9047776479137 0.999270664905775 -3.90477764791369 0.000842483361513981 -34.00302550771  
! Gamma         0                0                0                0                
! Port Impedance         50               0                50               0                
8                              0.000851836535355544 -34.4951371398303 0.999266016972469 -3.95393170536314 0.999266016972469 -3.95393170536313 0.000851712360702758 -34.5017419217104 
! Gamma         0                0                0                0                
! Port Impedance         50               0                50               0                
8.1                            0.000861103210988494 -34.9878929447217 0.999261411139736 -4.00308390494647 0.999261411139736 -4.00308390494646 0.000860976342096739 -34.9946420250089 
! Gamma         0                0                0                0                
! Port Impedance         50               0                50               0                
8.2                            0.000870404512147803 -35.4748954871903 0.999256846731606 -4.0522343260677 0.999256846731606 -4.05223432606769 0.000870274931483278 -35.4817883235957 
! Gamma         0                0                0                0                
! Port Impedance         50               0                50               0                
8.3                            0.000879740085452178 -35.9562081862931 0.99925232305324 -4.10138304524372 0.999252323053241 -4.10138304524371 0.00087960777625273 -35.9632442448061 
! Gamma         0                0                0                0                
! Port Impedance         50               0                50               0                
8.4                            0.000889109598407329 -36.4318952649966 0.99924783939324 -4.15053013615086 0.99924783939324 -4.15053013615085 0.000888974544657013 -36.4390740208803 
! Gamma         0                0                0                0                
! Port Impedance         50               0                50               0                
8.5                            0.000898512738688402 -36.9020216388647 0.999243395025815 -4.19967566967585 0.999243395025815 -4.19967566967584 0.000898374925092492 -36.9093425775325 
! Gamma         0                0                0                0                
! Port Impedance         50               0                50               0                
8.6                            0.00090794921344663 -37.3666528098501 0.999238989212824 -4.24881971397045 0.999238989212825 -4.24881971397044 0.000907808625407109 -37.3741154276344 
! Gamma         0                0                0                0                
! Port Impedance         50               0                50               0                
8.7                            0.000917418748639999 -37.8258547652437 0.999234621205688 -4.29796233450921 0.999234621205688 -4.29796233450921 0.000917275372231552 -37.8334585700657 
! Gamma         0                0                0                0                
! Port Impedance         50               0                50               0                
8.8                            0.000926921088387621 -38.279693881786 0.999230290247175 -4.34710359414969 0.999230290247176 -4.34710359414969 0.000926774910334167 -38.2874383937361 
! Gamma         0                0                0                0                
! Port Impedance         50               0                50               0                
8.9                            0.000936455994347467 -38.7282368349066 0.999225995573081 -4.39624355319476 0.999225995573082 -4.39624355319476 0.000936307001999225 -38.736121586743 
! Gamma         0                0                0                0                
! Port Impedance         50               0                50               0                
9                              0.000946023245116994 -39.1715505130255 0.99922173641378 -4.44538226945648 0.99922173641378 -4.44538226945647 0.000945871426428115 -39.1795750505983 
! Gamma         0                0                0                0                
! Port Impedance         50               0                50               0                
9.1                            0.000955622635656205 -39.6097019368234 0.99921751199568 -4.49451979832112 0.999217511995681 -4.49451979832111 0.00095546797916297 -39.6178658194313 
! Gamma         0                0                0                0                
! Port Impedance         50               0                50               0                
9.2                            0.000965253976732601 -40.0427581833656 0.999213321542574 -4.54365619281505 0.999213321542574 -4.54365619281505 0.000965096471532193 -40.0510609840521 
! Gamma         0                0                0                0                
! Port Impedance         50               0                50               0                
9.3                            0.00097491709438747 -40.470786314949 0.999209164276887 -4.59279150367109 0.999209164276888 -4.5927915036711 0.000974756730117328 -40.4792276207426 
! Gamma         0                0                0                0                
! Port Impedance         50               0                50               0                
9.4                            0.000984611829422935 -40.8938533125265 0.999205039420837 -4.64192577939507 0.999205039420838 -4.64192577939507 0.000984448596240684 -40.9024327246315 
! Gamma         0                0                0                0                
! Port Impedance         50               0                50               0                
9.5                            0.000994338036909168 -41.3120260135534 0.999200946197505 -4.6910590663323 0.999200946197505 -4.69105906633231 0.000994171925473136 -41.3207431474951 
! Gamma         0                0                0                0                
! Port Impedance         50               0                50               0                
9.6                            0.00100409558571116 -41.7253710540935 0.999196883831816 -4.74019140873386 0.999196883831817 -4.74019140873386 0.00100392658716147 -41.7342255398235 
! Gamma         0                0                0                0                
! Port Impedance         50               0                50               0                
9.7                            0.00101388435803445 -42.1339548150177 0.999192851551455 -4.78932284882231 0.999192851551456 -4.78932284882231 0.00101371246397467 -42.1429462969822 
! Gamma         0                0                0                0                
! Port Impedance         50               0                50               0                
9.8                            0.00102370424898917 -42.5378433721236 0.999188848587689 -4.83845342685681 0.99918884858769 -4.83845342685682 0.00102352945146854 -42.5469715092996 
! Gamma         0                0                0                0                
! Port Impedance         50               0                50               0                
9.9                            0.00103355516617182 -42.9371024500054 0.999184874176137 -4.88758318119745 0.999184874176138 -4.88758318119746 0.00103337745766808 -42.9463669159069 
! Gamma         0                0                0                0                
! Port Impedance         50               0                50               0                
10                             0.00104343702926421 -43.3317973795009 0.99918092755746 -4.93671214836859 0.999180927557461 -4.9367121483686 0.00104325640266692 -43.3411978621598 
! Gamma         0                0                0                0                
! Port Impedance         50               0                50               0                
10.1                           0.00105334976964889 -43.7219930585469 0.999177007977992 -4.9858403631212 0.999177007977993 -4.98584036312122 0.00105316621824327 -43.7315292604707 
! Gamma         0                0                0                0                
! Port Impedance         50               0                50               0                
10.2                           0.00106329333004051 -44.1077539162738 0.999173114690321 -5.0349678584941 0.999173114690322 -5.03496785849411 0.00106310684749194 -44.1174255543821 
! Gamma         0                0                0                0                
! Port Impedance         50               0                50               0                
10.3                           0.0010732676641326 -44.489143880174 0.999169246953798 -5.08409466587386 0.999169246953799 -5.08409466587387 0.00107307824447152 -44.4989506857177 
! Gamma         0                0                0                0                
! Port Impedance         50               0                50               0                
10.4                           0.00108327273625916 -44.8662263461847 0.99916540403501 -5.13322081505357 0.999165404035011 -5.13322081505359 0.0010830803738665 -44.8761680646488 
! Gamma         0                0                0                0                
! Port Impedance         50               0                50               0                
10.5                           0.00109330852107043 -45.2390641515261 0.999161585208194 -5.18234633429016 0.999161585208195 -5.18234633429018 0.00109311321066358 -45.2491405425189 
! Gamma         0                0                0                0                
! Port Impedance         50               0                50               0                
10.6                           0.00110337500322249 -45.6077195501445 0.999157789755612 -5.23147125036037 0.999157789755613 -5.23147125036039 0.00110317673984176 -45.6179303872746 
! Gamma         0                0                0                0                
! Port Impedance         50               0                50               0                
10.7                           0.00111347217708001 -45.9722541906115 0.999154016967882 -5.28059558861534 0.999154016967883 -5.28059558861537 0.00111327095607551 -45.9825992613545 
! Gamma         0                0                0                0                
! Port Impedance         50               0                50               0                
10.8                           0.00112360004643171 -46.3327290963393 0.999150266144264 -5.32971937303372 0.999150266144265 -5.32971937303375 0.00112339586345076 -46.3432082018955 
! Gamma         0                0                0                0                
! Port Impedance         50               0                50               0                
10.9                           0.00113375862421808 -46.6892046479733 0.999146536592919 -5.37884262627335 0.99914653659292 -5.37884262627337 0.001133551475193 -46.6998176031176 
! Gamma         0                0                0                0                
! Port Impedance         50               0                50               0                
11                             0.00114394793227082 -47.0417405678321 0.999142827631125 -5.42796536972145 0.999142827631126 -5.42796536972148 0.0011437378134072 -47.0524872007586 
! Gamma         0                0                0                0                
! Port Impedance         50               0                50               0                
11.1                           0.00115416800106351 -47.3903959062697 0.999139138585467 -5.47708762354344 0.999139138585469 -5.47708762354347 0.00115395490882894 -47.4012760584298 
! Gamma         0                0                0                0                
! Port Impedance         50               0                50               0                
11.2                           0.00116441886947331 -47.735229029838 0.999135468791994 -5.52620940673014 0.999135468791996 -5.52620940673017 0.00116420280058642 -47.7462425557756 
! Gamma         0                0                0                0                
! Port Impedance         50               0                50               0                
11.3                           0.00117470058455286 -48.0762976111367 0.999131817596349 -5.57533073714366 0.999131817596351 -5.57533073714369 0.00117448153597287 -48.0874443783193 
! Gamma         0                0                0                0                
! Port Impedance         50               0                50               0                
11.4                           0.00118501320131239 -48.41365862024  0.999128184353874 -5.6244516315618 0.999128184353876 -5.62445163156184 0.00118479117022899 -48.424938508888 
! Gamma         0                0                0                0                
! Port Impedance         50               0                50               0                
11.5                           0.00119535678251138 -48.7473683175962 0.999124568429693 -5.673572105721  0.999124568429694 -5.67357210572104 0.00119513176633495 -48.7587812205102 
! Gamma         0                0                0                0                
! Port Impedance         50               0                50               0                
11.6                           0.00120573139845942 -49.0774822483019 0.99912096919877 -5.7226921743579 0.999120969198771 -5.72269217435794 0.00120550339481171 -49.0890280706895 
! Gamma         0                0                0                0                
! Port Impedance         50               0                50               0                
11.7                           0.00121613712682608 -49.404055237656 0.99911738604595 -5.77181185124955 0.999117386045952 -5.77181185124959 0.00121590613353114 -49.4157338969575 
! Gamma         0                0                0                0                
! Port Impedance         50               0                50               0                
11.8                           0.00122657405245916 -49.7271413879048 0.999113818365982 -5.82093114925221 0.999113818365983 -5.82093114925225 0.0012263400675347 -49.7389528136197 
! Gamma         0                0                0                0                
! Port Impedance         50               0                50               0                
11.9                           0.00123704226721131 -50.0467940760932 0.999110265563518 -5.87005008033885 0.99911026556352 -5.87005008033889 0.00123680528886029 -50.0587382096075 
! Gamma         0                0                0                0                
! Port Impedance         50               0                50               0                
12                             0.00124754186977434 -50.3630659529439 0.999106727053109 -5.91916865563532 0.999106727053111 -5.91916865563536 0.00124730189637697 -50.3751427473579 
! Gamma         0                0                0                0                
! Port Impedance         50               0                50               0                
12.1                           0.00125807296552128 -50.6760089426864 0.999103202259175 -5.96828688545527 0.999103202259177 -5.96828688545531 0.00125782999562724 -50.6882183626443 
! Gamma         0                0                0                0                
! Port Impedance         50               0                50               0                
12.2                           0.00126863566635554 -50.9856742437669 0.999099690615968 -6.01740477933381 0.99909969061597 -6.01740477933385 0.00126838969867658 -50.9980162652885 
! Gamma         0                0                0                0                
! Port Impedance         50               0                50               0                
12.3                           0.0012792300905672 -51.2921123303704 0.999096191567522 -6.06652234605992 0.999096191567523 -6.06652234605997 0.00127898112396994 -51.3045869406843 
! Gamma         0                0                0                0                
! Port Impedance         50               0                50               0                
12.4                           0.00128985636269592 -51.5953729546928 0.999092704567591 -6.11563959370777 0.999092704567592 -6.11563959370781 0.00128960439619498 -51.6079801520723 
! Gamma         0                0                0                0                
! Port Impedance         50               0                50               0                
12.5                           0.00130051461340032 -51.8955051499012 0.99908922907958 -6.16475652966675 0.999089229079582 -6.16475652966679 0.00130025964615168 -51.9082449435032 
! Gamma         0                0                0                0                
! Port Impedance         50               0                50               0                
12.6                           0.00131120497933358 -52.1925572337292 0.999085764576467 -6.21387316067051 0.999085764576468 -6.21387316067056 0.00131094701062821 -52.2054296434352 
! Gamma         0                0                0                0                
! Port Impedance         50               0                50               0                
12.7                           0.001321927603025 -52.4865768126515 0.99908231054071 -6.26298949282486 0.999082310540711 -6.26298949282491 0.00132166663228274 -52.4995818689121 
! Gamma         0                0                0                0                
! Port Impedance         50               0                50               0                
12.8                           0.00133268263276726 -52.7776107865898 0.999078866464158 -6.31210553163458 0.999078866464159 -6.31210553163463 0.0013324186595309 -52.790748530272 
! Gamma         0                0                0                0                
! Port Impedance         50               0                50               0                
12.9                           0.0013434702225092 -53.0657053541034 0.999075431847947 -6.36122128202924 0.999075431847948 -6.36122128202929 0.00134320324643883 -53.0789758363414 
! Gamma         0                0                0                0                
! Port Impedance         50               0                50               0                
13                             0.00135429053175396 -53.3509060180194 0.999072006202395 -6.41033674838806 0.999072006202397 -6.41033674838811 0.00135402055262149 -53.3643093000686 
! Gamma         0                0                0                0                
! Port Impedance         50               0                50               0                
13.1                           0.0013651437254621 -53.6332575914632 0.999068589046891 -6.45945193456375 0.999068589046893 -6.45945193456381 0.00136487074314604 -53.6467937445576 
! Gamma         0                0                0                0                
! Port Impedance         50               0                50               0                
13.2                           0.00137602997395978 -53.9128042042501 0.999065179909775 -6.50856684390547 0.999065179909777 -6.50856684390553 0.00137575398844017 -53.9264733094635 
! Gamma         0                0                0                0                
! Port Impedance         50               0                50               0                
13.3                           0.0013869494528515 -54.1895893096017 0.999061778328223 -6.55768147928086 0.999061778328224 -6.55768147928091 0.00138667046420506 -54.2033914577122 
! Gamma         0                0                0                0                
! Port Impedance         50               0                50               0                
13.4                           0.00139790234293754 -54.4636556911545 0.999058383848119 -6.60679584309718 0.999058383848121 -6.60679584309724 0.00139762035133299 -54.4775909825125 
! Gamma         0                0                0                0                
! Port Impedance         50               0                50               0                
13.5                           0.00140888883013566 -54.7350454702283 0.999054996023936 -6.65590993732174 0.999054996023937 -6.6559099373218 0.00140860383582922 -54.7491140146284 
! Gamma         0                0                0                0                
! Port Impedance         50               0                50               0                
13.6                           0.00141990910540708 -55.0038001133258 0.999051614418598 -6.7050237635013 0.9990516144186  -6.70502376350136 0.00141962110873817 -55.0180020298824 
! Gamma         0                0                0                0                
! Port Impedance         50               0                50               0                
13.7                           0.00143096336468654 -55.2699604398358 0.999048238603358 -6.75413732278093 0.99904823860336 -6.75413732278099 0.00143067236607356 -55.2842958568618 
! Gamma         0                0                0                0                
! Port Impedance         50               0                50               0                
13.8                           0.00144205180881619 -55.5335666299143 0.999044868157662 -6.80325061592194 0.999044868157664 -6.803250615922  0.00144175780875257 -55.5480356848043 
! Gamma         0                0                0                0                
! Port Impedance         50               0                50               0                
13.9                           0.00145317464348337 -55.7946582325201 0.999041502669016 -6.85236364331916 0.999041502669018 -6.85236364331923 0.00145287764253366 -55.8092610716366 
! Gamma         0                0                0                0                
! Port Impedance         50               0                50               0                
14                             0.00146433207916196 -56.0532741735826 0.999038141732852 -6.90147640501753 0.999038141732853 -6.9014764050176 0.00146403207795815 -56.068010952146 
! Gamma         0                0                0                0                
! Port Impedance         50               0                50               0                
14.1                           0.00147552433105727 -56.3094527642814 0.999034784952393 -6.95058890072796 0.999034784952394 -6.95058890072802 0.00147522133029518 -56.3243236462638 
! Gamma         0                0                0                0                
! Port Impedance         50               0                50               0                
14.2                           0.00148675161905432 -56.5632317094186 0.999031431938518 -6.99970112984259 0.999031431938519 -6.99970112984265 0.00148644561949014 -56.5782368674409 
! Gamma         0                0                0                0                
! Port Impedance         50               0                50               0                
14.3                           0.00149801416766938 -56.8146481158655 0.999028082309628 -7.04881309144942 0.999028082309629 -7.04881309144949 0.00149770517011637 -56.8297877310983 
! Gamma         0                0                0                0                
! Port Impedance         50               0                50               0                
14.4                           0.00150931220600471 -57.0637385010688 0.999024735691507 -7.09792478434635 0.999024735691509 -7.09792478434641 0.00150900021132997 -57.0790127631368 
! Gamma         0                0                0                0                
! Port Impedance         50               0                50               0                
14.5                           0.00152064596770634 -57.3105388015994 0.999021391717192 -7.14703620705456 0.999021391717194 -7.14703620705463 0.00152033097682775 -57.3259479084889 
! Gamma         0                0                0                0                
! Port Impedance         50               0                50               0                
14.6                           0.0015320156909248 -57.5550843817305 0.999018050026835 -7.19614735783145 0.999018050026837 -7.19614735783151 0.00153169770480798 -57.570628539701 
! Gamma         0                0                0                0                
! Port Impedance         50               0                50               0                
14.7                           0.00154342161827871 -57.7974100420326 0.99901471026757 -7.24525823468297 0.999014710267572 -7.24525823468304 0.00154310063793418 -57.8130894655311 
! Gamma         0                0                0                0                
! Port Impedance         50               0                50               0                
14.8                           0.00155486399682117 -58.0375500279721 0.999011372093381 -7.29436883537547 0.999011372093383 -7.29436883537554 0.00155454002330156 -58.0533649395517 
! Gamma         0                0                0                0                
! Port Impedance         50               0                50               0                
14.9                           0.00156634307800877 -58.2755380385042 0.99900803516497 -7.34347915744702 0.999008035164972 -7.34347915744709 0.00156601611240613 -58.2914886687447 
! Gamma         0                0                0                0                
! Port Impedance         50               0                50               0                
15                             0.00157785911767326 -58.5114072346477 0.999004699149626 -7.39258919821829 0.999004699149627 -7.39258919821836 0.00157752916111644 -58.5274938220808 
! Gamma         0                0                0                0                
! Port Impedance         50               0                50               0                
15.1                           0.00158941237599569 -58.7451902480352 0.999001363721092 -7.44169895480298 0.999001363721094 -7.44169895480304 0.00158907942964787 -58.7614130390717 
! Gamma         0                0                0                0                
! Port Impedance         50               0                50               0                
15.2                           0.00160100311748301 -58.9769191894273 0.998998028559446 -7.49080842411774 0.998998028559447 -7.49080842411781 0.00160066718253924 -58.9932784382884 
! Gamma         0                0                0                0                
! Port Impedance         50               0                50               0                
15.3                           0.00161263161094702 -59.2066256571854 0.998994693350963 -7.53991760289179 0.998994693350964 -7.53991760289186 0.00161229268863188 -59.2231216258368 
! Gamma         0                0                0                0                
! Port Impedance         50               0                50               0                
15.4                           0.00162429812948565 -59.4343407456943 0.998991357787997 -7.58902648767601 0.998991357787998 -7.58902648767608 0.00162395622105096 -59.4509737037829 
! Gamma         0                0                0                0                
! Port Impedance         50               0                50               0                
15.5                           0.00163600295046641 -59.6600950537289 0.998988021568854 -7.63813507485174 0.998988021568855 -7.6381350748518 0.00163565805718903 -59.6768652785234 
! Gamma         0                0                0                0                
! Port Impedance         50               0                50               0                
15.6                           0.0016477463555121 -59.8839186927593 0.998984684397672 -7.68724336063912 0.998984684397673 -7.68724336063919 0.00164739847869176 -59.900826469093 
! Gamma         0                0                0                0                
! Port Impedance         50               0                50               0                
15.7                           0.00165952863048851 -60.1058412951884 0.998981345984299 -7.73635134110519 0.998981345984301 -7.73635134110526 0.00165917777144577 -60.1228869154051 
! Gamma         0                0                0                0                
! Port Impedance         50               0                50               0                
15.8                           0.00167135006549428 -60.3258920225173 0.998978006044175 -7.78545901217151 0.998978006044176 -7.78545901217158 0.00167099622556848 -60.3430757864202 
! Gamma         0                0                0                0                
! Port Impedance         50               0                50               0                
15.9                           0.00168321095485266 -60.5440995734346 0.998974664298213 -7.83456636962155 0.998974664298214 -7.83456636962162 0.00168285413539996 -60.5614217882377 
! Gamma         0                0                0                0                
! Port Impedance         50               0                50               0                
16                             0.00169511159710532 -60.760492191825 0.998971320472686 -7.88367340910772 0.998971320472687 -7.88367340910779 0.0016947517994968 -60.7779531721077 
! Gamma         0                0                0                0                
! Port Impedance         50               0                50               0                
16.1                           0.00170705229500797 -60.9750976746949 0.998967974299114 -7.93278012615811 0.998967974299115 -7.93278012615818 0.00170668952062772 -60.9926977423588 
! Gamma         0                0                0                0                
! Port Impedance         50               0                50               0                
16.2                           0.00171903335552784 -61.1879433800102 0.998964625514152 -7.98188651618295 0.998964625514153 -7.98188651618302 0.0017186676057712 -61.2056828642392 
! Gamma         0                0                0                0                
! Port Impedance         50               0                50               0                
16.3                           0.00173105508984301 -61.3990562344457 0.998961273859477 -8.03099257448076 0.998961273859478 -8.03099257448083 0.00173068636611477 -61.4169354716677 
! Gamma         0                0                0                0                
! Port Impedance         50               0                50               0                
16.4                           0.00174311781334346 -61.6084627410417 0.998957919081686 -8.08009829624427 0.998957919081687 -8.08009829624434 0.00174274611705611 -61.6264820748939 
! Gamma         0                0                0                0                
! Port Impedance         50               0                50               0                
16.5                           0.00175522184563387 -61.8161889867674 0.998954560932186 -8.12920367656606 0.998954560932187 -8.12920367656612 0.00175484717820592 -61.8343487680633 
! Gamma         0                0                0                0                
! Port Impedance         50               0                50               0                
16.6                           0.00176736751053808 -62.0222606499882 0.99895119916709 -8.17830871044392 0.998951199167092 -8.17830871044399 0.0017669898733924 -62.0405612366875 
! Gamma         0                0                0                0                
! Port Impedance         50               0                50               0                
16.7                           0.00177955513610519 -62.2267030078358 0.998947833547119 -8.2274133927861 0.99894783354712 -8.22741339278616 0.00177917453066738 -62.2451447650168 
! Gamma         0                0                0                0                
! Port Impedance         50               0                50               0                
16.8                           0.00179178505461736 -62.4295409434806 0.998944463837496 -8.27651771841616 0.998944463837497 -8.27651771841623 0.00179140148231414 -62.4481242433146 
! Gamma         0                0                0                0                
! Port Impedance         50               0                50               0                
16.9                           0.00180405760259907 -62.6307989533041 0.998941089807851 -8.32562168207776 0.998941089807852 -8.32562168207782 0.00180367106485673 -62.6495241750324 
! Gamma         0                0                0                0                
! Port Impedance         50               0                50               0                
17                             0.00181637312082802 -62.8305011539713 0.998937711232126 -8.37472527843912 0.998937711232127 -8.37472527843918 0.00181598361907085 -62.8493686838842 
! Gamma         0                0                0                0                
! Port Impedance         50               0                50               0                
17.1                           0.00182873195434752 -63.0286712894028 0.998934327888475 -8.42382850209736 0.998934327888475 -8.42382850209742 0.00182833948999632 -63.0476815208212 
! Gamma         0                0                0                0                
! Port Impedance         50               0                50               0                
17.2                           0.00184113445248043 -63.2253327376449 0.998930939559176 -8.47293134758264 0.998930939559177 -8.4729313475827 0.00184073902695094 -63.2444860709039 
! Gamma         0                0                0                0                
! Port Impedance         50               0                50               0                
17.3                           0.00185358096884444 -63.4205085176396 0.99892754603054 -8.52203380936207 0.998927546030541 -8.52203380936213 0.00185318258354594 -63.4398053600745 
! Gamma         0                0                0                0                
! Port Impedance         50               0                50               0                
17.4                           0.00186607186136898 -63.6142212958921 0.998924147092819 -8.57113588184349 0.99892414709282 -8.57113588184355 0.00186567051770276 -63.6336620618259 
! Gamma         0                0                0                0                
! Port Impedance         50               0                50               0                
17.5                           0.00187860749231343 -63.8064933930376 0.99892074254012 -8.62023755937909 0.998920742540121 -8.62023755937915 0.00187820319167137 -63.8260785037716 
! Gamma         0                0                0                0                
! Port Impedance         50               0                50               0                
17.6                           0.00189118822828678 -63.9973467903069 0.998917332170321 -8.66933883626881 0.998917332170322 -8.66933883626886 0.00189078097204986 -64.0170766741124 
! Gamma         0                0                0                0                
! Port Impedance         50               0                50               0                
17.7                           0.00190381444026865 -64.1868031358912 0.998913915784983 -8.71843970676364 0.998913915784984 -8.71843970676369 0.00190340422980556 -64.2066782280038 
! Gamma         0                0                0                0                
! Port Impedance         50               0                50               0                
17.8                           0.00191648650363172 -64.3748837512065 0.998910493189275 -8.76754016506878 0.998910493189276 -8.76754016506884 0.00191607334029743 -64.3949044938222 
! Gamma         0                0                0                0                
! Port Impedance         50               0                50               0                
17.9                           0.00192920479816551 -64.5616096370582 0.998907064191886 -8.81664020534661 0.998907064191887 -8.81664020534666 0.00192878868329982 -64.5817764793316 
! Gamma         0                0                0                0                
! Port Impedance         50               0                50               0                
18                             0.00194196970810145 -64.7470014797071 0.99890362860495 -8.86573982171954 0.998903628604951 -8.86573982171959 0.00194155064302759 -64.7673148777511 
! Gamma         0                0                0                0                
! Port Impedance         50               0                50               0                
18.1                           0.00195478162213928 -64.9310796568358 0.998900186243971 -8.91483900827277 0.998900186243972 -8.91483900827281 0.00195435960816249 -64.9515400737239 
! Gamma         0                0                0                0                
! Port Impedance         50               0                50               0                
18.2                           0.00196764093347485 -65.113864243419 0.998896736927743 -8.96393775905687 0.998896736927744 -8.96393775905692 0.00196721597188096 -65.134472149189 
! Gamma         0                0                0                0                
! Port Impedance         50               0                50               0                
18.3                           0.00198054803982907 -65.295375017496 0.998893280478282 -9.0130360680903 0.998893280478282 -9.01303606809034 0.0019801201318831 -65.3161308891556 
! Gamma         0                0                0                0                
! Port Impedance         50               0                50               0                
18.4                           0.00199350334347828 -65.4756314658477 0.998889816720746 -9.06213392936174 0.998889816720747 -9.06213392936178 0.00199307249042298 -65.496535787382 
! Gamma         0                0                0                0                
! Port Impedance         50               0                50               0                
18.5                           0.00200650725128581 -65.6546527895789 0.998886345483373 -9.11123133683239 0.998886345483374 -9.11123133683243 0.00200607345434025 -65.6757060519597 
! Gamma         0                0                0                0                
! Port Impedance         50               0                50               0                
18.6                           0.00201956017473484 -65.8324579096067 0.998882866597407 -9.16032828443811 0.998882866597408 -9.16032828443815 0.00201912343509297 -65.8536606108035 
! Gamma         0                0                0                0                
! Port Impedance         50               0                50               0                
18.7                           0.0020326625299625 -66.0090654720565 0.998879379897031 -9.20942476609149 0.998879379897031 -9.20942476609152 0.00203222284879173 -66.0304181170494 
! Gamma         0                0                0                0                
! Port Impedance         50               0                50               0                
18.8                           0.00204581473779528 -66.1844938535657 0.998875885219301 -9.2585207756838 0.998875885219302 -9.25852077568383 0.00204537211623495 -66.2059969543601 
! Gamma         0                0                0                0                
! Port Impedance         50               0                50               0                
18.9                           0.00205901722378558 -66.3587611664985 0.998872382404084 -9.30761630708688 0.998872382404084 -9.30761630708692 0.00205857166294557 -66.3804152421409 
! Gamma         0                0                0                0                
! Port Impedance         50               0                50               0                
19                             0.00207227041824963 -66.5318852640697 0.99886887129399 -9.35671135415492 0.998868871293991 -9.35671135415495 0.00207182191920881 -66.5536908406661 
! Gamma         0                0                0                0                
! Port Impedance         50               0                50               0                
19.1                           0.00208557475630653 -66.7038837453819 0.998865351734316 -9.40580591072613 0.998865351734316 -9.40580591072616 0.00208512332011128 -66.7258413561173 
! Gamma         0                0                0                0                
! Port Impedance         50               0                50               0                
19.2                           0.00209893067791859 -66.8747739603754 0.99886182357298 -9.45489997062441 0.99886182357298 -9.45489997062443 0.00209847630558127 -66.896884145535 
! Gamma         0                0                0                0                
! Port Impedance         50               0                50               0                
19.3                           0.00211233862793287 -67.0445730146931 0.998858286660467 -9.50399352766085 0.998858286660467 -9.50399352766087 0.0021118813204303 -67.066836321685 
! Gamma         0                0                0                0                
! Port Impedance         50               0                50               0                
19.4                           0.00212579905612399 -67.2132977744603 0.998854740849767 -9.55308657563523 0.998854740849767 -9.55308657563525 0.00212533881439583 -67.2357147578406 
! Gamma         0                0                0                0                
! Port Impedance         50               0                50               0                
19.5                           0.00213931241723812 -67.3809648709829 0.998851185996321 -9.60217910833738 0.998851185996322 -9.6021791083374 0.00213884924218533 -67.4035360924813 
! Gamma         0                0                0                0                
! Port Impedance         50               0                50               0                
19.6                           0.00215287917103823 -67.547590705363 0.998847621957968 -9.65127111954856 0.998847621957968 -9.65127111954857 0.00215241306352142 -67.5703167339108 
! Gamma         0                0                0                0                
! Port Impedance         50               0                50               0                
19.7                           0.00216649978235052 -67.713191453035 0.998844048594885 -9.70036260304265 0.998844048594884 -9.70036260304266 0.00216603074318832 -67.7360728647945 
! Gamma         0                0                0                0                
! Port Impedance         50               0                50               0                
19.8                           0.00218017472111217 -67.8777830682222 0.998840465769539 -9.74945355258746 0.998840465769539 -9.74945355258746 0.00217970275107954 -67.9008204466173 
! Gamma         0                0                0                0                
! Port Impedance         50               0                50               0                
19.9                           0.00219390446242022 -68.0413812883164 0.998836873346636 -9.79854396194577 0.998836873346636 -9.79854396194578 0.00219342956224676 -68.0645752240654 
! Gamma         0                0                0                0                
! Port Impedance         50               0                50               0                
20                             0.00220768948658177 -68.2040016381809 0.998833271193069 -9.84763382487648 0.998833271193069 -9.84763382487648 0.00220721165694996 -68.2273527293301 
! Gamma         -0               -0               0                0                
! Port Impedance         50               0                50               0                
