! Touchstone file exported from HFSS 2026.1.0
!        File:           C:/ffzhzh/LocalFiles/Ansys_Project_Files/temp_train_BSMRDL_5_1782881769_8056.aedt
!        Generated:      12:57:35 PM Jul  1, 2026
!        Design:         BSMRDL
!        Project:        temp_train_BSMRDL_5_1782881769_8056
!
! Variables:
!        h_bsmrdl = 5.16um
!        h_ox = 20um
!        h_rdl = 5um
!        h_sub = 80um
!        h_tmrdl = 5um
!        h_tsv = 80um
!        h_via = 3um
!        l_bsmrdl = 483.08um
!        l_sub = 883.08um
!        l_tmrdl = 200um
!        m_sub = 200um
!        pitch = 34.93um
!        r_tsv = 6um
!        s_tmrdl = 10um
!        w_bsmrdl = 17.05um
!        w_sub = 500um
!        w_tmrdl = 12um
!        x_tsv_center1 = 206um
!        x_tsv_center2 = 706.13um
!        x_tsv_center3 = 918.13um
!        x_tsv_center4 = 1418.26um
!        x_tsv_center5 = 1630.26um
!        x_tsv_center6 = 2130.39um
!
# GHz S MA R 50.000000
! Terminal data exported
! Port[1] = BSM_RDL1_1_T1
! Port[2] = BSM_RDL1_1_T2
0.1                            0.00264422271233627 38.0204232666275 0.997920572567815 -0.175755381478057 0.997920572567816 -0.175755381478052 0.00264422173411919 38.0203783392545 
! Gamma         0                0                0                0                
! Port Impedance         50               0                50               0                
0.2                            0.00386755736023883 55.0770539802095 0.997799940812977 -0.346544727783875 0.997799940812978 -0.346544727783915 0.00386755235141458 55.0770016916268 
! Gamma         0                0                0                0                
! Port Impedance         50               0                50               0                
0.3                            0.00520400567296637 63.3070710527201 0.997693751174079 -0.513706899575804 0.99769375117408 -0.51370689957588 0.00520399766404317 63.3070534233856 
! Gamma         0                0                0                0                
! Port Impedance         50               0                50               0                
0.4                            0.00657391627978996 68.1906817289336 0.997612757956998 -0.679531314170028 0.997612757956998 -0.679531314170116 0.00657390846011998 68.1906868997652 
! Gamma         0                0                0                0                
! Port Impedance         50               0                50               0                
0.5                            0.0079662341561412 71.4307810425269 0.997547872256245 -0.845056872370172 0.997547872256245 -0.845056872370257 0.00796622872445847 71.4307897534667 
! Gamma         0                0                0                0                
! Port Impedance         50               0                50               0                
0.6                            0.00937585630879126 73.7118227172426 0.997490718578344 -1.0106046990642 0.997490718578343 -1.01060469906427 0.00937585442162628 73.7118222262973 
! Gamma         0                0                0                0                
! Port Impedance         50               0                50               0                
0.7                            0.0107983834827039 75.3779362356221 0.997436103067191 -1.17623867019557 0.997436103067191 -1.17623867019564 0.0107983857345721 75.3779196062454 
! Gamma         0                0                0                0                
! Port Impedance         50               0                50               0                
0.8                            0.0122302233829057 76.6261908794691 0.99738104263923 -1.34194456919639 0.997381042639229 -1.34194456919645 0.0122302301220513 76.6261546045159 
! Gamma         0                0                0                0                
! Port Impedance         50               0                50               0                
0.9                            0.0136686138885147 77.5784880799047 0.9973238384524  -1.50768911957264 0.997323838452399 -1.50768911957268 0.0136686253740037 77.5784304693111 
! Gamma         0                0                0                0                
! Port Impedance         50               0                50               0                
1                              0.0151114748769024 78.3142809698615 0.99726352002571 -1.67343811237254 0.997263520025709 -1.67343811237257 0.0151114913500586 78.3142012566498 
! Gamma         0                0                0                0                
! Port Impedance         50               0                50               0                
1.1                            0.0165572385961032 78.887455115917  0.997199537608171 -1.83916130601873 0.99719953760817 -1.83916130601875 0.0165572603110398 78.8873529872808 
! Gamma         0                0                0                0                
! Port Impedance         50               0                50               0                
1.2                            0.0180047108122954 79.3357559715806 0.997131592110628 -2.00483318044421 0.997131592110627 -2.00483318044422 0.0180047380475483 79.3356313267552 
! Gamma         0                0                0                0                
! Port Impedance         50               0                50               0                
1.3                            0.0194529685816626 79.6863532928906 0.997059538794299 -2.17043250267847 0.997059538794298 -2.17043250267848 0.0194530016431992 79.6862061190033 
! Gamma         0                0                0                0                
! Port Impedance         50               0                50               0                
1.4                            0.0209012877516683 79.9592679844812 0.996983330914491 -2.33594165283548 0.99698333091449 -2.33594165283549 0.0209013269720366 79.9590982937597 
! Gamma         0                0                0                0                
! Port Impedance         50               0                50               0                
1.5                            0.0223490920387509 80.1695573153739 0.996902985557293 -2.50134599472189 0.996902985557292 -2.50134599472189 0.0223491377746031 80.1693651144803 
! Gamma         0                0                0                0                
! Port Impedance         50               0                50               0                
1.6                            0.023795917142218 80.3287503689337 0.996818562179884 -2.66663335672772 0.996818562179883 -2.66663335672772 0.0237959697712645 80.3285356452032 
! Gamma         0                0                0                0                
! Port Impedance         50               0                50               0                
1.7                            0.0252413852031271 80.4458157249565 0.99673014865572 -2.83179362069286 0.996730148655719 -2.83179362069286 0.0252414451210237 80.4455784415139 
! Gamma         0                0                0                0                
! Port Impedance         50               0                50               0                
1.8                            0.0266851863790745 80.5278289406828 0.996637851896324 -2.99681839916456 0.996637851896323 -2.99681839916455 0.0266852539964824 80.5275690361403 
! Gamma         0                0                0                0                
! Port Impedance         50               0                50               0                
1.9                            0.0281270653428033 80.5804425032345 0.99654179135361 -3.16170078048926 0.996541791353609 -3.16170078048926 0.0281271410827287 80.5801598936495 
! Gamma         0                0                0                0                
! Port Impedance         50               0                50               0                
2                              0.0295668112185999 80.6082228813901 0.996442094393081 -3.32643512468353 0.996442094393081 -3.32643512468352 0.0295668955140567 80.6079174632181 
! Gamma         0                0                0                0                
! Port Impedance         50               0                50               0                
2.1                            0.0310042499444596 80.6148963460244 0.996338892920677 -3.49101689708064 0.996338892920677 -3.49101689708064 0.0310043432364661 80.614567999382  
! Gamma         0                0                0                0                
! Port Impedance         50               0                50               0                
2.2                            0.0324392383656694 80.6035310131894 0.996232320875906 -3.65544253020527 0.996232320875906 -3.65544253020526 0.0324393411015719 80.6031796050591 
! Gamma         0                0                0                0                
! Port Impedance         50               0                50               0                
2.3                            0.0338716595792813 80.5766735562597 0.99612251234167 -3.81970930698751 0.99612251234167 -3.81970930698751 0.0338717722113866 80.576298943449  
! Gamma         0                0                0                0                
! Port Impedance         50               0                50               0                
2.4                            0.0353014191939425 80.536453205009  0.996009600105646 -3.98381526038175 0.996009600105645 -3.98381526038174 0.0353015421784384 80.5360552367747 
! Gamma         0                0                0                0                
! Port Impedance         50               0                50               0                
2.5                            0.0367284422687336 80.4846618051136 0.99589371456089 -4.14775908585713 0.995893714560889 -4.14775908585712 0.0367285760648703 80.4842403254218 
! Gamma         0                0                0                0                
! Port Impedance         50               0                50               0                
2.6                            0.0381526707631224 80.4228161310482 0.995774982867135 -4.31154006421943 0.995774982867134 -4.31154006421942 0.0381528158326287 80.4223709804689 
! Gamma         0                0                0                0                
! Port Impedance         50               0                50               0                
2.7                            0.0395740613778129 80.352206884941  0.995653528316261 -4.47515799292167 0.995653528316261 -4.47515799292166 0.0395742181845176 80.3517379021969 
! Gamma         0                0                0                0                
! Port Impedance         50               0                50               0                
2.8                            0.0409925836997281 80.273937595016  0.995529469860168 -4.63861312450922 0.995529469860168 -4.63861312450921 0.0409927527093582 80.2734446182129 
! Gamma         0                0                0                0                
! Port Impedance         50               0                50               0                
2.9                            0.0424082185880247 80.1889557714757 0.995402921769319 -4.80190611118604 0.995402921769319 -4.80190611118604 0.0424084002681517 80.1884386390461 
! Gamma         0                0                0                0                
! Port Impedance         50               0                50               0                
3                              0.0438209567548661 80.0980780691295 0.995273993397312 -4.965037954727  0.995273993397311 -4.965037954727  0.0438211515749729 80.0975366205235 
! Gamma         0                0                0                0                
! Port Impedance         50               0                50               0                
3.1                            0.0452307975067119 80.0020107681379 0.995142789031903 -5.12800996112762 0.995142789031903 -5.12800996112762 0.045231005938354 80.0014448442947 
! Gamma         0                0                0                0                
! Port Impedance         50               0                50               0                
3.2                            0.0466377476205177 79.9013665655596 0.995009407816688 -5.29082369950011 0.995009407816688 -5.2908236995001 0.0466379701375534 79.9007760091915 
! Gamma         0                0                0                0                
! Port Impedance         50               0                50               0                
3.3                            0.0480418203354557 79.7966784360666 0.994873943730503 -5.45348096480773 0.994873943730502 -5.45348096480773 0.048042057414323 79.7960630917865 
! Gamma         0                0                0                0                
! Port Impedance         50               0                50               0                
3.4                            0.0494430344452505 79.6884111462142 0.994736485613854 -5.61598374408991 0.994736485613854 -5.6159837440899 0.0494432865652693 79.6877708605336 
! Gamma         0                0                0                0                
! Port Impedance         50               0                50               0                
3.5                            0.0508414134794625 79.5769708762871 0.994597117233462 -5.77833418587482 0.994597117233462 -5.77833418587481 0.0508416811231443 79.5763054975119 
! Gamma         0                0                0                0                
! Port Impedance         50               0                50               0                
3.6                            0.0522369849643977 79.4627133052192 0.994455917377443 -5.94053457251026 0.994455917377443 -5.94053457251026 0.0522372686177455 79.4620226832647 
! Gamma         0                0                0                0                
! Port Impedance         50               0                50               0                
3.7                            0.0536297797560157 79.3459504390098 0.994312959974871 -6.10258729517002 0.994312959974871 -6.10258729517002 0.0536300799088018 79.3452344251574 
! Gamma         0                0                0                0                
! Port Impedance         50               0                50               0                
3.8                            0.0550198314384473 79.2269564054176 0.994168314234433 -6.26449483131488 0.994168314234432 -6.26449483131487 0.0550201485844561 79.2262148520305 
! Gamma         0                0                0                0                
! Port Impedance         50               0                50               0                
3.9                            0.0564071757826295 79.1059723931221 0.994022044797739 -6.42625972440592 0.994022044797739 -6.42625972440591 0.0564075104198577 79.1052051533358 
! Gamma         0                0                0                0                
! Port Impedance         50               0                50               0                
4                              0.0577918502602352 78.9832108788138 0.993874211903562 -6.58788456568376 0.993874211903562 -6.58788456568375 0.0577922028910405 78.9824178062163 
! Gamma         0                0                0                0                
! Port Impedance         50               0                50               0                
4.1                            0.0591738936085681 78.8588592584388 0.993724871559866 -6.74937197784201 0.993724871559866 -6.749371977842  0.0591742647397633 78.858040206751  
! Gamma         0                0                0                0                
! Port Impedance         50               0                50               0                
4.2                            0.0605533454424771 78.7330829773296 0.993574075721015 -6.91072460043618 0.993574075721015 -6.91072460043618 0.0605537355853657 78.7322378000953 
! Gamma         0                0                0                0                
! Port Impedance         50               0                50               0                
4.3                            0.0619302459096439 78.6060282368835 0.99342187246796 -7.07194507688157 0.99342187246796 -7.07194507688156 0.0619306555799953 78.6051567871781 
! Gamma         0                0                0                0                
! Port Impedance         50               0                50               0                
4.4                            0.0633046353858392 78.4778243418133 0.993268306189607 -7.23303604290486 0.993268306189607 -7.23303604290486 0.0633050651038042 78.4769264719759 
! Gamma         0                0                0                0                
! Port Impedance         50               0                50               0                
4.5                            0.0646765542069545 78.3485857410382 0.993113417763845 -7.39400011632471 0.993113417763845 -7.3940001163247 0.064677004496923 78.3476613024331 
! Gamma         0                0                0                0                
! Port Impedance         50               0                50               0                
4.6                            0.0660460424347997 78.218413806425  0.992957244737012 -7.55483988804599 0.992957244737012 -7.55483988804598 0.0660465138252009 78.2174626492347 
! Gamma         0                0                0                0                
! Port Impedance         50               0                50               0                
4.7                            0.0674131396538226 78.0873983863959 0.992799821500775 -7.71555791416202 0.992799821500775 -7.71555791416201 0.067413632676874 78.0864203594483 
! Gamma         0                0                0                0                
! Port Impedance         50               0                50               0                
4.8                            0.0687778847960708 77.9556191655395 0.992641179465624 -7.87615670906685 0.992641179465624 -7.87615670906684 0.0687783999874772 77.9546141161705 
! Gamma         0                0                0                0                
! Port Impedance         50               0                50               0                
4.9                            0.0701403159918633 77.8231468565348 0.992481347230307 -8.0366387394879 0.992481347230307 -8.0366387394879 0.0701408538904724 77.8221146304871 
! Gamma         0                0                0                0                
! Port Impedance         50               0                50               0                
5                              0.0715004704437932 77.690044246715  0.992320350746702 -8.19700641935628 0.992320350746702 -8.19700641935628 0.071501031591212 77.6889846880708 
! Gamma         0                0                0                0                
! Port Impedance         50               0                50               0                
5.1                            0.072858384321825 77.5563671182914 0.992158213479714 -8.35726210543872 0.992158213479714 -8.35726210543872 0.0728589692620024 77.5552800694406 
! Gamma         0                0                0                0                
! Port Impedance         50               0                50               0                
5.2                            0.0742140926773952 77.4221650585058 0.991994956561906 -8.51740809366118 0.991994956561906 -8.51740809366118 0.0742147019561764 77.4210503601453 
! Gamma         0                0                0                0                
! Port Impedance         50               0                50               0                
5.3                            0.075567629374564 77.2874821736721 0.991830598942629 -8.67744661605994 0.991830598942629 -8.67744661605994 0.0755682635392216 77.2863396648371 
! Gamma         0                0                0                0                
! Port Impedance         50               0                50               0                
5.4                            0.0769190270364034 77.1523577191322 0.991665157531516 -8.83737983830095 0.991665157531516 -8.83737983830095 0.0769196866351516 77.1511872372543 
! Gamma         0                0                0                0                
! Port Impedance         50               0                50               0                
5.5                            0.0782683170049395 77.0168266555087 0.991498647336237 -8.99720985771309 0.991498647336237 -8.99720985771309 0.0782690025864357 77.0156280365012 
! Gamma         0                0                0                0                
! Port Impedance         50               0                50               0                
5.6                            0.0796155293130972 76.8809201402539 0.991331081594482 -9.15693870178548 0.991331081594482 -9.15693870178548 0.0796162414259369 76.8796932186194 
! Gamma         0                0                0                0                
! Port Impedance         50               0                50               0                
5.7                            0.0809606926672185 76.744665962308  0.99116247190017 -9.31656832708264 0.99116247190017 -9.31656832708265 0.0809614318594272 76.7434105712668 
! Gamma         0                0                0                0                
! Port Impedance         50               0                50               0                
5.8                            0.0823038344388449 76.6080889266713 0.990992828323915 -9.47610061853554 0.990992828323915 -9.47610061853555 0.082304601257373 76.606804898308  
! Gamma         0                0                0                0                
! Port Impedance         50               0                50               0                
5.9                            0.0836449806645685 76.4712111948282 0.990822159527823 -9.63553738906942 0.990822159527823 -9.63553738906943 0.0836457756547921 76.4698983602529 
! Gamma         0                0                0                0                
! Port Impedance         50               0                50               0                
6                              0.0849841560528631 76.3340525862164 0.990650472874701 -9.79488037953291 0.990650472874701 -9.79488037953293 0.0849849797580949 76.3327107757391 
! Gamma         0                0                0                0                
! Port Impedance         50               0                50               0                
6.1                            0.0863213839969082 76.1966308452902 0.99047777453179 -9.95413125889548 0.99047777453179 -9.95413125889549 0.0863222369579224 76.1952598886042 
! Gamma         0                0                0                0                
! Port Impedance         50               0                50               0                
6.2                            0.0876566865925154 76.0589618781701 0.990304069569153 -10.1132916246832 0.990304069569154 -10.1132916246832 0.0876575693470891 76.0575616045445 
! Gamma         0                0                0                0                
! Port Impedance         50               0                50               0                
6.3                            0.0889900846603527 75.9210599623906 0.990129362052845 -10.2723630036253 0.990129362052845 -10.2723630036253 0.0889909977428265 75.9196302008665 
! Gamma         0                0                0                0                
! Port Impedance         50               0                50               0                
6.4                            0.0903215977717481 75.7829379328329 0.989953655133029 -10.4313468524857 0.989953655133029 -10.4313468524857 0.0903225417126092 75.7814785124241 
! Gamma         0                0                0                0                
! Port Impedance         50               0                50               0                
6.5                            0.0916512442774303 75.6446073465668 0.989776951127184 -10.5902445590572 0.989776951127184 -10.5902445590572 0.0916522196029183 75.6431180964612 
! Gamma         0                0                0                0                
! Port Impedance         50               0                50               0                
6.6                            0.0929790413386314 75.5060786290043 0.989599251598579 -10.7490574432961 0.989599251598579 -10.7490574432961 0.0929800485703705 75.5045593787642 
! Gamma         0                0                0                0                
! Port Impedance         50               0                50               0                
6.7                            0.0943050049600484 75.3673612034853 0.989420557430176 -10.9077867585784 0.989420557430176 -10.9077867585784 0.0943060446147051 75.3658117832468 
! Gamma         0                0                0                0                
! Port Impedance         50               0                50               0                
6.8                            0.0956291500242124 75.2284636061736 0.989240868894132 -11.0664336930599 0.989240868894133 -11.0664336930599 0.095630222613182 75.2268838468407 
! Gamma         0                0                0                0                
! Port Impedance         50               0                50               0                
6.9                            0.0969514903268751 75.08939358792   0.989060185717085 -11.2249993711237 0.989060185717086 -11.2249993711238 0.0969525963559955 75.0877833213552 
! Gamma         0                0                0                0                
! Port Impedance         50               0                50               0                
7                              0.0982720386130679 74.9501582045652 0.98887850714138 -11.3834848549009 0.98887850714138 -11.383484854901 0.0982731785823633 74.9485172637727 
! Gamma         0                0                0                0                
! Port Impedance         50               0                50               0                
7.1                            0.0995908066135361 74.8107638969811 0.988695831982421 -11.5418911458503 0.988695831982421 -11.5418911458504 0.0995919810169883 74.8090921162835 
! Gamma         0                0                0                0                
! Port Impedance         50               0                50               0                
7.2                            0.100907805081289 74.6712165620068 0.988512158682328 -11.7002191863862 0.988512158682328 -11.7002191863862 0.100909014406639 74.6695137772136 
! Gamma         0                0                0                0                
! Port Impedance         50               0                50               0                
7.3                            0.102223043828046 74.5315216153018 0.988327485360041 -11.8584698615423 0.988327485360041 -11.8584698615424 0.102224288556621 74.5297876638693 
! Gamma         0                0                0                0                
! Port Impedance         50               0                50               0                
7.4                            0.103536531760386 74.3916840470245 0.988141809858069 -12.0166440006627 0.988141809858069 -12.0166440006627 0.103537812366962 74.3899187682062 
! Gamma         0                0                0                0                
! Port Impedance         50               0                50               0                
7.5                            0.104848276915452 74.2517084711421 0.987955129786033 -12.17474237911  0.987955129786033 -12.17474237911  0.104849593868132 74.2499117061293 
! Gamma         0                0                0                0                
! Port Impedance         50               0                50               0                
7.6                            0.106158286496058 74.1115991690872 0.987767442561155 -12.3327657199842 0.987767442561155 -12.3327657199842 0.106159640256189 74.1097707611393 
! Gamma         0                0                0                0                
! Port Impedance         50               0                50               0                
7.7                            0.107466566905108 73.9713601283959 0.98757874544587 -12.4907146958436 0.987578745445871 -12.4907146958436 0.107467957927218 73.9694999229611 
! Gamma         0                0                0                0                
! Port Impedance         50               0                50               0                
7.8                            0.108773123779232 73.8309950768936 0.987389035582693 -12.6485899304226 0.987389035582693 -12.6485899304226 0.108774552510989 73.829102921718  
! Gamma         0                0                0                0                
! Port Impedance         50               0                50               0                
7.9                            0.110077962021552 73.6905075129275 0.987198310026493 -12.8063920003399 0.987198310026493 -12.8063920003399 0.110079428903755 73.6885832581543 
! Gamma         0                0                0                0                
! Port Impedance         50               0                50               0                
8                              0.111381085833551 73.5499007320925 0.987006565774322 -12.9641214367932 0.987006565774322 -12.9641214367933 0.111382591300135 73.5479442303504 
! Gamma         0                0                0                0                
! Port Impedance         50               0                50               0                
8.1                            0.112682498745978 73.4091778508468 0.98681379979293 -13.1217787272351 0.98681379979293 -13.1217787272351 0.112684043224048 73.407188957328  
! Gamma         0                0                0                0                
! Port Impedance         50               0                50               0                
8.2                            0.113982203648775 73.2683418273671 0.986620009044094 -13.2793643170264 0.986620009044094 -13.2793643170264 0.113983787558653 73.2663203998948 
! Gamma         0                0                0                0                
! Port Impedance         50               0                50               0                
8.3                            0.115280202819998 73.1273954799576 0.986425190507893 -13.4368786110647 0.986425190507894 -13.4368786110647 0.115281826575294 73.1253413790433 
! Gamma         0                0                0                0                
! Port Impedance         50               0                50               0                
8.4                            0.116576497953728 72.9863415032896 0.986229341204052 -13.5943219753843 0.986229341204052 -13.5943219753843 0.116578161961426 72.984254592181  
! Gamma         0                0                0                0                
! Port Impedance         50               0                50               0                
8.5                            0.117871090186967 72.845182482719  0.986032458211459 -13.7516947387252 0.986032458211459 -13.7516947387252 0.117872794847529 72.8430626274374 
! Gamma         0                0                0                0                
! Port Impedance         50               0                50               0                
8.6                            0.119163980125527 72.7039209068998 0.985834538685984 -13.9089971940696 0.985834538685984 -13.9089971940697 0.11916572583301 72.7017679762692 
! Gamma         0                0                0                0                
! Port Impedance         50               0                50               0                
8.7                            0.120455167868911 72.56255917889   0.985635579876687 -14.0662296001444 0.985635579876687 -14.0662296001445 0.1204569550111  72.5603730445561 
! Gamma         0                0                0                0                
! Port Impedance         50               0                50               0                
8.8                            0.12174465303422 72.4210996259214 0.985435579140528 -14.2233921828872 0.985435579140528 -14.2233921828872 0.121746481992771 72.4188801623632 
! Gamma         0                0                0                0                
! Port Impedance         50               0                50               0                
8.9                            0.123032434779087 72.2795445079878 0.98523453395567 -14.3804851368761 0.98523453395567 -14.3804851368761 0.123034305929679 72.2772915925203 
! Gamma         0                0                0                0                
! Port Impedance         50               0                50               0                
9                              0.124318511823661 72.1378960253875 0.985032441933468 -14.537508626722 0.985032441933468 -14.537508626722 0.124320425536164 72.1356095381567 
! Gamma         0                0                0                0                
! Port Impedance         50               0                50               0                
9.1                            0.125602882471681 71.9961563253422 0.984829300829229 -14.6944627884224 0.984829300829228 -14.6944627884224 0.125604839110328 71.9938361493132 
! Gamma         0                0                0                0                
! Port Impedance         50               0                50               0                
9.2                            0.126885544630647 71.8543275077987 0.984625108551822 -14.851347730677 0.984625108551822 -14.851347730677 0.126887544554213 71.851973528736  
! Gamma         0                0                0                0                
! Port Impedance         50               0                50               0                
9.3                            0.128166495831126 71.7124116305088 0.984419863172228 -15.0081635361645 0.984419863172227 -15.0081635361646 0.128168539393116 71.7100237369508 
! Gamma         0                0                0                0                
! Port Impedance         50               0                50               0                
9.4                            0.129445733245219 71.5704107134734 0.984213562931079 -15.1649102627808 0.984213562931079 -15.1649102627808 0.129447820794057 71.5679887967008 
! Gamma         0                0                0                0                
! Port Impedance         50               0                50               0                
9.5                            0.130723253704217 71.428326742825  0.984006206245286 -15.3215879448382 0.984006206245286 -15.3215879448382 0.130725385583444 71.4258706968231 
! Gamma         0                0                0                0                
! Port Impedance         50               0                50               0                
9.6                            0.131999053715481 71.2861616742141 0.983797791713798 -15.4781965942271 0.983797791713798 -15.4781965942271 0.132001230263951 71.28367139563   
! Gamma         0                0                0                0                
! Port Impedance         50               0                50               0                
9.7                            0.133273129478566 71.1439174357605 0.98358831812256 -15.6347362015388 0.98358831812256 -15.6347362015388 0.133275351030648 71.1413928238561 
! Gamma         0                0                0                0                
! Port Impedance         50               0                50               0                
9.8                            0.13454547690063 71.0015959306212 0.983377784448732 -15.7912067371515 0.983377784448731 -15.7912067371515 0.134547743786412 70.9990368872204 
! Gamma         0                0                0                0                
! Port Impedance         50               0                50               0                
9.9                            0.135816091611152 70.8591990392194 0.983166189864222 -15.9476081522792 0.983166189864222 -15.9476081522792 0.135818404156638 70.8566054686529 
! Gamma         0                0                0                0                
! Port Impedance         50               0                50               0                
10                             0.137084968975984 70.7167286211787 0.982953533738583 -16.1039403799839 0.982953533738583 -16.1039403799839 0.1370873275033  70.7141004302239 
! Gamma         0                0                0                0                
! Port Impedance         50               0                50               0                
10.1                           0.138352104110778 70.5741865169957 0.98273981564132 -16.2602033361521 0.98273981564132 -16.2602033361521 0.138354508938367 70.5715236148139 
! Gamma         0                0                0                0                
! Port Impedance         50               0                50               0                
10.2                           0.139617491893796 70.4315745494856 0.982525035343658 -16.4163969204373 0.982525035343658 -16.4163969204373 0.139619943336622 70.4288768475561 
! Gamma         0                0                0                0                
! Port Impedance         50               0                50               0                
10.3                           0.140881126978158 70.2888945250269 0.982309192819807 -16.5725210171669 0.982309192819807 -16.5725210171669 0.140883625347898 70.2861619370788 
! Gamma         0                0                0                0                
! Port Impedance         50               0                50               0                
10.4                           0.142143003803526 70.1461482346326 0.982092288247773 -16.728575496217 0.982092288247773 -16.728575496217 0.142145549408764 70.1433806765738 
! Gamma         0                0                0                0                
! Port Impedance         50               0                50               0                
10.5                           0.143403116607266 70.0033374548674 0.981874322009741 -16.8845602138534 0.981874322009741 -16.8845602138534 0.143405709753682 70.0005348447124 
! Gamma         0                0                0                0                
! Port Impedance         50               0                50               0                
10.6                           0.144661459435116 69.8604639486332 0.98165529469207 -17.0404750135423 0.98165529469207 -17.0404750135423 0.144664100425666 69.8576262064284 
! Gamma         0                0                0                0                
! Port Impedance         50               0                50               0                
10.7                           0.145918026151363 69.717529465837  0.981435207084937 -17.1963197267288 0.981435207084937 -17.1963197267288 0.145920715286466 69.714656513586  
! Gamma         0                0                0                0                
! Port Impedance         50               0                50               0                
10.8                           0.147172810448579 69.5745357439601 0.981214060181654 -17.3520941735862 0.981214060181654 -17.3520941735862 0.147175548026287 69.571627505546  
! Gamma         0                0                0                0                
! Port Impedance         50               0                50               0                
10.9                           0.148425805856922 69.4314845085378 0.980991855177687 -17.5077981637362 0.980991855177687 -17.5077981637361 0.148428592173087 69.4285409096466 
! Gamma         0                0                0                0                
! Port Impedance         50               0                50               0                
11                             0.149677005753016 69.2883774735646 0.980768593469407 -17.6634314969402 0.980768593469407 -17.6634314969402 0.149679841101459 69.2853984416069 
! Gamma         0                0                0                0                
! Port Impedance         50               0                50               0                
11.1                           0.150926403368456 69.1452163418339 0.980544276652595 -17.8189939637645 0.980544276652596 -17.8189939637645 0.150929288041118 69.1422018058668 
! Gamma         0                0                0                0                
! Port Impedance         50               0                50               0                
11.2                           0.152173991797929 69.002002805221  0.980318906520726 -17.9744853462176 0.980318906520726 -17.9744853462176 0.152176926085025 68.9989526958693 
! Gamma         0                0                0                0                
! Port Impedance         50               0                50               0                
11.3                           0.153419764006985 68.8587385449178 0.980092485063046 -18.1299054183628 0.980092485063046 -18.1299054183628 0.153422748197147 68.8556527942961 
! Gamma         0                0                0                0                
! Port Impedance         50               0                50               0                
11.4                           0.154663712839478 68.7154252316264 0.979865014462479 -18.2852539469059 0.979865014462479 -18.2852539469059 0.154666747219891 68.7123037732604 
! Gamma         0                0                0                0                
! Port Impedance         50               0                50               0                
11.5                           0.155905831024679 68.5720645257166 0.97963649709336 -18.4405306917587 0.97963649709336 -18.4405306917587 0.155908915881212 68.5689072944661 
! Gamma         0                0                0                0                
! Port Impedance         50               0                50               0                
11.6                           0.157146111184092 68.4286580773541 0.979406935519028 -18.5957354065797 0.979406935519028 -18.5957354065797 0.15714924680142 68.4254650093356 
! Gamma         0                0                0                0                
! Port Impedance         50               0                50               0                
11.7                           0.158384545837979 68.2852075266029 0.979176332489289 -18.7508678392923 0.979176332489289 -18.7508678392923 0.158387732499699 68.2819785591131 
! Gamma         0                0                0                0                
! Port Impedance         50               0                50               0                
11.8                           0.159621127411616 68.1417145035061 0.978944690937761 -18.9059277325818 0.978944690937761 -18.9059277325818 0.159624365400353 68.1384495749468 
! Gamma         0                0                0                0                
! Port Impedance         50               0                50               0                
11.9                           0.160855848241279 67.9981806281494 0.978712013979123 -19.0609148243711 0.978712013979123 -19.060914824371 0.160859137838792 67.9948796779528 
! Gamma         0                0                0                0                
! Port Impedance         50               0                50               0                
12                             0.162088700579996 67.8546075107089 0.978478304906268 -19.2158288482771 0.978478304906268 -19.2158288482771 0.162092042067264 67.8512704792645 
! Gamma         0                0                0                0                
! Port Impedance         50               0                50               0                
12.1                           0.163319676603051 67.7109967514878 0.978243567187384 -19.3706695340477 0.978243567187385 -19.3706695340476 0.163323070260366 67.7076235800701 
! Gamma         0                0                0                0                
! Port Impedance         50               0                50               0                
12.2                           0.164548768413276 67.5673499409424 0.97800780446297 -19.5254366079797 0.978007804462971 -19.5254366079797 0.164552214520316 67.5639405716402 
! Gamma         0                0                0                0                
! Port Impedance         50               0                50               0                
12.3                           0.165775968046121 67.4236686596999 0.977771020542786 -19.68012979332  0.977771020542787 -19.6801297933199 0.165779466882026 67.4202230353467 
! Gamma         0                0                0                0                
! Port Impedance         50               0                50               0                
12.4                           0.167001267474531 67.2799544785708 0.977533219402767 -19.8347488106483 0.977533219402768 -19.8347488106483 0.167004819317961 67.2764725426774 
! Gamma         0                0                0                0                
! Port Impedance         50               0                50               0                
12.5                           0.168224658613621 67.136208958556  0.977294405181891 -19.9892933782448 0.977294405181891 -19.9892933782448 0.168228263742817 67.1326906552434 
! Gamma         0                0                0                0                
! Port Impedance         50               0                50               0                
12.6                           0.169446133325178 66.9924336508499 0.977054582179015 -20.1437632124407 0.977054582179016 -20.1437632124407 0.169449792018009 66.988878924785  
! Gamma         0                0                0                0                
! Port Impedance         50               0                50               0                
12.7                           0.17066568342198 66.8486300968418 0.976813754849695 -20.2981580279545 0.976813754849696 -20.2981580279544 0.170669395955987 66.8450388931741 
! Gamma         0                0                0                0                
! Port Impedance         50               0                50               0                
12.8                           0.171883300671957 66.7047998281149 0.976571927802978 -20.4524775382127 0.976571927802979 -20.4524775382126 0.171887067324387 66.7011720924148 
! Gamma         0                0                0                0                
! Port Impedance         50               0                50               0                
12.9                           0.173098976802188 66.5609443664449 0.976329105798184 -20.6067214556576 0.976329105798185 -20.6067214556576 0.173102797850024 66.5572800446442 
! Gamma         0                0                0                0                
! Port Impedance         50               0                50               0                
13                             0.174312703502755 66.4170652237974 0.976085293741692 -20.7608894920408 0.976085293741693 -20.7608894920408 0.174316579222733 66.4133642621313 
! Gamma         0                0                0                0                
! Port Impedance         50               0                50               0                
13.1                           0.175524472430439 66.2731639023272 0.97584049668371 -20.9149813587036 0.975840496683711 -20.9149813587035 0.17552840309907 66.2694262472777 
! Gamma         0                0                0                0                
! Port Impedance         50               0                50               0                
13.2                           0.176734275212301 66.1292418943762 0.975594719815056 -21.0689967668454 0.975594719815057 -21.0689967668454 0.176738261105872 66.1254674926181 
! Gamma         0                0                0                0                
! Port Impedance         50               0                50               0                
13.3                           0.177942103449111 65.985300682474  0.975347968463949 -21.2229354277804 0.97534796846395 -21.2229354277804 0.177946144843693 65.9814894808219 
! Gamma         0                0                0                0                
! Port Impedance         50               0                50               0                
13.4                           0.179147948718666 65.8413417393384 0.975100248092802 -21.3767970531819 0.975100248092803 -21.3767970531818 0.179152045890108 65.837493684696  
! Gamma         0                0                0                0                
! Port Impedance         50               0                50               0                
13.5                           0.180351802578985 65.6973665278787 0.974851564295038 -21.5305813553164 0.97485156429504 -21.5305813553163 0.180355955802902 65.6934815671897 
! Gamma         0                0                0                0                
! Port Impedance         50               0                50               0                
13.6                           0.18155365657139 65.5533765011993 0.974601922791919 -21.6842880472669 0.97460192279192 -21.6842880472668 0.18155786612315 65.5494545814002 
! Gamma         0                0                0                0                
! Port Impedance         50               0                50               0                
13.7                           0.182753502223476 65.4093731026062 0.974351329429395 -21.8379168431459 0.974351329429396 -21.8379168431459 0.182757768378179 65.4054141705807 
! Gamma         0                0                0                0                
! Port Impedance         50               0                50               0                
13.8                           0.183951331051984 65.2653577656144 0.974099790174978 -21.9914674582991 0.974099790174979 -21.991467458299 0.183955654084432 65.2613617681501 
! Gamma         0                0                0                0                
! Port Impedance         50               0                50               0                
13.9                           0.18514713456557 65.1213319139582 0.973847311114642 -22.144939609499 0.973847311114643 -22.1449396094989 0.185151514750236 65.1172987977044 
! Gamma         0                0                0                0                
! Port Impedance         50               0                50               0                
14                             0.186340904267473 64.9772969616026 0.973593898449742 -22.2983330151305 0.973593898449743 -22.2983330151304 0.186345341878466 64.9732266730303 
! Gamma         0                0                0                0                
! Port Impedance         50               0                50               0                
14.1                           0.187532631658107 64.8332543127569 0.973339558493974 -22.4516473953673 0.973339558493975 -22.4516473953673 0.187537126969124 64.8291467981204 
! Gamma         0                0                0                0                
! Port Impedance         50               0                50               0                
14.2                           0.188722308237551 64.6892053618903 0.973084297670355 -22.6048824723404 0.973084297670356 -22.6048824723403 0.188726861521835 64.685060567191  
! Gamma         0                0                0                0                
! Port Impedance         50               0                50               0                
14.3                           0.189909925507961 64.5451514937496 0.972828122508238 -22.758037970298 0.97282812250824 -22.758037970298 0.189914537038247 64.5409693647006 
! Gamma         0                0                0                0                
! Port Impedance         50               0                50               0                
14.4                           0.191095474975903 64.4010940833786 0.972571039640363 -22.9111136157592 0.972571039640365 -22.9111136157592 0.191100145024363 64.3968745653715 
! Gamma         0                0                0                0                
! Port Impedance         50               0                50               0                
14.5                           0.192278948154609 64.2570344961388 0.972313055799936 -23.0641091376589 0.972313055799938 -23.0641091376589 0.192283676992789 64.2527775342125 
! Gamma         0                0                0                0                
! Port Impedance         50               0                50               0                
14.6                           0.193460336566154 64.112974087733  0.972054177817749 -23.217024267487 0.972054177817751 -23.2170242674869 0.193465124464911 64.1086796265434 
! Gamma         0                0                0                0                
! Port Impedance         50               0                50               0                
14.7                           0.194639631743565 63.9689142042296 0.97179441261933 -23.3698587394198 0.971794412619331 -23.3698587394197 0.194644478973   63.9645821880213 
! Gamma         0                0                0                0                
! Port Impedance         50               0                50               0                
14.8                           0.195816825232865 63.8248561820888 0.971533767222131 -23.5226122904463 0.971533767222133 -23.5226122904462 0.195821732062248 63.8204865546686 
! Gamma         0                0                0                0                
! Port Impedance         50               0                50               0                
14.9                           0.196991908595047 63.680801348191  0.971272248732758 -23.6752846604869 0.97127224873276 -23.6752846604869 0.196996875292741 63.6763940529025 
! Gamma         0                0                0                0                
! Port Impedance         50               0                50               0                
15                             0.19816487340798 63.5367510198659 0.971009864344229 -23.8278755925078 0.971009864344231 -23.8278755925077 0.198169900241366 63.5323059995655 
! Gamma         0                0                0                0                
! Port Impedance         50               0                50               0                
15.1                           0.199335711268267 63.3927065049231 0.970746621333275 -23.9803848326279 0.970746621333277 -23.9803848326279 0.199340798503658 63.3882237019581 
! Gamma         0                0                0                0                
! Port Impedance         50               0                50               0                
15.2                           0.200504413793032 63.2486691016848 0.97048252705768 -24.1328121302223 0.970482527057682 -24.1328121302222 0.200509561695587 63.2441484578725 
! Gamma         0                0                0                0                
! Port Impedance         50               0                50               0                
15.3                           0.201670972621655 63.104640099019  0.970217588953653 -24.2851572380188 0.970217588953655 -24.2851572380187 0.201676181455294 63.1000815556272 
! Gamma         0                0                0                0                
! Port Impedance         50               0                50               0                
15.4                           0.202835379417453 62.9606207763742 0.969951814533245 -24.4374199121907 0.969951814533247 -24.4374199121907 0.202840649444764 62.9560242741032 
! Gamma         0                0                0                0                
! Port Impedance         50               0                50               0                
15.5                           0.20399762586931 62.8166124038155 0.969685211381801 -24.5895999124444 0.969685211381803 -24.5895999124443 0.204002957351454 62.8119778827813 
! Gamma         0                0                0                0                
! Port Impedance         50               0                50               0                
15.6                           0.205157703693246 62.6726162420611 0.969417787155446 -24.7416970021018 0.969417787155448 -24.7416970021017 0.205163096889865 62.6679436417801 
! Gamma         0                0                0                0                
! Port Impedance         50               0                50               0                
15.7                           0.206315604633952 62.5286335425208 0.969149549578617 -24.8937109481794 0.96914954957862 -24.8937109481794 0.206321059803067 62.5239228018956 
! Gamma         0                0                0                0                
! Port Impedance         50               0                50               0                
15.8                           0.207471320466265 62.3846655473346 0.968880506441626 -25.0456415214626 0.968880506441628 -25.0456415214626 0.207476837864177 62.3799166046411 
! Gamma         0                0                0                0                
! Port Impedance         50               0                50               0                
15.9                           0.208624842996605 62.2407134894126 0.968610665598262 -25.1974884965758 0.968610665598264 -25.1974884965757 0.208630422877792 62.2359262822882 
! Gamma         0                0                0                0                
! Port Impedance         50               0                50               0                
16                             0.209776164064359 62.0967785924757 0.968340034963437 -25.3492516520487 0.968340034963439 -25.3492516520487 0.209781806681374 62.0919530579086 
! Gamma         0                0                0                0                
! Port Impedance         50               0                50               0                
16.1                           0.210925275543231 61.9528620710966 0.968068622510855 -25.5009307703795 0.968068622510858 -25.5009307703795 0.210930981146595 61.9479981454167 
! Gamma         0                0                0                0                
! Port Impedance         50               0                50               0                
16.2                           0.212072169342548 61.8089651307427 0.967796436270737 -25.6525256380935 0.96779643627074 -25.6525256380934 0.21207793818064 61.8040627496129 
! Gamma         0                0                0                0                
! Port Impedance         50               0                50               0                
16.3                           0.213216837408518 61.6650889678181 0.967523484327563 -25.804036045799 0.967523484327566 -25.8040360457989 0.21322266972747 61.6601480662271 
! Gamma         0                0                0                0                
! Port Impedance         50               0                50               0                
16.4                           0.21435927172546 61.5212347697074 0.967249774817865 -25.9554617882396 0.967249774817867 -25.9554617882396 0.214365167769046 61.5162552819635 
! Gamma         0                0                0                0                
! Port Impedance         50               0                50               0                
16.5                           0.215499464316989 61.3774037148197 0.966975315928046 -26.1068026643436 0.966975315928048 -26.1068026643436 0.215505424326512 61.3723855745453 
! Gamma         0                0                0                0                
! Port Impedance         50               0                50               0                
16.6                           0.216637407247167 61.233596972633  0.966700115892245 -26.25805847727  0.966700115892247 -26.25805847727  0.216643431461348 61.2285401127602 
! Gamma         0                0                0                0                
! Port Impedance         50               0                50               0                
16.7                           0.217773092621614 61.0898157037388 0.966424182990224 -26.4092290344519 0.966424182990226 -26.4092290344519 0.217779181276479 61.0847200565065 
! Gamma         0                0                0                0                
! Port Impedance         50               0                50               0                
16.8                           0.218906512588593 60.9460610598883 0.966147525545303 -26.5603141476366 0.966147525545305 -26.5603141476366 0.218912665917359 60.9409265568389 
! Gamma         0                0                0                0                
! Port Impedance         50               0                50               0                
16.9                           0.220037659340054 60.8023341840373 0.965870151922319 -26.7113136329241 0.96587015192232 -26.7113136329241 0.220043877573011 60.7971607560155 
! Gamma         0                0                0                0                
! Port Impedance         50               0                50               0                
17                             0.221166525112644 60.6586362103929 0.965592070525622 -26.8622273108016 0.965592070525623 -26.8622273108016 0.221172808477046 60.6534237875446 
! Gamma         0                0                0                0                
! Port Impedance         50               0                50               0                
17.1                           0.222293102188694 60.5149682644598 0.965313289797111 -27.0130550061764 0.965313289797112 -27.0130550061764 0.222299450908638 60.5097167762321 
! Gamma         0                0                0                0                
! Port Impedance         50               0                50               0                
17.2                           0.223417382897168 60.3713314630869 0.965033818214291 -27.1637965484066 0.965033818214294 -27.1637965484066 0.223423797193478 60.3660408382289 
! Gamma         0                0                0                0                
! Port Impedance         50               0                50               0                
17.3                           0.224539359614581 60.2277269145146 0.964753664288376 -27.3144517713286 0.964753664288378 -27.3144517713286 0.224545839704693 60.2223970810785 
! Gamma         0                0                0                0                
! Port Impedance         50               0                50               0                
17.4                           0.225659024765896 60.0841557184217 0.964472836562411 -27.4650205132833 0.964472836562413 -27.4650205132833 0.225665570863742 60.0787866037652 
! Gamma         0                0                0                0                
! Port Impedance         50               0                50               0                
17.5                           0.226776370825381 59.9406189659728 0.964191343609432 -27.6155026171397 0.964191343609434 -27.6155026171396 0.22678298314127 59.935210496762  
! Gamma         0                0                0                0                
! Port Impedance         50               0                50               0                
17.6                           0.22789139031745 59.7971177398665 0.963909194030664 -27.7658979303165 0.963909194030666 -27.7658979303164 0.227898069057952 59.7916698420789 
! Gamma         0                0                0                0                
! Port Impedance         50               0                50               0                
17.7                           0.22900407581747 59.6536531143822 0.963626396453735 -27.916206304802 0.963626396453737 -27.916206304802 0.229010821185299 59.6481657133112 
! Gamma         0                0                0                0                
! Port Impedance         50               0                50               0                
17.8                           0.230114419952541 59.5102261554286 0.963342959530932 -28.066427597172 0.963342959530934 -28.0664275971719 0.230121232146439 59.5046991756881 
! Gamma         0                0                0                0                
! Port Impedance         50               0                50               0                
17.9                           0.231222415402257 59.3668379205916 0.963058891937485 -28.2165616686054 0.963058891937487 -28.2165616686054 0.231229294616877 59.361271286121  
! Gamma         0                0                0                0                
! Port Impedance         50               0                50               0                
18                             0.232328054899436 59.2234894591819 0.962774202369874 -28.3666083848993 0.962774202369875 -28.3666083848993 0.232335001325225 59.2178830932522 
! Gamma         0                0                0                0                
! Port Impedance         50               0                50               0                
18.1                           0.233431331230829 59.0801818122836 0.962488899544171 -28.5165676164807 0.962488899544173 -28.5165676164807 0.233438345053912 59.0745356375034 
! Gamma         0                0                0                0                
! Port Impedance         50               0                50               0                
18.2                           0.234532237237803 58.936916012802  0.962202992194413 -28.6664392384182 0.962202992194414 -28.6664392384182 0.234539318639868 58.9312299511245 
! Gamma         0                0                0                0                
! Port Impedance         50               0                50               0                
18.3                           0.235630765817001 58.7936930855117 0.961916489070992 -28.8162231304313 0.961916489070994 -28.8162231304313 0.235637914975187 58.7879670582422 
! Gamma         0                0                0                0                
! Port Impedance         50               0                50               0                
18.4                           0.236726909920988 58.6505140471052 0.961629398939088 -28.9659191768984 0.961629398939089 -28.9659191768984 0.236734127007764 58.6447479749083 
! Gamma         0                0                0                0                
! Port Impedance         50               0                50               0                
18.5                           0.237820662558858 58.5073799062404 0.961341730577113 -29.1155272668631 0.961341730577115 -29.1155272668631 0.237827947741916 58.5015737091485 
! Gamma         0                0                0                0                
! Port Impedance         50               0                50               0                
18.6                           0.238912016796838 58.364291663589  0.961053492775197 -29.2650472940399 0.961053492775199 -29.2650472940398 0.238919370238975 58.358445261011  
! Gamma         0                0                0                0                
! Port Impedance         50               0                50               0                
18.7                           0.240000965758857 58.2212503118848 0.960764694333688 -29.4144791568173 0.960764694333689 -29.4144791568173 0.240008387617867 58.2153636226147 
! Gamma         0                0                0                0                
! Port Impedance         50               0                50               0                
18.8                           0.241087502627105 58.0782568359711 0.960475344061683 -29.5638227582613 0.960475344061685 -29.5638227582612 0.241094993055662 58.0723297781976 
! Gamma         0                0                0                0                
! Port Impedance         50               0                50               0                
18.9                           0.242171620642565 57.9353122128493 0.960185450775591 -29.7130780061158 0.960185450775593 -29.7130780061158 0.242179179788117 57.9293447041655 
! Gamma         0                0                0                0                
! Port Impedance         50               0                50               0                
19                             0.243253313105528 57.7924174117262 0.959895023297708 -29.8622448128035 0.959895023297709 -29.8622448128035 0.243260941110186 57.7864093691394 
! Gamma         0                0                0                0                
! Port Impedance         50               0                50               0                
19.1                           0.244332573376091 57.6495733940624 0.959604070454825 -30.0113230954246 0.959604070454826 -30.0113230954246 0.244340270376518 57.6435247340045 
! Gamma         0                0                0                0                
! Port Impedance         50               0                50               0                
19.2                           0.245409394874634 57.506781113619  0.959312601076862 -30.1603127757545 0.959312601076863 -30.1603127757545 0.245417161001939 57.5006917519574 
! Gamma         0                0                0                0                
! Port Impedance         50               0                50               0                
19.3                           0.246483771082279 57.3640415165063 0.959020623995518 -30.3092137802409 0.959020623995519 -30.3092137802409 0.246491606461911 57.3579113685544 
! Gamma         0                0                0                0                
! Port Impedance         50               0                50               0                
19.4                           0.247555695541334 57.2213555412304 0.958728148042954 -30.4580260399998 0.958728148042954 -30.4580260399998 0.247563600292973 57.2151845217589 
! Gamma         0                0                0                0                
! Port Impedance         50               0                50               0                
19.5                           0.248625161855716 57.0787241187406 0.958435182050491 -30.60674949081  0.958435182050491 -30.60674949081  0.248633136093171 57.0725121419891 
! Gamma         0                0                0                0                
! Port Impedance         50               0                50               0                
19.6                           0.249692163691361 56.9361481724772 0.958141734847336 -30.7553840731071 0.958141734847337 -30.7553840731071 0.249700207522464 56.9298951521655 
! Gamma         0                0                0                0                
! Port Impedance         50               0                50               0                
19.7                           0.250756694776611 56.7936286184176 0.957847815259329 -30.9039297319765 0.957847815259329 -30.9039297319765 0.25076480830312 56.7873344677579 
! Gamma         0                0                0                0                
! Port Impedance         50               0                50               0                
19.8                           0.251818748902598 56.651166365124  0.957553432107709 -31.0523864171457 0.957553432107709 -31.0523864171457 0.251826932220088 56.6448309968327 
! Gamma         0                0                0                0                
! Port Impedance         50               0                50               0                
19.9                           0.252878319923595 56.5087623137894 0.95725859420791 -31.2007540829751 0.95725859420791 -31.2007540829751 0.252886573121364 56.5023856400994 
! Gamma         0                0                0                0                
! Port Impedance         50               0                50               0                
20                             0.253935401757365 56.3664173582849 0.956963310368367 -31.3490326884489 0.956963310368367 -31.3490326884489 0.253943724918334 56.359999290958  
! Gamma         0                0                0                0                
! Port Impedance         50               0                50               0                
