! Touchstone file exported from HFSS 2026.1.0
!        File:           C:/ffzhzh/LocalFiles/Ansys_Project_Files/temp_train_BSMRDL_59_1782882685_46784.aedt
!        Generated:      01:12:33 PM Jul  1, 2026
!        Design:         BSMRDL
!        Project:        temp_train_BSMRDL_59_1782882685_46784
!
! Variables:
!        h_bsmrdl = 4.86um
!        h_ox = 20um
!        h_rdl = 5um
!        h_sub = 80um
!        h_tmrdl = 5um
!        h_tsv = 80um
!        h_via = 3um
!        l_bsmrdl = 128.83um
!        l_sub = 528.83um
!        l_tmrdl = 200um
!        m_sub = 200um
!        pitch = 42.44um
!        r_tsv = 6um
!        s_tmrdl = 10um
!        w_bsmrdl = 29.91um
!        w_sub = 500um
!        w_tmrdl = 12um
!        x_tsv_center1 = 206um
!        x_tsv_center2 = 364.74um
!        x_tsv_center3 = 576.74um
!        x_tsv_center4 = 735.48um
!        x_tsv_center5 = 947.48um
!        x_tsv_center6 = 1106.22um
!
# GHz S MA R 50.000000
! Terminal data exported
! Port[1] = BSM_RDL1_1_T1
! Port[2] = BSM_RDL1_1_T2
0.1                            0.000619187539820158 34.4590938222043 0.999489714768308 -0.0515662448301199 0.999489714768307 -0.0515662448301205 0.000619187567300998 34.459017248092  
! Gamma         0                0                0                0                
! Port Impedance         50               0                50               0                
0.2                            0.000871901942451936 49.5252777352636 0.99943595159428 -0.101161377638342 0.999435951594278 -0.101161377638303 0.000871900032751302 49.5249121150479 
! Gamma         0                0                0                0                
! Port Impedance         50               0                50               0                
0.3                            0.00112840673684619 56.8635182608572 0.999384508793427 -0.148967920274473 0.999384508793426 -0.148967920274389 0.00112840073232991 56.8631253662283 
! Gamma         0                0                0                0                
! Port Impedance         50               0                50               0                
0.4                            0.00137841136286174 61.6275852592094 0.999345088192932 -0.195898218990919 0.999345088192932 -0.195898218990809 0.00137840286116475 61.6272405777142 
! Gamma         0                0                0                0                
! Port Impedance         50               0                50               0                
0.5                            0.00162724102885215 65.1676417551745 0.999316065589263 -0.242528747794402 0.999316065589263 -0.24252874779428 0.00162723197229791 65.1673157482406 
! Gamma         0                0                0                0                
! Port Impedance         50               0                50               0                
0.6                            0.00187807323618531 67.9280695292912 0.999293967576301 -0.289104160021247 0.999293967576302 -0.289104160021123 0.00187806489807348 67.9277174094922 
! Gamma         0                0                0                0                
! Port Impedance         50               0                50               0                
0.7                            0.00213183368768644 70.1260290120784 0.999276096481856 -0.335708826608185 0.999276096481857 -0.335708826608063 0.00213182675447209 70.1256163144494 
! Gamma         0                0                0                0                
! Port Impedance         50               0                50               0                
0.8                            0.00238844124301333 71.8998614634444 0.99926068940514 -0.382363572175066 0.999260689405141 -0.382363572174949 0.00238843604214355 71.8993658169822 
! Gamma         0                0                0                0                
! Port Impedance         50               0                50               0                
0.9                            0.00264748207744201 73.3474986736536 0.999246640424196 -0.429066407190324 0.999246640424197 -0.429066407190212 0.00264747874015308 73.3469065430519 
! Gamma         0                0                0                0                
! Port Impedance         50               0                50               0                
1                              0.00290848529716169 74.540824567135  0.999233256437606 -0.47580823878156 0.999233256437608 -0.475808238781453 0.00290848385294494 74.5401281035405 
! Gamma         0                0                0                0                
! Port Impedance         50               0                50               0                
1.1                            0.00317101902203069 75.5334646845375 0.999220098200608 -0.52257866289716 0.999220098200609 -0.522578662897058 0.00317101944995586 75.5326595327523 
! Gamma         0                0                0                0                
! Port Impedance         50               0                50               0                
1.2                            0.00343471537090284 76.3658960979706 0.999206883932722 -0.569367952338337 0.999206883932724 -0.569367952338239 0.0034347176268511 76.3649800093807 
! Gamma         0                0                0                0                
! Port Impedance         50               0                50               0                
1.3                            0.00369926978235304 77.0690150252913 0.999193431490852 -0.616167611127972 0.999193431490854 -0.616167611127878 0.00369927381330402 77.0679870093096 
! Gamma         0                0                0                0                
! Port Impedance         50               0                50               0                
1.4                            0.00396443250914282 77.6666721454668 0.999179623291083 -0.662970408990112 0.999179623291085 -0.662970408990022 0.00396443826057471 77.6655319555431 
! Gamma         0                0                0                0                
! Port Impedance         50               0                50               0                
1.5                            0.00422999890675872 78.1774874659359 0.999165384606604 -0.709770247334284 0.999165384606606 -0.709770247334197 0.00423000632638716 78.1762352883674 
! Gamma         0                0                0                0                
! Port Impedance         50               0                50               0                
1.6                            0.00449580072413362 78.6161579332545 0.99915066982913 -0.756561989214286 0.999150669829132 -0.756561989214203 0.00449580976370456 78.6147941982843 
! Gamma         0                0                0                0                
! Port Impedance         50               0                50               0                
1.7                            0.00476169892835718 78.9944068496001 0.999135453560955 -0.803341299974893 0.999135453560957 -0.803341299974813 0.00476170954441017 78.9929321164868 
! Gamma         0                0                0                0                
! Port Impedance         50               0                50               0                
1.8                            0.00502757800185262 79.3216793626285 0.999119724699394 -0.85010451198524 0.999119724699396 -0.850104511985163 0.00502759015594693 79.3200942497499 
! Gamma         0                0                0                0                
! Port Impedance         50               0                50               0                
1.9                            0.00529334147696772 79.6056568715413 0.999103482415131 -0.896848514428469 0.999103482415133 -0.896848514428395 0.00529335513563705 79.6039620141167 
! Gamma         0                0                0                0                
! Port Impedance         50               0                50               0                
2                              0.00555890845448325 79.85264131185   0.999086733354873 -0.94357066499919 0.999086733354875 -0.94357066499912 0.00555892358906182 79.8508373367095 
! Gamma         0                0                0                0                
! Port Impedance         50               0                50               0                
2.1                            0.00582421088476609 80.0678451256225 0.999069489651916 -0.990268719470915 0.999069489651918 -0.990268719470848 0.00582422747116186 80.0659326365479 
! Gamma         0                0                0                0                
! Port Impedance         50               0                50               0                
2.2                            0.0060891914333412 80.2556122359455 0.999051767480609 -1.03694077537236 0.999051767480611 -1.0369407753723 0.00608920945179548 80.2535918055808 
! Gamma         0                0                0                0                
! Port Impedance         50               0                50               0                
2.3                            0.0063538017925401 80.4195880671667 0.999033585984196 -1.08358522662853 0.999033585984199 -1.08358522662847 0.00635382122739244 80.4174602330037 
! Gamma         0                0                0                0                
! Port Impedance         50               0                50               0                
2.4                            0.00661800133373971 80.5628515770385 0.999014966463951 -1.13020072666384 0.999014966463953 -1.13020072666378 0.00661802217320636 80.5606168399125 
! Gamma         0                0                0                0                
! Port Impedance         50               0                50               0                
2.5                            0.00688175602040954 80.6880187028307 0.998995931754688 -1.17678615802434 0.99899593175469 -1.17678615802429 0.00688177825637763 80.6856775269406 
! Gamma         0                0                0                0                
! Port Impedance         50               0                50               0                
2.6                            0.00714503752179505 80.7973241011008 0.99897650573582 -1.22334060702952 0.998976505735822 -1.22334060702946 0.00714506114963212 80.7948769149314 
! Gamma         0                0                0                0                
! Port Impedance         50               0                50               0                
2.7                            0.00740782248184493 80.8926862606262 0.998956712942886 -1.26986334232043 0.998956712942888 -1.26986334232038 0.00740784750022175 80.8901334583796 
! Gamma         0                0                0                0                
! Port Impedance         50               0                50               0                
2.8                            0.00767009190907214 80.9757597720937 0.998936578255049 -1.31635379644421 0.998936578255052 -1.31635379644416 0.00767011831979662 80.9731017153836 
! Gamma         0                0                0                0                
! Port Impedance         50               0                50               0                
2.9                            0.00793183066133803 81.0479775971065 0.998916126641157 -1.36281154982371 0.998916126641159 -1.36281154982366 0.00793185846919774 81.0452146167623 
! Gamma         0                0                0                0                
! Port Impedance         50               0                50               0                
3                              0.00819302700577075 81.1105854898339 0.998895382951824 -1.40923631661919 0.998895382951826 -1.40923631661915 0.00819305621838206 81.1077178877217 
! Gamma         0                0                0                0                
! Port Impedance         50               0                50               0                
3.1                            0.00845367223870502 81.1646702155447 0.998874371748372 -1.45562793210888 0.998874371748375 -1.45562793210884 0.00845370286636711 81.1616982663501 
! Gamma         0                0                0                0                
! Port Impedance         50               0                50               0                
3.2                            0.0087137603540542 81.2111828311579 0.99885311716181 -1.50198634130535 0.998853117161812 -1.50198634130531 0.00871379240960638 81.2081067840999 
! Gamma         0                0                0                0                
! Port Impedance         50               0                50               0                
3.3                            0.00897328775118995 81.25095800839   0.998831642776683 -1.54831158859363 0.998831642776685 -1.54831158859359 0.00897332124987146 81.2477780888507 
! Gamma         0                0                0                0                
! Port Impedance         50               0                50               0                
3.4                            0.00923225297542648 81.2847301648598 0.998809971535845 -1.59460380822815 0.998809971535848 -1.59460380822812 0.00923228793473786 81.2814465759242 
! Gamma         0                0                0                0                
! Port Impedance         50               0                50               0                
3.5                            0.00949065648574342 81.3131470045398 0.998788125663014 -1.64086321556491 0.998788125663016 -1.64086321556488 0.00949069292530902 81.3097599284451 
! Gamma         0                0                0                0                
! Port Impedance         50               0                50               0                
3.6                            0.00974850044555464 81.3367809431403 0.998766126600622 -1.68709009893459 0.998766126600624 -1.68709009893457 0.00974853838698606 81.3332905426376 
! Gamma         0                0                0                0                
! Port Impedance         50               0                50               0                
3.7                            0.0100057885332269 81.3561387968363 0.998743994960934 -1.73328481208428 0.998743994960937 -1.73328481208426 0.0100058279999873 81.3525452164707 
! Gamma         0                0                0                0                
! Port Impedance         50               0                50               0                
3.8                            0.010262525769739 81.3716700372124 0.998721750488725 -1.77944776713214 0.998721750488727 -1.77944776713212 0.0102625667870085 81.3679734045252 
! Gamma         0                0                0                0                
! Port Impedance         50               0                50               0                
3.9                            0.010518718361399 81.3837738562082 0.998699412034082 -1.82557942799157 0.998699412034085 -1.82557942799155 0.0105187609559407 81.3799742828681 
! Gamma         0                0                0                0                
! Port Impedance         50               0                50               0                
4                              0.0107743735559409 81.3928052383654 0.9986769975341  -1.87168030423042 0.998676997534102 -1.87168030423041 0.0107744177559691 81.3889028212339 
! Gamma         0                0                0                0                
! Port Impedance         50               0                50               0                
4.1                            0.0110294995106347 81.3990802008888 0.998654524002378 -1.91775094533752 0.998654524002381 -1.91775094533751 0.0110295453456843 81.3950750230248 
! Gamma         0                0                0                0                
! Port Impedance         50               0                50               0                
4.2                            0.0112841051712805 81.4028803327767 0.99863200752537 -1.9637919353736 0.998632007525372 -1.96379193537359 0.0112841526720783 81.3987724643843 
! Gamma         0                0                0                0                
! Port Impedance         50               0                50               0                
4.3                            0.0115382001611432 81.4044567408722 0.998609463264723 -2.009803887987  0.998609463264725 -2.00980388798699 0.0115382493594828 81.4002462401973 
! Gamma         0                0                0                0                
! Port Impedance         50               0                50               0                
4.4                            0.0117917946790268 81.4040334918854 0.998586905464847 -2.05578744177703 0.99858690546485 -2.05578744177702 0.0117918456076449 81.3997204060629 
! Gamma         0                0                0                0                
! Port Impedance         50               0                50               0                
4.5                            0.0120448994057936 81.4018106242486 0.998564347465015 -2.10174325598944 0.998564347465017 -2.10174325598943 0.0120449520982507 81.3973949901051 
! Gamma         0                0                0                0                
! Port Impedance         50               0                50               0                
4.6                            0.0122975254187237 81.3979667913474 0.998541801715354 -2.14767200652959 0.998541801715356 -2.14767200652959 0.0122975799092878 81.393448636161  
! Gamma         0                0                0                0                
! Port Impedance         50               0                50               0                
4.7                            0.012549684113172 81.392661587631  0.998519279796176 -2.19357438227948 0.998519279796178 -2.19357438227948 0.0125497404367061 81.3880409298505 
! Gamma         0                0                0                0                
! Port Impedance         50               0                50               0                
4.8                            0.0128013871310343 81.3860376008846 0.998496792440101 -2.23945108170543 0.998496792440103 -2.23945108170543 0.0128014453228883 81.3813144508118 
! Gamma         0                0                0                0                
! Port Impedance         50               0                50               0                
4.9                            0.0130526462955754 81.3782222271962 0.998474349556527 -2.28530280974323 0.998474349556529 -2.28530280974323 0.0130527063914823 81.3733965876315 
! Gamma         0                0                0                0                
! Port Impedance         50               0                50               0                
5                              0.0133034735522049 81.3693292795694 0.998451960257987 -2.33113027494793 0.998451960257989 -2.33113027494793 0.0133035355881816 81.3644011464232 
! Gamma         0                0                0                0                
! Port Impedance         50               0                50               0                
5.1                            0.0135538809148138 81.359460416518  0.998429632888031 -2.37693418689544 0.998429632888033 -2.37693418689545 0.0135539449270666 81.3544297793891 
! Gamma         0                0                0                0                
! Port Impedance         50               0                50               0                
5.2                            0.0138038804173094 81.3487064131292 0.998407375050269 -2.4227152538232 0.998407375050271 -2.42271525382321 0.0138039464421439 81.3435732558518 
! Gamma         0                0                0                0                
! Port Impedance         50               0                50               0                
5.3                            0.0140534840700031 81.3371482938741 0.998385193638262 -2.46847418049723 0.998385193638264 -2.46847418049724 0.0140535521437399 81.331912595035  
! Gamma         0                0                0                0                
! Port Impedance         50               0                50               0                
5.4                            0.0143027038205273 81.3248583437504 0.998363094865979 -2.51421166629315 0.998363094865981 -2.51421166629316 0.0143027739794221 81.319520077177  
! Gamma         0                0                0                0                
! Port Impedance         50               0                50               0                
5.5                            0.0145515515189704 81.3119010120758 0.998341084298573 -2.55992840347865 0.998341084298575 -2.55992840347866 0.0145516237991389 81.3064601472955 
! Gamma         0                0                0                0                
! Port Impedance         50               0                50               0                
5.6                            0.0148000388869335 81.2983337213355 0.998319166883249 -2.60562507568536 0.998319166883251 -2.60562507568538 0.0148001133242819 81.2927902240097 
! Gamma         0                0                0                0                
! Port Impedance         50               0                50               0                
5.7                            0.0150481774902305 81.2842075918663 0.998297346980033 -2.65130235655806 0.998297346980034 -2.65130235655807 0.0150482541203901 81.2785614241978 
! Gamma         0                0                0                0                
! Port Impedance         50               0                50               0                
5.8                            0.015295978714961 81.2695680917764 0.99827562839227 -2.6969609085696 0.998275628392271 -2.69696090856961 0.0152960575732283 81.2638192128916 
! Gamma         0                0                0                0                
! Port Impedance         50               0                50               0                
5.9                            0.0155434537467031 81.2544556203205 0.998254014396701 -2.7426013819902 0.998254014396702 -2.74260138199022 0.0155435348679843 81.2486039866291 
! Gamma         0                0                0                0                
! Port Impedance         50               0                50               0                
6                              0.0157906135525835 81.2389060319417 0.998232507773003 -2.7882244140001 0.998232507773005 -2.78822441400012 0.0157906969713436 81.2329515974724 
! Gamma         0                0                0                0                
! Port Impedance         50               0                50               0                
6.1                            0.0160374688659949 81.2229511073192 0.998211110832668 -2.83383062793489 0.998211110832669 -2.83383062793491 0.0160375546162115 81.216893824034  
! Gamma         0                0                0                0                
! Port Impedance         50               0                50               0                
6.2                            0.0162840301737447 81.2066189770135 0.998189825447146 -2.87942063265343 0.998189825447148 -2.87942063265345 0.0162841182888655 81.2004587951013 
! Gamma         0                0                0                0                
! Port Impedance         50               0                50               0                
6.3                            0.0165303077054274 81.1899345026518 0.998168653075181 -2.92499502201845 0.998168653075182 -2.92499502201847 0.0165303982183327 81.1836713708013 
! Gamma         0                0                0                0                
! Port Impedance         50               0                50               0                
6.4                            0.0167763114248296 81.1729196200312 0.99814759478926 -2.97055437448061 0.998147594789261 -2.97055437448062 0.0167764043677981 81.1665534856853 
! Gamma         0                0                0                0                
! Port Impedance         50               0                50               0                
6.5                            0.0170220510231829 81.1555936480287 0.998126651301155 -3.01609925275705 0.998126651301156 -3.01609925275707 0.017022146427862 81.14912445762   
! Gamma         0                0                0                0                
! Port Impedance         50               0                50               0                
6.6                            0.017267535914096 81.1379735667771 0.99810582298651 -3.06163020359613 0.998105822986511 -3.06163020359615 0.0172676338114749 81.1314012659467 
! Gamma         0                0                0                0                
! Port Impedance         50               0                50               0                
6.7                            0.0175127752300035 81.1200742681907 0.998085109908447 -3.10714775762028 0.998085109908448 -3.1071477576203 0.0175128756503903 81.1133988019896 
! Gamma         0                0                0                0                
! Port Impedance         50               0                50               0                
6.8                            0.0177577778199841 81.1019087815949 0.998064511840188 -3.1526524292396 0.998064511840189 -3.15265242923961 0.0177578807929858 81.0951300946706 
! Gamma         0                0                0                0                
! Port Impedance         50               0                50               0                
6.9                            0.0180025522488059 81.0834884769233 0.998044028286674 -3.19814471662911 0.998044028286675 -3.19814471662913 0.0180026578033121 81.0766065136908 
! Gamma         0                0                0                0                
! Port Impedance         50               0                50               0                
7                              0.0182471067970725 81.0648232476896 0.998023658505188 -3.24362510176315 0.998023658505189 -3.24362510176316 0.0182472149612411 81.0578379524886 
! Gamma         0                0                0                0                
! Port Impedance         50               0                50               0                
7.1                            0.0184914494623463 81.0459216757134 0.998003401524991 -3.28909405050066 0.998003401524992 -3.28909405050067 0.0184915602635926 81.0388329929517 
! Gamma         0                0                0                0                
! Port Impedance         50               0                50               0                
7.2                            0.0187355879611392 81.0267911793787 0.997983256165975 -3.33455201271583 0.997983256165976 -3.33455201271584 0.0187357014261273 81.0195990536641 
! Gamma         0                0                0                0                
! Port Impedance         50               0                50               0                
7.3                            0.018979529731668 81.0074381470256 0.997963221056356 -3.3799994224686 0.997963221056356 -3.37999942246862 0.0189796458863043 81.0001425232844 
! Gamma         0                0                0                0                
! Port Impedance         50               0                50               0                
7.4                            0.0192232819372792 80.9878680569124 0.997943294649424 -3.42543669821033 0.997943294649425 -3.42543669821035 0.0192234008067084 80.9804688804983 
! Gamma         0                0                0                0                
! Port Impedance         50               0                50               0                
7.5                            0.0194668514704558 80.9680855850488 0.997923475239379 -3.47086424301988 0.997923475239379 -3.47086424301989 0.0194669730790589 80.9605828018401 
! Gamma         0                0                0                0                
! Port Impedance         50               0                50               0                
7.6                            0.0197102449573273 80.9480947020671 0.997903760976262 -3.51628244486615 0.997903760976262 -3.51628244486616 0.0197103693287211 80.9404882585547 
! Gamma         0                0                0                0                
! Port Impedance         50               0                50               0                
7.7                            0.0199534687626084 80.9278987601904 0.997884149880038 -3.56169167689314 0.997884149880038 -3.56169167689315 0.0199535959196472 80.9201886035564 
! Gamma         0                0                0                0                
! Port Impedance         50               0                50               0                
7.8                            0.0201965289949018 80.9075005712494 0.997864639853824 -3.60709229772399 0.997864639853824 -3.607092297724  0.0201966589596803 80.8996866494372 
! Gamma         0                0                0                0                
! Port Impedance         50               0                50               0                
7.9                            0.0204394315123027 80.8869024766115 0.997845228696328 -3.652484651781  0.997845228696328 -3.65248465178101 0.0204395643061604 80.8789847383878 
! Gamma         0                0                0                0                
! Port Impedance         50               0                50               0                
8                              0.0206821819282505 80.8661064098005 0.997825914113504 -3.69786906961847 0.997825914113504 -3.69786906961847 0.0206823175717774 80.8580848048097 
! Gamma         0                0                0                0                
! Port Impedance         50               0                50               0                
8.1                            0.0209247856175784 80.845113952513  0.997806693729469 -3.74324586826587 0.997806693729468 -3.74324586826588 0.0209249241306222 80.836988431325  
! Gamma         0                0                0                0                
! Port Impedance         50               0                50               0                
8.2                            0.0211672477227166 80.8239263846691 0.997787565096704 -3.78861535157903 0.997787565096704 -3.78861535157903 0.02116738912439 80.8156968988203 
! Gamma         0                0                0                0                
! Port Impedance         50               0                50               0                
8.3                            0.0214095731600062 80.8025447290752 0.997768525705588 -3.83397781059694 0.997768525705588 -3.83397781059694 0.0214097174686963 80.7942112311038 
! Gamma         0                0                0                0                
! Port Impedance         50               0                50               0                
8.4                            0.0216517666260908 80.7809697912225 0.997749572993273 -3.87933352390253 0.997749572993272 -3.87933352390253 0.0216519138594686 80.772532234698  
! Gamma         0                0                0                0                
! Port Impedance         50               0                50               0                
8.5                            0.0218938326043514 80.7592021946942 0.997730704351949 -3.92468275798544 0.997730704351949 -3.92468275798543 0.0218939827793824 80.7506605342418 
! Gamma         0                0                0                0                
! Port Impedance         50               0                50               0                
8.6                            0.0221357753713567 80.7372424126112 0.997711917136528 -3.97002576760546 0.997711917136528 -3.97002576760545 0.0221359285043115 80.7285966039317 
! Gamma         0                0                0                0                
! Port Impedance         50               0                50               0                
8.7                            0.0223775990033028 80.715090795505  0.997693208671768 -4.01536279615506 0.997693208671768 -4.01536279615505 0.0223777551097691 80.7063407953905 
! Gamma         0                0                0                0                
! Port Impedance         50               0                50               0                
8.8                            0.0226193073824199 80.6927475959706 0.997674576258874 -4.06069407602   0.997674576258874 -4.06069407601999 0.0226194664773148 80.6838933623156 
! Gamma         0                0                0                0                
! Port Impedance         50               0                50               0                
8.9                            0.0228609042033276 80.6702129904178 0.997656017181604 -4.10601982893674 0.997656017181603 -4.10601982893673 0.0228610663009095 80.6612544822273 
! Gamma         0                0                0                0                
! Port Impedance         50               0                50               0                
9                              0.0231023929793186 80.6474870982102 0.997637528711904 -4.15134026634595 0.997637528711903 -4.15134026634594 0.0231025580932005 80.638424275604  
! Gamma         0                0                0                0                
! Port Impedance         50               0                50               0                
9.1                            0.0233437770485592 80.6245699984551 0.997619108115103 -4.19665558974114 0.997619108115102 -4.19665558974113 0.0233439451917219 80.6154028226696 
! Gamma         0                0                0                0                
! Port Impedance         50               0                50               0                
9.2                            0.0235850595801921 80.6014617446802 0.997600752654689 -4.24196599101175 0.997600752654688 -4.24196599101173 0.0235852307649971 80.5921901780671 
! Gamma         0                0                0                0                
! Port Impedance         50               0                50               0                
9.3                            0.0238262435803294 80.5781623776132 0.997582459596696 -4.28727165278015 0.997582459596696 -4.28727165278013 0.0238264178185327 80.5687863836354 
! Gamma         0                0                0                0                
! Port Impedance         50               0                50               0                
9.4                            0.0240673318979299 80.554671936258  0.997564226213722 -4.33257274873206 0.997564226213721 -4.33257274873204 0.0240675092006957 80.5451914794841 
! Gamma         0                0                0                0                
! Port Impedance         50               0                50               0                
9.5                            0.0243083272305495 80.530990467445  0.997546049788598 -4.37786944393987 0.997546049788598 -4.37786944393984 0.0243085076084636 80.5214055135408 
! Gamma         0                0                0                0                
! Port Impedance         50               0                50               0                
9.6                            0.0245492321299603 80.507118034014  0.997527927617739 -4.42316189517861 0.997527927617738 -4.42316189517858 0.0245494155930441 80.497428549733  
! Gamma         0                0                0                0                
! Port Impedance         50               0                50               0                
9.7                            0.0247900490076337 80.4830547217745 0.997509857014186 -4.46845025123427 0.997509857014185 -4.46845025123424 0.0247902355653576 80.4732606749462 
! Gamma         0                0                0                0                
! Port Impedance         50               0                50               0                
9.8                            0.0250307801400819 80.4588006453742 0.997491835310369 -4.51373465320426 0.997491835310368 -4.51373465320424 0.0250309698013793 80.4489020048912 
! Gamma         0                0                0                0                
! Port Impedance         50               0                50               0                
9.9                            0.0252714276740566 80.4343559531932 0.997473859860599 -4.55901523478985 0.997473859860598 -4.55901523478982 0.0252716204473373 80.4243526889971 
! Gamma         0                0                0                0                
! Port Impedance         50               0                50               0                
10                             0.0255119936316024 80.409720831372  0.997455928043322 -4.60429212258042 0.997455928043321 -4.60429212258039 0.0255121895247661 80.3996129144379 
! Gamma         0                0                0                0                
! Port Impedance         50               0                50               0                
10.1                           0.0257524799149627 80.384895507067  0.997438037263128 -4.64956543632961 0.997438037263126 -4.64956543632957 0.0257526789354125 80.3746829093875 
! Gamma         0                0                0                0                
! Port Impedance         50               0                50               0                
10.2                           0.0259928883113395 80.3598802510246 0.99742018495256 -4.69483528922315 0.997420184952559 -4.69483528922311 0.0259930904659952 80.3495629455923 
! Gamma         0                0                0                0                
! Port Impedance         50               0                50               0                
10.3                           0.0262332204975059 80.334675379548  0.997402368573712 -4.74010178813854 0.997402368573711 -4.7401017881385 0.0262334257928168 80.3242533403377 
! Gamma         0                0                0                0                
! Port Impedance         50               0                50               0                
10.4                           0.0264734780442718 80.3092812559316 0.997384585619647 -4.78536503389653 0.997384585619646 -4.78536503389648 0.0264736864862296 80.2987544578819 
! Gamma         0                0                0                0                
! Port Impedance         50               0                50               0                
10.5                           0.0267136624208051 80.2836982914239 0.997366833615639 -4.83062512150444 0.997366833615638 -4.83062512150439 0.026713874014957 80.273066710418  
! Gamma         0                0                0                0                
! Port Impedance         50               0                50               0                
10.6                           0.0269537749988093 80.2579269457779 0.997349110120256 -4.87588214039153 0.997349110120255 -4.87588214039148 0.0269539897502702 80.2471905586245 
! Gamma         0                0                0                0                
! Port Impedance         50               0                50               0                
10.7                           0.0271938170565592 80.2319677274407 0.997331412726298 -4.92113617463637 0.997331412726297 -4.92113617463632 0.027194034970024 80.2211265118541 
! Gamma         0                0                0                0                
! Port Impedance         50               0                50               0                
10.8                           0.0274337897827974 80.2058211934287 0.997313739061591 -4.96638730318647 0.99731373906159 -4.96638730318642 0.0274340108625531 80.1948751280085 
! Gamma         0                0                0                0                
! Port Impedance         50               0                50               0                
10.9                           0.0276736942804942 80.1794879489293 0.997296086789661 -5.01163560007021 0.997296086789659 -5.01163560007015 0.0276739185304318 80.1684370131406 
! Gamma         0                0                0                0                
! Port Impedance         50               0                50               0                
11                             0.027913531570473 80.1529686466687 0.997278453610283 -5.05688113460127 0.997278453610282 -5.05688113460121 0.0279137589940989 80.1418128208215 
! Gamma         0                0                0                0                
! Port Impedance         50               0                50               0                
11.1                           0.0281533025949045 80.1262639860769 0.997260837259935 -5.10212397157572 0.997260837259934 -5.10212397157566 0.0281535331953519 80.1150032513062 
! Gamma         0                0                0                0                
! Port Impedance         50               0                50               0                
11.2                           0.0283930082206728 80.0993747122826 0.997243235512139 -5.1473641714619 0.997243235512137 -5.14736417146185 0.0283932420007131 80.0880090505274 
! Gamma         0                0                0                0                
! Port Impedance         50               0                50               0                
11.3                           0.028632649242617 80.0723016149627 0.997225646177717 -5.19260179058335 0.997225646177716 -5.19260179058329 0.02863288620467 80.0608310089462 
! Gamma         0                0                0                0                
! Port Impedance         50               0                50               0                
11.4                           0.0288722263866499 80.0450455270716 0.997208067104966 -5.23783688129481 0.997208067104964 -5.23783688129475 0.028872466532795 80.0334699602809 
! Gamma         0                0                0                0                
! Port Impedance         50               0                50               0                
11.5                           0.029111740312759 80.0176073234721 0.997190496179749 -5.28306949215168 0.997190496179748 -5.28306949215161 0.0291119836447452 80.0059267801378 
! Gamma         0                0                0                0                
! Port Impedance         50               0                50               0                
11.6                           0.0293511916178927 79.9899879194857 0.997172931325526 -5.32829966807297 0.997172931325524 -5.3282996680729 0.0293514381371488 79.9782023845623 
! Gamma         0                0                0                0                
! Port Impedance         50               0                50               0                
11.7                           0.029590580838734 79.9621882693802 0.997155370503308 -5.37352745049798 0.997155370503306 -5.37352745049791 0.0295908305463782 79.9502977285263 
! Gamma         0                0                0                0                
! Port Impedance         50               0                50               0                
11.8                           0.029829908454366 79.9342093648098 0.997137811711565 -5.41875287753692 0.997137811711563 -5.41875287753685 0.0298301613512158 79.9222138043686 
! Gamma         0                0                0                0                
! Port Impedance         50               0                50               0                
11.9                           0.0300691748888335 79.9060522332197 0.997120252986074 -5.46397598411561 0.997120252986073 -5.46397598411554 0.0300694309754148 79.8939516401997 
! Gamma         0                0                0                0                
! Port Impedance         50               0                50               0                
12                             0.0303083805136014 79.8777179362288 0.997102692399722 -5.50919680211451 0.99710269239972 -5.50919680211444 0.0303086397901575 79.8655122982849 
! Gamma         0                0                0                0                
! Port Impedance         50               0                50               0                
12.1                           0.0305475256499162 79.8492075679991 0.997085128062261 -5.55441536050218 0.997085128062259 -5.5544153605021 0.0305477881164169 79.8368968734136 
! Gamma         0                0                0                0                
! Port Impedance         50               0                50               0                
12.2                           0.0307866105710721 79.8205222536011 0.99706755812003 -5.59963168546343 0.997067558120028 -5.59963168546335 0.0307868762272219 79.808106491266  
! Gamma         0                0                0                0                
! Port Impedance         50               0                50               0                
12.3                           0.031025635504585 79.791663147385  0.99704998075564 -5.64484580052235 0.997049980755638 -5.64484580052227 0.0310259043498317 79.7791423067832 
! Gamma         0                0                0                0                
! Port Impedance         50               0                50               0                
12.4                           0.031264600634279 79.7626314313612 0.997032394187622 -5.69005772666029 0.99703239418762 -5.69005772666021 0.0312648726678216 79.7500055025493 
! Gamma         0                0                0                0                
! Port Impedance         50               0                50               0                
12.5                           0.0315035061022867 79.7334283135991 0.997014796670055 -5.73526748242908 0.997014796670053 -5.735267482429  0.0315037813230834 79.7206972871897 
! Gamma         0                0                0                0                
! Port Impedance         50               0                50               0                
12.6                           0.0317423520109675 79.7040550266476 0.996997186492166 -5.78047508405964 0.996997186492164 -5.78047508405956 0.0317426304177432 79.6912188937922 
! Gamma         0                0                0                0                
! Port Impedance         50               0                50               0                
12.7                           0.0319811384247467 79.6745128259819 0.996979561977902 -5.82568054556607 0.9969795619779  -5.82568054556599 0.0319814200160005 79.6615715783546 
! Gamma         0                0                0                0                
! Port Impedance         50               0                50               0                
12.8                           0.0322198653718783 79.6448029884808 0.996961921485495 -5.87088387884549 0.996961921485493 -5.8708838788454 0.0322201501458907 79.6317566182616 
! Gamma         0                0                0                0                
! Port Impedance         50               0                50               0                
12.9                           0.0324585328461344 79.614926810937  0.996944263406997 -5.91608509377369 0.996944263406995 -5.9160850937736 0.0324588208009741 79.6017753107959 
! Gamma         0                0                0                0                
! Port Impedance         50               0                50               0                
13                             0.0326971408084235 79.5848856086033 0.996926586167812 -5.96128419829688 0.99692658616781 -5.96128419829679 0.0326974319419542 79.5716289716849 
! Gamma         0                0                0                0                
! Port Impedance         50               0                50               0                
13.1                           0.0329356891883411 79.5546807137766 0.996908888226206 -6.0064811985195 0.996908888226204 -6.00648119851941 0.0329359834982282 79.5413189336847 
! Gamma         0                0                0                0                
! Port Impedance         50               0                50               0                
13.2                           0.0331741778856552 79.5243134744217 0.996891168072813 -6.05167609878843 0.996891168072811 -6.05167609878833 0.033174475369372 79.5108465452043 
! Gamma         0                0                0                0                
! Port Impedance         50               0                50               0                
13.3                           0.0334126067717284 79.4937852528351 0.99687342423013 -6.0968689017736 0.996873424230128 -6.0968689017735 0.0334129074265622 79.4802131689703 
! Gamma         0                0                0                0                
! Port Impedance         50               0                50               0                
13.4                           0.0336509756908801 79.4630974243519 0.996855655252007 -6.14205960854523 0.996855655252005 -6.14205960854513 0.0336512795139382 79.4494201807332 
! Gamma         0                0                0                0                
! Port Impedance         50               0                50               0                
13.5                           0.0338892844616906 79.4322513760934 0.996837859723125 -6.1872482186478 0.996837859723123 -6.1872482186477 0.0338895914499059 79.4184689680164 
! Gamma         0                0                0                0                
! Port Impedance         50               0                50               0                
13.6                           0.0341275328782493 79.4012485057593 0.99682003625848 -6.2324347301708 0.996820036258478 -6.23243473017071 0.0341278430283863 79.3873609289081 
! Gamma         0                0                0                0                
! Port Impedance         50               0                50               0                
13.7                           0.0343657207113501 79.3700902204612 0.996802183502857 -6.27761913981662 0.996802183502856 -6.27761913981652 0.0343660340200097 79.3560974708953 
! Gamma         0                0                0                0                
! Port Impedance         50               0                50               0                
13.8                           0.0346038477096345 79.3387779356004 0.996784300130305 -6.32280144296536 0.996784300130303 -6.32280144296526 0.03460416417326 79.3246800097421 
! Gamma         0                0                0                0                
! Port Impedance         50               0                50               0                
13.9                           0.0348419136006871 79.3073130737877 0.996766384843608 -6.36798163373699 0.996766384843606 -6.36798163373689 0.0348422332155682 79.2931099684094 
! Gamma         0                0                0                0                
! Port Impedance         50               0                50               0                
14                             0.0350799180920819 79.2756970638056 0.996748436373764 -6.41315970505081 0.996748436373762 -6.41315970505071 0.0350802408543606 79.2613887760182 
! Gamma         0                0                0                0                
! Port Impedance         50               0                50               0                
14.1                           0.0353178608723853 79.2439313396125 0.996730453479457 -6.45833564868232 0.996730453479455 -6.45833564868221 0.03531818677806 79.2295178668536 
! Gamma         0                0                0                0                
! Port Impedance         50               0                50               0                
14.2                           0.0355557416121142 79.2120173393888 0.996712434946536 -6.50350945531766 0.996712434946535 -6.50350945531755 0.0355560706570446 79.1974986794111 
! Gamma         0                0                0                0                
! Port Impedance         50               0                50               0                
14.3                           0.0357935599646537 79.1799565046224 0.996694379587498 -6.54868111460573 0.996694379587496 -6.54868111460562 0.035793892144565 79.1653326554829 
! Gamma         0                0                0                0                
! Port Impedance         50               0                50               0                
14.4                           0.0360313155671342 79.1477502792353 0.996676286240965 -6.59385061520798 0.996676286240963 -6.59385061520787 0.0360316508776213 79.1330212392845 
! Gamma         0                0                0                0                
! Port Impedance         50               0                50               0                
14.5                           0.0362690080412701 79.1154001087482 0.996658153771179 -6.6390179448461 0.996658153771177 -6.639017944846  0.0362693464778023 79.1005658766197 
! Gamma         0                0                0                0                
! Port Impedance         50               0                50               0                
14.6                           0.0365066369941632 79.0829074394841 0.996639981067491 -6.68418309034763 0.996639981067489 -6.68418309034752 0.0365069785520874 79.0679680140845 
! Gamma         0                0                0                0                
! Port Impedance         50               0                50               0                
14.7                           0.0367442020190693 79.0502737178085 0.99662176704386 -6.72934603768954 0.996621767043859 -6.72934603768943 0.0367445466936145 79.0352290983076 
! Gamma         0                0                0                0                
! Port Impedance         50               0                50               0                
14.8                           0.0369817026961328 79.0175003894059 0.996603510638356 -6.77450677203997 0.996603510638354 -6.77450677203986 0.0369820504824134 79.0023505752271 
! Gamma         0                0                0                0                
! Port Impedance         50               0                50               0                
14.9                           0.0372191385930878 78.9845888985917 0.996585210812666 -6.81966527779811 0.996585210812665 -6.819665277798  0.0372194894861074 78.9693338894029 
! Gamma         0                0                0                0                
! Port Impedance         50               0                50               0                
15                             0.0374565092659294 78.9515406876584 0.996566866551614 -6.86482153863232 0.996566866551613 -6.86482153863221 0.0374568632605845 78.9361804833632 
! Gamma         0                0                0                0                
! Port Impedance         50               0                50               0                
15.1                           0.0376938142595553 78.9183571962545 0.996548476862677 -6.90997553751664 0.996548476862676 -6.90997553751653 0.0376941713506382 78.9028917969831 
! Gamma         0                0                0                0                
! Port Impedance         50               0                50               0                
15.2                           0.0379310531083785 78.8850398607961 0.996530040775518 -6.95512725676563 0.996530040775516 -6.95512725676552 0.0379314132905809 78.8694692668974 
! Gamma         0                0                0                0                
! Port Impedance         50               0                50               0                
15.3                           0.0381682253369139 78.8515901139091 0.996511557341517 -7.00027667806772 0.996511557341515 -7.00027667806761 0.0381685886048299 78.8359143259422 
! Gamma         0                0                0                0                
! Port Impedance         50               0                50               0                
15.4                           0.0384053304603384 78.818009383902  0.996493025633314 -7.04542378251705 0.996493025633313 -7.04542378251694 0.0384056968084676 78.8022284026284 
! Gamma         0                0                0                0                
! Port Impedance         50               0                50               0                
15.5                           0.0386423679850267 78.784299094267  0.996474444744361 -7.09056855064398 0.99647444474436 -7.09056855064388 0.038642737407777 78.7684129206433 
! Gamma         0                0                0                0                
! Port Impedance         50               0                50               0                
15.6                           0.0388793374090626 78.7504606632101 0.996455813788474 -7.13571096244419 0.996455813788473 -7.13571096244408 0.0388797099007533 78.7344692983799 
! Gamma         0                0                0                0                
! Port Impedance         50               0                50               0                
15.7                           0.039116238222729 78.716495503207  0.996437131899401 -7.18085099740646 0.996437131899399 -7.18085099740635 0.0391166137775932 78.7003989484945 
! Gamma         0                0                0                0                
! Port Impedance         50               0                50               0                
15.8                           0.0393530699089744 78.6824050205861 0.996418398230389 -7.22598863453935 0.996418398230388 -7.22598863453925 0.039353448521162 78.6662032774885 
! Gamma         0                0                0                0                
! Port Impedance         50               0                50               0                
15.9                           0.0395898319438603 78.6481906151356 0.996399611953769 -7.27112385239657 0.996399611953768 -7.27112385239646 0.0395902136074402 78.631883685317  
! Gamma         0                0                0                0                
! Port Impedance         50               0                50               0                
16                             0.0398265237969878 78.6138536797355 0.996380772260536 -7.31625662910125 0.996380772260534 -7.31625662910114 0.0398269085059507 78.5974415650201 
! Gamma         0                0                0                0                
! Port Impedance         50               0                50               0                
16.1                           0.0400631449319052 78.579395600012  0.996361878359948 -7.36138694236918 0.996361878359947 -7.36138694236908 0.0400635326801656 78.5628783023778 
! Gamma         0                0                0                0                
! Port Impedance         50               0                50               0                
16.2                           0.0402996948064978 78.5448177540148 0.996342929479126 -7.40651476953099 0.996342929479124 -7.40651476953089 0.0403000855878968 78.5281952755875 
! Gamma         0                0                0                0                
! Port Impedance         50               0                50               0                
16.3                           0.0405361728733602 78.5101215119146 0.996323924862662 -7.45164008755331 0.996323924862661 -7.45164008755321 0.0405365666816672 78.4933938549618 
! Gamma         0                0                0                0                
! Port Impedance         50               0                50               0                
16.4                           0.0407725785801517 78.4753082357224 0.996304863772241 -7.496762873059  0.99630486377224 -7.4967628730589 0.0407729754090668 78.4584754026479 
! Gamma         0                0                0                0                
! Port Impedance         50               0                50               0                
16.5                           0.0410089113699357 78.4403792790272 0.996285745486259 -7.54188310234651 0.996285745486257 -7.54188310234641 0.0410093112130918 78.4234412723656 
! Gamma         0                0                0                0                
! Port Impedance         50               0                50               0                
16.6                           0.0412451706815046 78.4053359867533 0.996266569299459 -7.58700075140832 0.996266569299458 -7.58700075140822 0.0412455735324695 78.3882928091645 
! Gamma         0                0                0                0                
! Port Impedance         50               0                50               0                
16.7                           0.0414813559496893 78.3701796949347 0.99624733452257 -7.63211579594859 0.996247334522569 -7.6321157959485 0.0414817618019673 78.3530313491989 
! Gamma         0                0                0                0                
! Port Impedance         50               0                50               0                
16.8                           0.0417174666056551 78.3349117305076 0.996228040481955 -7.6772282114    0.996228040481954 -7.67722821139991 0.0417178754526892 78.3176582195201 
! Gamma         0                0                0                0                
! Port Impedance         50               0                50               0                
16.9                           0.0419535020771845 78.2995334111183 0.996208686519261 -7.72233797293983 0.99620868651926 -7.72233797293973 0.0419539139123578 78.2821747378852 
! Gamma         0                0                0                0                
! Port Impedance         50               0                50               0                
17                             0.0421894617889466 78.2640460449478 0.996189271991085 -7.76744505550529 0.996189271991084 -7.76744505550519 0.0421898766055845 78.2465822125808 
! Gamma         0                0                0                0                
! Port Impedance         50               0                50               0                
17.1                           0.0424253451627551 78.2284509305504 0.996169796268642 -7.81254943380824 0.996169796268641 -7.81254943380815 0.0424257629541267 78.2108819422626 
! Gamma         0                0                0                0                
! Port Impedance         50               0                50               0                
17.2                           0.042661151617814 78.1927493567072 0.996150258737438 -7.85765108234916 0.996150258737437 -7.85765108234907 0.0426615723771339 78.1750752158087 
! Gamma         0                0                0                0                
! Port Impedance         50               0                50               0                
17.3                           0.0428968805709525 78.1569426022928 0.996130658796955 -7.90274997543047 0.996130658796953 -7.90274997543038 0.0428973042913822 78.1391633121867 
! Gamma         0                0                0                0                
! Port Impedance         50               0                50               0                
17.4                           0.0431325314368493 78.1210319361557 0.996110995860339 -7.94784608716937 0.996110995860338 -7.94784608716928 0.0431329581114986 78.1031475003336 
! Gamma         0                0                0                0                
! Port Impedance         50               0                50               0                
17.5                           0.0433681036282461 78.08501861701   0.996091269354098 -7.99293939150994 0.996091269354098 -7.99293939150985 0.0433685332501751 78.0670290390486 
! Gamma         0                0                0                0                
! Port Impedance         50               0                50               0                
17.6                           0.0436035965561524 78.0489038933397 0.996071478717806 -8.03802986223478 0.996071478717805 -8.0380298622347 0.0436040291183722 78.0308091768967 
! Gamma         0                0                0                0                
! Port Impedance         50               0                50               0                
17.7                           0.0438390096300397 78.0126890033138 0.996051623403808 -8.08311747297614 0.996051623403807 -8.08311747297607 0.0438394451255143 77.9944891521244 
! Gamma         0                0                0                0                
! Port Impedance         50               0                50               0                
17.8                           0.0440743422580281 77.9763751747126 0.99603170287694 -8.12820219722642 0.996031702876939 -8.12820219722635 0.0440747806796754 77.958070192586  
! Gamma         0                0                0                0                
! Port Impedance         50               0                50               0                
17.9                           0.0443095938470629 77.9399636248629 0.996011716614251 -8.17328400834832 0.99601171661425 -8.17328400834824 0.0443100351877563 77.9215535156788 
! Gamma         0                0                0                0                
! Port Impedance         50               0                50               0                
18                             0.0445447638030849 77.9034555605846 0.99599166410473 -8.21836287958442 0.995991664104729 -8.21836287958435 0.0445452080556542 77.88494032829   
! Gamma         0                0                0                0                
! Port Impedance         50               0                50               0                
18.1                           0.0447798515311909 77.8668521781446 0.995971544849042 -8.26343878406642 0.995971544849041 -8.26343878406635 0.0447802986884236 77.8482318267506 
! Gamma         0                0                0                0                
! Port Impedance         50               0                50               0                
18.2                           0.0450148564357883 77.8301546632208 0.995951358359269 -8.30851169482382 0.995951358359269 -8.30851169482376 0.0450153064904308 77.8114291967995 
! Gamma         0                0                0                0                
! Port Impedance         50               0                50               0                
18.3                           0.0452497779207416 77.7933641908734 0.995931104158657 -8.35358158479234 0.995931104158656 -8.35358158479228 0.0452502308655003 77.7745336135551 
! Gamma         0                0                0                0                
! Port Impedance         50               0                50               0                
18.4                           0.0454846153895128 77.7564819255244 0.995910781781366 -8.39864842682184 0.995910781781365 -8.39864842682178 0.0454850712170551 77.7375462414946 
! Gamma         0                0                0                0                
! Port Impedance         50               0                50               0                
18.5                           0.0457193682452947 77.7195090209445 0.995890390772231 -8.44371219368389 0.99589039077223 -8.44371219368383 0.0457198269482501 77.7004682344413 
! Gamma         0                0                0                0                
! Port Impedance         50               0                50               0                
18.6                           0.0459540358911384 77.6824466202465 0.995869930686525 -8.48877285807905 0.995869930686524 -8.48877285807899 0.0459544974620994 77.6633007355579 
! Gamma         0                0                0                0                
! Port Impedance         50               0                50               0                
18.7                           0.0461886177300743 77.6452958558862 0.995849401089728 -8.53383039264371 0.995849401089727 -8.53383039264366 0.0461890821615976 77.6260448773474 
! Gamma         0                0                0                0                
! Port Impedance         50               0                50               0                
18.8                           0.0464231131652281 77.6080578496685 0.9958288015573  -8.5788847699567 0.9958288015573  -8.57888476995665 0.0464235804498354 77.5887017816595 
! Gamma         0                0                0                0                
! Port Impedance         50               0                50               0                
18.9                           0.0466575215999311 77.5707337127597 0.995808131674466 -8.62393596254551 0.995808131674466 -8.62393596254546 0.0466579917301098 77.5512725597032 
! Gamma         0                0                0                0                
! Port Impedance         50               0                50               0                
19                             0.0468918424378247 77.5333245457062 0.995787391035994 -8.66898394289225 0.995787391035994 -8.66898394289221 0.0468923154060291 77.513758312065  
! Gamma         0                0                0                0                
! Port Impedance         50               0                50               0                
19.1                           0.047126075082961 77.4958314384569 0.995766579245989 -8.71402868343935 0.995766579245989 -8.71402868343931 0.0471265508816128 77.4761601287318 
! Gamma         0                0                0                0                
! Port Impedance         50               0                50               0                
19.2                           0.0473602189398974 77.4582554703919 0.995745695917689 -8.75907015659493 0.995745695917688 -8.75907015659489 0.0473606975613871 77.4384790891195 
! Gamma         0                0                0                0                
! Port Impedance         50               0                50               0                
19.3                           0.0475942734137882 77.420597710355  0.99572474067326 -8.80410833473793 0.995724740673259 -8.80410833473789 0.0475947548504751 77.4007162621057 
! Gamma         0                0                0                0                
! Port Impedance         50               0                50               0                
19.4                           0.0478282379104701 77.3828592166906 0.995703713143604 -8.84914319022304 0.995703713143604 -8.84914319022301 0.0478287221546837 77.3628727060667 
! Gamma         0                0                0                0                
! Port Impedance         50               0                50               0                
19.5                           0.0480621118365449 77.3450410372855 0.99568261296817 -8.89417469538534 0.995682612968169 -8.89417469538531 0.0480625988805853 77.3249494689192 
! Gamma         0                0                0                0                
! Port Impedance         50               0                50               0                
19.6                           0.0482958945994576 77.3071442096132 0.99566143979476 -8.93920282254468 0.99566143979476 -8.93920282254466 0.0482963844355964 77.2869475881648 
! Gamma         0                0                0                0                
! Port Impedance         50               0                50               0                
19.7                           0.0485295856075708 77.269169760783  0.995640193279354 -8.98422754400998 0.995640193279354 -8.98422754400996 0.0485300782280516 77.2488680909391 
! Gamma         0                0                0                0                
! Port Impedance         50               0                50               0                
19.8                           0.0487631842702356 77.2311187075917 0.995618873085931 -9.02924883208313 0.995618873085931 -9.02924883208312 0.0487636796672749 77.2107119940635 
! Gamma         0                0                0                0                
! Port Impedance         50               0                50               0                
19.9                           0.0489966899978589 77.1929920565788 0.995597478886289 -9.07426665906286 0.99559747888629 -9.07426665906286 0.0489971881636466 77.1724803041005 
! Gamma         0                0                0                0                
! Port Impedance         50               0                50               0                
20                             0.0492301022019671 77.1547908040844 0.995576010359886 -9.11928099724834 0.995576010359887 -9.11928099724834 0.0492306031286671 77.1341740174115 
! Gamma         0                0                0                0                
! Port Impedance         50               0                50               0                
