! Touchstone file exported from HFSS 2026.1.0
!        File:           C:/ffzhzh/LocalFiles/Ansys_Project_Files/temp_train_TSV_1443_1783197734_18472.aedt
!        Generated:      04:43:35 AM Jul  5, 2026
!        Design:         TSV
!        Project:        temp_train_TSV_1443_1783197734_18472
!
! Variables:
!        h_bsmrdl = 2um
!        h_ox = 20um
!        h_rdl = 5um
!        h_sub = 55.85um
!        h_tmrdl = 5um
!        h_tsv = 55.85um
!        h_via = 3um
!        l_bsmrdl = 300um
!        l_sub = 429.84um
!        l_tmrdl = 200um
!        m_sub = 200um
!        pitch = 38.15um
!        r_tsv = 14.92um
!        s_tmrdl = 10um
!        w_bsmrdl = 18um
!        w_sub = 500um
!        w_tmrdl = 12um
!        x_tsv_center1 = 206um
!        x_tsv_center2 = 524um
!        x_tsv_center3 = 736um
!        x_tsv_center4 = 1054um
!        x_tsv_center5 = 1266um
!        x_tsv_center6 = 1584um
!
# GHz S MA R 50.000000
! Terminal data exported
! Port[1] = TSV1_1_T1
! Port[2] = TSV1_1_T2
0.1                            0.000280811963740662 -76.9549797003386 0.999936412543653 -0.0347941798833642 0.999936412543651 -0.0347941798833642 0.000280811962204862 -76.9549811366914 
! Gamma         0                0                0                0                
! Port Impedance         50               0                50               0                
0.2                            0.000555971283823018 -82.1864756163958 0.999923672912229 -0.0693815800354211 0.999923672912228 -0.0693815800354187 0.00055597129250959 -82.1864766073912 
! Gamma         0                0                0                0                
! Port Impedance         50               0                50               0                
0.3                            0.000839228359469744 -83.6449932974038 0.999905387073806 -0.103629566413113 0.999905387073805 -0.103629566413105 0.000839228388296672 -83.644995029962 
! Gamma         0                0                0                0                
! Port Impedance         50               0                50               0                
0.4                            0.0011295168050926 -84.2931840724257 0.999884493832206 -0.137504085999106 0.999884493832205 -0.13750408599909 0.0011295168583186 -84.2931871793335 
! Gamma         0                0                0                0                
! Port Impedance         50               0                50               0                
0.5                            0.0014256933629927 -84.7079846616382 0.999863335668654 -0.171044639188189 0.999863335668653 -0.171044639188164 0.0014256934372486 -84.7079893943101 
! Gamma         0                0                0                0                
! Port Impedance         50               0                50               0                
0.6                            0.00172630949852191 -85.0485223481152 0.999843345014434 -0.204323457379542 0.999843345014433 -0.20432345737951 0.00172630958536602 -85.0485286956675 
! Gamma         0                0                0                0                
! Port Impedance         50               0                50               0                
0.7                            0.0020300056142298 -85.3602755899772 0.999825173590388 -0.237414905025472 0.999825173590387 -0.237414905025433 0.00203000570351786 -85.3602834085348 
! Gamma         0                0                0                0                
! Port Impedance         50               0                50               0                
0.8                            0.00233570455718792 -85.654192730286 0.999808963414531 -0.270380899986794 0.99980896341453 -0.270380899986751 0.00233570463938623 -85.6542018356532 
! Gamma         0                0                0                0                
! Port Impedance         50               0                50               0                
0.9                            0.00264263364356573 -85.9314314478601 0.999794584830276 -0.303267487131887 0.999794584830275 -0.303267487131842 0.00264263371080736 -85.9314416650166 
! Gamma         0                0                0                0                
! Port Impedance         50               0                50               0                
1                              0.00295027240057678 -86.1912271309949 0.999781793838164 -0.336106625786033 0.999781793838163 -0.336106625785987 0.00295027244688357 -86.1912383136918 
! Gamma         0                0                0                0                
! Port Impedance         50               0                50               0                
1.1                            0.00325828553694254 -86.4331176976501 0.99977031985018 -0.368919477956874 0.999770319850179 -0.368919477956828 0.0032582855580411 -86.4331297320351 
! Gamma         0                0                0                0                
! Port Impedance         50               0                50               0                
1.2                            0.00356646513735067 -86.6573318183591 0.999759907957978 -0.401719536369004 0.999759907957978 -0.401719536368957 0.00356646513035153 -86.657344619717 
! Gamma         0                0                0                0                
! Port Impedance         50               0                50               0                
1.3                            0.00387468758546048 -86.8646572863761 0.999750335530694 -0.43451508203764 0.999750335530693 -0.434515082037595 0.00387468754853276 -86.8646707937563 
! Gamma         0                0                0                0                
! Port Impedance         50               0                50               0                
1.4                            0.00418288366909332 -87.0562232242247 0.999741415815691 -0.467310952281073 0.999741415815691 -0.46731095228103 0.00418288360118616 -87.0562373950855 
! Gamma         0                0                0                0                
! Port Impedance         50               0                50               0                
1.5                            0.0044910186134758 -87.2333193138378 0.99973299568366 -0.500109754565173 0.99973299568366 -0.500109754565131 0.00449101851409779 -87.23333411948  
! Gamma         0                0                0                0                
! Port Impedance         50               0                50               0                
1.6                            0.00479907903020906 -87.3972722653313 0.999724951212349 -0.532912678187435 0.999724951212349 -0.532912678187395 0.00479907889926085 -87.3972876872733 
! Gamma         0                0                0                0                
! Port Impedance         50               0                50               0                
1.7                            0.00510706449477229 -87.5493703416484 0.999717182874544 -0.565720028678345 0.999717182874543 -0.565720028678306 0.00510706433242241 -87.5493863688566 
! Gamma         0                0                0                0                
! Port Impedance         50               0                50               0                
1.8                            0.00541498215683238 -87.6908218703757 0.999709611088735 -0.598531576197864 0.999709611088735 -0.598531576197827 0.00541498196342632 -87.6908384971923 
! Gamma         0                0                0                0                
! Port Impedance         50               0                50               0                
1.9                            0.00572284331594096 -87.8227358289661 0.999702172394741 -0.631346780997527 0.999702172394741 -0.631346780997492 0.00572284309193499 -87.822753053577 
! Gamma         0                0                0                0                
! Port Impedance         50               0                50               0                
2                              0.00603066126396211 -87.9461159430941 0.999694816288028 -0.664164938265865 0.999694816288028 -0.664164938265832 0.00603066100987526 -87.9461337664025 
! Gamma         0                0                0                0                
! Port Impedance         50               0                50               0                
2.1                            0.00633844994186662 -88.061862600348 0.999687502652228 -0.696985270315284 0.999687502652228 -0.696985270315252 0.00633844965824583 -88.0618810251495 
! Gamma         0                0                0                0                
! Port Impedance         50               0                50               0                
2.2                            0.00664622311935692 -88.1707789569311 0.99968019969922 -0.729806984441272 0.999680199699219 -0.729806984441242 0.00664622280675177 -88.1707979873106 
! Gamma         0                0                0                0                
! Port Impedance         50               0                50               0                
2.3                            0.00695399390965213 -88.2735790133945 0.999672882324862 -0.762629308435688 0.999672882324862 -0.76262930843566 0.00695399356859652 -88.2735986542843 
! Gamma         0                0                0                0                
! Port Impedance         50               0                50               0                
2.4                            0.00726177449853612 -88.3708963398389 0.99966553079847 -0.795451511581952 0.99966553079847 -0.795451511581926 0.00726177412953495 -88.3709165966965 
! Gamma         0                0                0                0                
! Port Impedance         50               0                50               0                
2.5                            0.0075695760096679 -88.4632927004004 0.999658129717481 -0.828272916250465 0.999658129717481 -0.82827291625044 0.00756957561318757 -88.4633135789725 
! Gamma         0                0                0                0                
! Port Impedance         50               0                50               0                
2.6                            0.00787740845575159 -88.5512661776003 0.999650667171736 -0.861092903445457 0.999650667171736 -0.861092903445433 0.00787740803221315 -88.5512876837513 
! Gamma         0                0                0                0                
! Port Impedance         50               0                50               0                
2.7                            0.00818528074296436 -88.6352586085961 0.999643134073223 -0.893910914500081 0.999643134073223 -0.893910914500059 0.00818528029273876 -88.6352807481828 
! Gamma         0                0                0                0                
! Port Impedance         50               0                50               0                
2.8                            0.00849320070755866 -88.7156622694999 0.999635523616473 -0.926726450360601 0.999635523616473 -0.926726450360579 0.00849320023096356 -88.7156850482821 
! Gamma         0                0                0                0                
! Port Impedance         50               0                50               0                
2.9                            0.00880117517102973 -88.7928258140772 0.999627830842409 -0.959539069404107 0.999627830842409 -0.959539069404087 0.00880117466832747 -88.7928492376528 
! Gamma         0                0                0                0                
! Port Impedance         50               0                50               0                
3                              0.00910921000510253 -88.8670595103601 0.999620052284357 -0.992348384407342 0.999620052284357 -0.992348384407323 0.0091092094764991 -88.8670835841203 
! Gamma         0                0                0                0                
! Port Impedance         50               0                50               0                
3.1                            0.00941731020096286 -88.9386398362186 0.999612185679597 -1.02515405906851 0.999612185679597 -1.02515405906849 0.00941730964660751 -88.938664565317 
! Gamma         0                0                0                0                
! Port Impedance         50               0                50               0                
3.2                            0.00972547993922499 -89.0078135009004 0.99960422973343 -1.05795580434139 0.99960422973343 -1.05795580434137 0.00972547935921052 -89.0078388902331 
! Gamma         0                0                0                0                
! Port Impedance         50               0                50               0                
3.3                            0.0100337226584771 -89.074800959013 0.999596183925536 -1.09075337474691 0.999596183925536 -1.0907533747469 0.0100337220528405 -89.0748270132063 
! Gamma         0                0                0                0                
! Port Impedance         50               0                50               0                
3.4                            0.0103420411211217 -89.1397994794415 0.999588048350566 -1.12354656476491 0.999588048350566 -1.12354656476489 0.0103420404898454 -89.1398262028459 
! Gamma         0                0                0                0                
! Port Impedance         50               0                50               0                
3.5                            0.0106504374757974 -89.2029858261018 0.999579823586592 -1.15633520536791 0.999579823586592 -1.1563352053679 0.0106504368188104 -89.203013222791 
! Gamma         0                0                0                0                
! Port Impedance         50               0                50               0                
3.6                            0.0109589133160304 -89.2645186012899 0.999571510586333 -1.18911916073188 0.999571510586333 -1.18911916073186 0.0109589126332101 -89.2645466750625 
! Gamma         0                0                0                0                
! Port Impedance         50               0                50               0                
3.7                            0.0112674697349966 -89.3245402963075 0.999563110587104 -1.22189832514117 0.999563110587104 -1.22189832514115 0.0112674690261707 -89.3245690506919 
! Gamma         0                0                0                0                
! Port Impedance         50               0                50               0                
3.8                            0.0115761073764202 -89.3831790883434 0.99955462503624 -1.25467262009394 0.99955462503624 -1.25467262009393 0.0115761066413687 -89.3832085266041 
! Gamma         0                0                0                0                
! Port Impedance         50               0                50               0                
3.9                            0.0118848264817166 -89.440550417412 0.999546055529339 -1.28744199160695 0.999546055529339 -1.28744199160694 0.0118848257201738 -89.4405805425578 
! Gamma         0                0                0                0                
! Port Impedance         50               0                50               0                
4                              0.0121936269335432 -89.496758372549 0.999537403759199 -1.3202064077144 0.999537403759199 -1.32020640771439 0.0121936261452002 -89.4967891873419 
! Gamma         0                0                0                0                
! Port Impedance         50               0                50               0                
4.1                            0.0125025082959422 -89.5518969124294 0.999528671473698 -1.35296585615296 0.999528671473698 -1.35296585615295 0.0125025074804488 -89.5519284193945 
! Gamma         0                0                0                0                
! Port Impedance         50               0                50               0                
4.2                            0.0128114698512739 -89.6060509420685 0.999519860441173 -1.38572034222357 0.999519860441173 -1.38572034222356 0.0128114690082417 -89.6060831435043 
! Gamma         0                0                0                0                
! Port Impedance         50               0                50               0                
4.3                            0.0131205106341399 -89.6592972642433 0.999510972422109 -1.41846988682036 0.999510972422109 -1.41846988682035 0.0131205097631439 -89.659330162232 
! Gamma         0                0                0                0                
! Port Impedance         50               0                50               0                
4.4                            0.0134296294624894 -89.7117054216739 0.999502009146158 -1.45121452461623 0.999502009146158 -1.45121452461622 0.0134296285630708 -89.7117390180924 
! Gamma         0                0                0                0                
! Port Impedance         50               0                50               0                
4.5                            0.013738824966099 -89.7633384437795 0.999492972293659 -1.48395430239568 0.999492972293659 -1.48395430239567 0.0137388240377677 -89.76337274031  
! Gamma         0                0                0                0                
! Port Impedance         50               0                50               0                
4.6                            0.0140480956126029 -89.8142535099182 0.999483863480958 -1.51668927752484 0.999483863480958 -1.51668927752483 0.0140480946548395 -89.8142885080592 
! Gamma         0                0                0                0                
! Port Impedance         50               0                50               0                
4.7                            0.0143574397312445 -89.8645025393953 0.99947468424896 -1.54941951654991 0.99947468424896 -1.5494195165499 0.0143574387435031 -89.8645382404718 
! Gamma         0                0                0                0                
! Port Impedance         50               0                50               0                
4.8                            0.0146668555345093 -89.9141327171305 0.999465436054407 -1.58214509391505 0.999465436054408 -1.58214509391504 0.0146668545162194 -89.9141691223045 
! Gamma         0                0                0                0                
! Port Impedance         50               0                50               0                
4.9                            0.0149763411377885 -89.9631869626897 0.999456120263462 -1.61486609079166 0.999456120263462 -1.61486609079166 0.0149763400883574 -89.9632240729706 
! Gamma         0                0                0                0                
! Port Impedance         50               0                50               0                
5                              0.0152858945772166 -90.011704349366 0.999446738147244 -1.64758259401123 0.999446738147244 -1.64758259401123 0.0152858934960315 -90.0117421656202 
! Gamma         0                0                0                0                
! Port Impedance         50               0                50               0                
5.1                            0.0155955138258143 -90.0597204791261 0.999437290879009 -1.68029469509445 0.999437290879009 -1.68029469509445 0.0155955127122444 -90.0597590020867 
! Gamma         0                0                0                0                
! Port Impedance         50               0                50               0                
5.2                            0.0159051968080626 -90.1072678184879 0.999427779532702 -1.71300248936978 0.999427779532702 -1.71300248936978 0.0159051956614611 -90.1073070487637 
! Gamma         0                0                0                0                
! Port Impedance         50               0                50               0                
5.3                            0.0162149414130243 -90.1543759997553 0.999418205082673 -1.745706075175  0.999418205082673 -1.74570607517499 0.0162149402327302 -90.1544159378399 
! Gamma         0                0                0                0                
! Port Impedance         50               0                50               0                
5.4                            0.0165247455061236 -90.2010720914813 0.999408568404342 -1.77840555313564 0.999408568404342 -1.77840555313564 0.0165247442914637 -90.2011127377616 
! Gamma         0                0                0                0                
! Port Impedance         50               0                50               0                
5.5                            0.0168346069396867 -90.2473808415554 0.99939887027566 -1.81110102551477 0.99939887027566 -1.81110102551476 0.0168346056899772 -90.2474221963196 
! Gamma         0                0                0                0                
! Port Impedance         50               0                50               0                
5.6                            0.0171445235623394 -90.2933248958969 0.999389111379211 -1.84379259562853 0.999389111379211 -1.84379259562853 0.0171445222768877 -90.2933669593425 
! Gamma         0                0                0                0                
! Port Impedance         50               0                50               0                
5.7                            0.017454493227354 -90.3389249953818 0.999379292304839 -1.8764803673227 0.999379292304839 -1.87648036732269 0.0174544919054602 -90.3389677676226 
! Gamma         0                0                0                0                
! Port Impedance         50               0                50               0                
5.8                            0.0177645138000287 -90.3842001533185 0.99936941355269 -1.90916444450536 0.99936941355269 -1.90916444450535 0.0177645124409868 -90.3842436343922 
! Gamma         0                0                0                0                
! Port Impedance         50               0                50               0                
5.9                            0.0180745831641795 -90.4291678155214 0.99935947553657 -1.94184493073136 0.99935947553657 -1.94184493073136 0.018074581767279 -90.4292120053956 
! Gamma         0                0                0                0                
! Port Impedance         50               0                50               0                
6                              0.0183846992278203 -90.473844004793 0.999349478587549 -1.97452192883448 0.999349478587548 -1.97452192883447 0.0183846977923476 -90.4738889033719 
! Gamma         0                0                0                0                
! Port Impedance         50               0                50               0                
6.1                            0.0186948599280986 -90.5182434514236 0.999339422957734 -2.00719554060322 0.999339422957734 -2.00719554060322 0.0186948584533377 -90.5182890585539 
! Gamma         0                0                0                0                
! Port Impedance         50               0                50               0                
6.2                            0.0190050632355527 -90.5623797111374 0.999329308824172 -2.03986586649695 0.999329308824172 -2.03986586649695 0.0190050617207868 -90.5624260266138 
! Gamma         0                0                0                0                
! Port Impedance         50               0                50               0                
6.3                            0.0193153071577511 -90.6062652717541 0.999319136292796 -2.07253300539862 0.999319136292796 -2.07253300539862 0.0193153056022632 -90.6063122953246 
! Gamma         0                0                0                0                
! Port Impedance         50               0                50               0                
6.4                            0.0196255897423693 -90.6499116497016 0.999308905402419 -2.1051970544012 0.999308905402419 -2.1051970544012 0.0196255881454435 -90.6499593810722 
! Gamma         0                0                0                0                
! Port Impedance         50               0                50               0                
6.5                            0.0199359090797575 -90.6933294773873 0.999298616128702 -2.13785810862476 0.999298616128702 -2.13785810862476 0.0199359074406796 -90.6933779162271 
! Gamma         0                0                0                0                
! Port Impedance         50               0                50               0                
6.6                            0.0202462633050462 -90.736528582336 0.99928826838809 -2.17051626106143 0.99928826838809 -2.17051626106143 0.0202462616231044 -90.7365777282809 
! Gamma         0                0                0                0                
! Port Impedance         50               0                50               0                
6.7                            0.0205566505998357 -90.7795180588985 0.999277862041678 -2.20317160244576 0.999277862041678 -2.20317160244576 0.0205566488743214 -90.7795679115557 
! Gamma         0                0                0                0                
! Port Impedance         50               0                50               0                
6.8                            0.0208670691935109 -90.8223063332586 0.999267396898996 -2.23582422114803 0.999267396898996 -2.23582422114803 0.0208670674237193 -90.82235689221  
! Gamma         0                0                0                0                
! Port Impedance         50               0                50               0                
6.9                            0.0211775173642191 -90.8649012223866 0.999256872721696 -2.26847420308843 0.999256872721696 -2.26847420308843 0.02117751554945 -90.8649524871925 
! Gamma         0                0                0                0                
! Port Impedance         50               0                50               0                
7                              0.0214879934395473 -90.907309987524 0.999246289227116 -2.3011216316699 0.999246289227116 -2.3011216316699 0.021487991579105 -90.9073619577262 
! Gamma         0                0                0                0                
! Port Impedance         50               0                50               0                
7.1                            0.0217984957969298 -90.9495393827229 0.99923564609173 -2.33376658772794 0.99923564609173 -2.33376658772794 0.0217984938901241 -90.9495920578476 
! Gamma         0                0                0                0                
! Port Impedance         50               0                50               0                
7.2                            0.0221090228638183 -90.9915956989117 0.999224942954465 -2.36640914949548 0.999224942954465 -2.36640914949548 0.0221090209099647 -90.9916490784725 
! Gamma         0                0                0                0                
! Port Impedance         50               0                50               0                
7.3                            0.0224195731176397 -91.0334848039139 0.999214179419877 -2.39904939258138 0.999214179419877 -2.39904939258137 0.0224195711160596 -91.0335388874141 
! Gamma         0                0                0                0                
! Port Impedance         50               0                50               0                
7.4                            0.0227301450855684 -91.0752121788003 0.999203355061192 -2.43168738996085 0.999203355061192 -2.43168738996084 0.0227301430355894 -91.0752669657353 
! Gamma         0                0                0                0                
! Port Impedance         50               0                50               0                
7.5                            0.0230407373441349 -91.1167829509217 0.999192469423207 -2.46432321197675 0.999192469423207 -2.46432321197675 0.0230407352450912 -91.116838440781 
! Gamma         0                0                0                0                
! Port Impedance         50               0                50               0                
7.6                            0.0233513485186922 -91.1582019239326 0.99918152202504 -2.49695692635024 0.99918152202504 -2.49695692635024 0.0233513463699248 -91.1582581162019 
! Gamma         0                0                0                0                
! Port Impedance         50               0                50               0                
7.7                            0.0236619772827595 -91.1994736050882 0.99917051236275 -2.52958859819979 0.99917051236275 -2.52958859819978 0.023661975083616 -91.1995304992513 
! Gamma         0                0                0                0                
! Port Impedance         50               0                50               0                
7.8                            0.0239726223572588 -91.2406022300683 0.999159439911812 -2.56221829006747 0.999159439911812 -2.56221829006747 0.0239726201070937 -91.2406598256085 
! Gamma         0                0                0                0                
! Port Impedance         50               0                50               0                
7.9                            0.0242832825096623 -91.2815917855581 0.99914830412945 -2.59484606195165 0.99914830412945 -2.59484606195165 0.0242832802078372 -91.2816500819598 
! Gamma         0                0                0                0                
! Port Impedance         50               0                50               0                
8                              0.0245939565530633 -91.3224460297934 0.999137104456841 -2.62747197134503 0.999137104456841 -2.62747197134503 0.024593954198947 -91.3225050265432 
! Gamma         0                0                0                0                
! Port Impedance         50               0                50               0                
8.1                            0.024904643345184 -91.3631685112595 0.99912584032119 -2.66009607327756 0.99912584032119 -2.66009607327756 0.0249046409381522 -91.3632282078479 
! Gamma         0                0                0                0                
! Port Impedance         50               0                50               0                
8.2                            0.0252153417873314 -91.4037625857131 0.999114511137671 -2.69271842036314 0.999114511137671 -2.69271842036314 0.0252153393267669 -91.4038229816349 
! Gamma         0                0                0                0                
! Port Impedance         50               0                50               0                
8.3                            0.025526050823312 -91.444231431681 0.999103116311247 -2.72533906284984 0.999103116311247 -2.72533906284983 0.0255260483086046 -91.4442925264367 
! Gamma         0                0                0                0                
! Port Impedance         50               0                50               0                
8.4                            0.0258367694383145 -91.4845780645772 0.999091655238379 -2.75795804867271 0.999091655238379 -2.75795804867271 0.025836766868861 -91.484639857674 
! Gamma         0                0                0                0                
! Port Impedance         50               0                50               0                
8.5                            0.0261474966577683 -91.5248053495635 0.999080127308607 -2.79057542350898 0.999080127308608 -2.79057542350898 0.0261474940329726 -91.5248678405157 
! Gamma         0                0                0                0                
! Port Impedance         50               0                50               0                
8.6                            0.0264582315461866 -91.5649160132688 0.999068531906039 -2.82319123083488 0.999068531906039 -2.82319123083488 0.0264582288654591 -91.5649792015987 
! Gamma         0                0                0                0                
! Port Impedance         50               0                50               0                
8.7                            0.0267689732059984 -91.6049126544715 0.999056868410718 -2.85580551198388 0.999056868410718 -2.85580551198388 0.0267689704687563 -91.6049765397099 
! Gamma         0                0                0                0                
! Port Impedance         50               0                50               0                
8.8                            0.0270797207763774 -91.6447977538399 0.999045136199907 -2.88841830620588 0.999045136199907 -2.88841830620588 0.0270797179820446 -91.6448623355264 
! Gamma         0                0                0                0                
! Port Impedance         50               0                50               0                
8.9                            0.0273904734320713 -91.6845736828146 0.999033334649263 -2.92102965072699 0.999033334649263 -2.92102965072699 0.0273904705800781 -91.6846389604985 
! Gamma         0                0                0                0                
! Port Impedance         50               0                50               0                
9                              0.0277012303822375 -91.7242427117136 0.999021463133936 -2.95363958080968 0.999021463133936 -2.95363958080968 0.0277012274720205 -91.7243086849541 
! Gamma         0                0                0                0                
! Port Impedance         50               0                50               0                
9.1                            0.0280119908692872 -91.7638070171281 0.999009521029572 -2.98624812981298 0.999009521029572 -2.98624812981298 0.0280119879002891 -91.7638736854943 
! Gamma         0                0                0                0                
! Port Impedance         50               0                50               0                
9.2                            0.0283227541677429 -91.8032686886738 0.998997507713237 -3.01885532925245 0.998997507713237 -3.01885532925245 0.0283227511394125 -91.8033360517456 
! Gamma         0                0                0                0                
! Port Impedance         50               0                50               0                
9.3                            0.0286335195831117 -91.8426297351579 0.998985422564275 -3.05146120885989 0.998985422564275 -3.05146120885989 0.0286335164949034 -91.8426977925253 
! Gamma         0                0                0                0                
! Port Impedance         50               0                50               0                
9.4                            0.0289442864507761 -91.8818920902111 0.998973264965077 -3.08406579664235 0.998973264965077 -3.08406579664235 0.0289442833021504 -91.8819608414754 
! Gamma         0                0                0                0                
! Port Impedance         50               0                50               0                
9.5                            0.0292550541349064 -91.9210576174367 0.998961034301796 -3.11666911894061 0.998961034301796 -3.11666911894061 0.0292550509253289 -91.9211270622098 
! Gamma         0                0                0                0                
! Port Impedance         50               0                50               0                
9.6                            0.0295658220273938 -91.9601281151167 0.998948729964996 -3.14927120048661 0.998948729964996 -3.14927120048661 0.0295658187563354 -91.9601982530217 
! Gamma         0                0                0                0                
! Port Impedance         50               0                50               0                
9.7                            0.0298765895468077 -91.9991053205181 0.998936351350233 -3.18187206446013 0.998936351350233 -3.18187206446013 0.0298765862137445 -91.9991761511889 
! Gamma         0                0                0                0                
! Port Impedance         50               0                50               0                
9.8                            0.0301873561373777 -92.0379909138322 0.998923897858592 -3.21447173254426 0.998923897858592 -3.21447173254426 0.0301873527417908 -92.0380624369138 
! Gamma         0                0                0                0                
! Port Impedance         50               0                50               0                
9.9                            0.0304981212680013 -92.0767865217822 0.998911368897159 -3.24707022497982 0.998911368897159 -3.24707022497982 0.0304981178093764 -92.0768587369309 
! Gamma         0                0                0                0                
! Port Impedance         50               0                50               0                
10                             0.0308088844312775 -92.115493720928 0.998898763879457 -3.27966756061856 0.998898763879457 -3.27966756061856 0.0308088809091049 -92.1155666278108 
! Gamma         0                0                0                0                
! Port Impedance         50               0                50               0                
10.1                           0.031119645142568 -92.1541140406947 0.998886082225824 -3.3122637569751 0.998886082225824 -3.3122637569751 0.0311196415563422 -92.1541876389897 
! Gamma         0                0                0                0                
! Port Impedance         50               0                50               0                
10.2                           0.0314304029390845 -92.1926489661503 0.998873323363755 -3.3448588302776 0.998873323363755 -3.3448588302776 0.0314303992883043 -92.1927232555465 
! Gamma         0                0                0                0                
! Port Impedance         50               0                50               0                
10.3                           0.0317411573790046 -92.2310999405552 0.998860486728203 -3.37745279551709 0.998860486728203 -3.37745279551709 0.0317411536631727 -92.2311749207523 
! Gamma         0                0                0                0                
! Port Impedance         50               0                50               0                
10.4                           0.0320519080406144 -92.2694683677025 0.998847571761844 -3.4100456664954 0.998847571761844 -3.4100456664954 0.0320519042592373 -92.2695440384108 
! Gamma         0                0                0                0                
! Port Impedance         50               0                50               0                
10.5                           0.0323626545214786 -92.3077556140693 0.9988345779153  -3.44263745587184 0.9988345779153  -3.44263745587184 0.0323626506740662 -92.3078319750096 
! Gamma         0                0                0                0                
! Port Impedance         50               0                50               0                
10.6                           0.0326733964376379 -92.3459630107948 0.998821504647342 -3.47522817520838 0.998821504647342 -3.47522817520838 0.0326733925237037 -92.3460400616984 
! Gamma         0                0                0                0                
! Port Impedance         50               0                50               0                
10.7                           0.0329841334228333 -92.3840918555008 0.998808351425054 -3.50781783501356 0.998808351425054 -3.50781783501356 0.0329841294418939 -92.3841695961091 
! Gamma         0                0                0                0                
! Port Impedance         50               0                50               0                
10.8                           0.0332948651277571 -92.4221434139689 0.998795117723972 -3.54040644478496 0.998795117723972 -3.54040644478496 0.0332948610793321 -92.4222218440334 
! Gamma         0                0                0                0                
! Port Impedance         50               0                50               0                
10.9                           0.0336055912193301 -92.4601189216864 0.9987818030282  -3.57299401305032 0.9987818030282  -3.57299401305033 0.033605587102942 -92.4601980409685 
! Gamma         0                0                0                0                
! Port Impedance         50               0                50               0                
11                             0.0339163113800044 -92.4980195852732 0.998768406830499 -3.60558054740737 0.998768406830499 -3.60558054740737 0.0339163071951782 -92.498099393544 
! Gamma         0                0                0                0                
! Port Impedance         50               0                50               0                
11.1                           0.0342270253070917 -92.5358465837996 0.998754928632356 -3.63816605456221 0.998754928632356 -3.63816605456221 0.0342270210533551 -92.5359270808397 
! Gamma         0                0                0                0                
! Port Impedance         50               0                50               0                
11.2                           0.0345377327121163 -92.5736010700052 0.998741367944034 -3.67075054036651 0.998741367944034 -3.67075054036651 0.0345377283889992 -92.5736822556045 
! Gamma         0                0                0                0                
! Port Impedance         50               0                50               0                
11.3                           0.0348484333201923 -92.6112841714266 0.998727724284601 -3.70333400985332 0.998727724284601 -3.70333400985332 0.0348484289272266 -92.611366045384 
! Gamma         0                0                0                0                
! Port Impedance         50               0                50               0                
11.4                           0.035159126869424 -92.648896991443 0.998713997181946 -3.73591646727166 0.998713997181946 -3.73591646727166 0.0351591224061438 -92.6489795535667 
! Gamma         0                0                0                0                
! Port Impedance         50               0                50               0                
11.5                           0.0354698131103299 -92.6864406102463 0.998700186172777 -3.76849791611986 0.998700186172777 -3.76849791611986 0.0354698085762709 -92.6865238603529 
! Gamma         0                0                0                0                
! Port Impedance         50               0                50               0                
11.6                           0.0357804918052884 -92.7239160857419 0.998686290802605 -3.80107835917764 0.998686290802605 -3.80107835917764 0.0357804871999881 -92.7240000236567 
! Gamma         0                0                0                0                
! Port Impedance         50               0                50               0                
11.7                           0.0360911627280059 -92.7613244543872 0.998672310625714 -3.83365779853715 0.998672310625714 -3.83365779853715 0.0360911580510032 -92.7614090799437 
! Gamma         0                0                0                0                
! Port Impedance         50               0                50               0                
11.8                           0.0364018256630049 -92.7986667319719 0.998658245205125 -3.86623623563263 0.998658245205125 -3.86623623563263 0.0364018209138401 -92.7987520450118 
! Gamma         0                0                0                0                
! Port Impedance         50               0                50               0                
11.9                           0.0367124804051338 -92.8359439143464 0.998644094112544 -3.89881367126917 0.998644094112544 -3.89881367126917 0.0367124755833483 -92.8360299147194 
! Gamma         0                0                0                0                
! Port Impedance         50               0                50               0                
12                             0.0370231267590956 -92.873156978102 0.998629856928301 -3.93139010565024 0.998629856928301 -3.93139010565024 0.0370231218642319 -92.8732436656655 
! Gamma         0                0                0                0                
! Port Impedance         50               0                50               0                
12.1                           0.0373337645389956 -92.9103068812068 0.998615533241282 -3.96396553840418 0.998615533241282 -3.96396553840418 0.037333759570597 -92.9103942558256 
! Gamma         0                0                0                0                
! Port Impedance         50               0                50               0                
12.2                           0.0376443935679083 -92.947394563602 0.998601122648854 -3.99653996860972 0.998601122648854 -3.99653996860972 0.0376443885255191 -92.9474826251484 
! Gamma         0                0                0                0                
! Port Impedance         50               0                50               0                
12.3                           0.0379550136774616 -92.9844209477607 0.99858662475678 -4.02911339482041 0.99858662475678 -4.02911339482041 0.0379550085606265 -92.9845096961142 
! Gamma         0                0                0                0                
! Port Impedance         50               0                50               0                
12.4                           0.0382656247074385 -93.021386939214 0.998572039179131 -4.06168581508818 0.998572039179131 -4.06168581508819 0.0382656195157027 -93.0214763742607 
! Gamma         0                0                0                0                
! Port Impedance         50               0                50               0                
12.5                           0.038576226505395 -93.0582934270449 0.99855736553819 -4.0942572269859 0.99855736553819 -4.0942572269859 0.0385762212383042 -93.058383548678 
! Gamma         0                0                0                0                
! Port Impedance         50               0                50               0                
12.6                           0.0388868189262946 -93.0951412843549 0.998542603464354 -4.12682762762903 0.998542603464354 -4.12682762762903 0.0388868135833946 -93.0952320924739 
! Gamma         0                0                0                0                
! Port Impedance         50               0                50               0                
12.7                           0.0391974018321579 -93.1319313687042 0.99852775259603 -4.15939701369645 0.99852775259603 -4.15939701369645 0.0391973964129947 -93.1320228632153 
! Gamma         0                0                0                0                
! Port Impedance         50               0                50               0                
12.8                           0.0395079750917271 -93.1686645225283 0.998512812579525 -4.19196538145038 0.998512812579525 -4.19196538145038 0.0395079695958467 -93.1687567033436 
! Gamma         0                0                0                0                
! Port Impedance         50               0                50               0                
12.9                           0.0398185385801446 -93.2053415735321 0.998497783068938 -4.22453272675557 0.998497783068938 -4.22453272675557 0.0398185330070928 -93.2054344405698 
! Gamma         0                0                0                0                
! Port Impedance         50               0                50               0                
13                             0.040129092178646 -93.2419633350646 0.998482663726045 -4.2570990450976 0.998482663726045 -4.2570990450976 0.0401290865279684 -93.2420568882488 
! Gamma         0                0                0                0                
! Port Impedance         50               0                50               0                
13.1                           0.0404396357742652 -93.2785306064744 0.998467454220185 -4.28966433160051 0.998467454220186 -4.28966433160051 0.0404396300455071 -93.2786248457348 
! Gamma         0                0                0                0                
! Port Impedance         50               0                50               0                
13.2                           0.0407501692595537 -93.3150441734482 0.998452154228143 -4.32222858104365 0.998452154228143 -4.32222858104365 0.04075016345226 -93.31513909872  
! Gamma         0                0                0                0                
! Port Impedance         50               0                50               0                
13.3                           0.0410606925323106 -93.3515048083343 0.998436763434027 -4.35479178787785 0.998436763434027 -4.35479178787785 0.0410606866460256 -93.3516004195581 
! Gamma         0                0                0                0                
! Port Impedance         50               0                50               0                
13.4                           0.0413712054953255 -93.3879132704502 0.998421281529153 -4.38735394624091 0.998421281529153 -4.38735394624091 0.0413711995295929 -93.3880095675717 
! Gamma         0                0                0                0                
! Port Impedance         50               0                50               0                
13.5                           0.0416817080561319 -93.4242703063783 0.99840570821192 -4.41991504997242 0.99840570821192 -4.41991504997242 0.0416817020104945 -93.4243672893483 
! Gamma         0                0                0                0                
! Port Impedance         50               0                50               0                
13.6                           0.0419922001267716 -93.4605766502477 0.998390043187693 -4.45247509262799 0.998390043187693 -4.45247509262799 0.0419921940007715 -93.4606743190217 
! Gamma         0                0                0                0                
! Port Impedance         50               0                50               0                
13.7                           0.0423026816235697 -93.4968330240056 0.998374286168675 -4.48503406749285 0.998374286168675 -4.48503406749285 0.0423026754167482 -93.4969313785438 
! Gamma         0                0                0                0                
! Port Impedance         50               0                50               0                
13.8                           0.0426131524669196 -93.5330401376774 0.998358436873793 -4.51759196759488 0.998358436873793 -4.51759196759488 0.0426131461788167 -93.5331391779449 
! Gamma         0                0                0                0                
! Port Impedance         50               0                50               0                
13.9                           0.0429236125810766 -93.5691986896174 0.998342495028569 -4.55014878571707 0.998342495028569 -4.55014878571707 0.0429236062112314 -93.5692984155833 
! Gamma         0                0                0                0                
! Port Impedance         50               0                50               0                
14                             0.043234061893962 -93.6053093667497 0.998326460365005 -4.58270451440949 0.998326460365005 -4.58270451440949 0.0432340554419124 -93.6054097783875 
! Gamma         0                0                0                0                
! Port Impedance         50               0                50               0                
14.1                           0.0435445003369748 -93.6413728448009 0.998310332621455 -4.61525914600067 0.998310332621455 -4.61525914600067 0.0435444938022575 -93.6414739420883 
! Gamma         0                0                0                0                
! Port Impedance         50               0                50               0                
14.2                           0.0438549278448127 -93.677389788525 0.998294111542513 -4.64781267260858 0.998294111542514 -4.64781267260858 0.0438549212269628 -93.6774915714437 
! Gamma         0                0                0                0                
! Port Impedance         50               0                50               0                
14.3                           0.0441653443553003 -93.7133608519202 0.99827779687889 -4.68036508615108 0.99827779687889 -4.68036508615108 0.0441653376538517 -93.7134633204556 
! Gamma         0                0                0                0                
! Port Impedance         50               0                50               0                
14.4                           0.0444757498092254 -93.7492866784394 0.998261388387293 -4.71291637835589 0.998261388387293 -4.71291637835589 0.0444757430237106 -93.7493898325809 
! Gamma         0                0                0                0                
! Port Impedance         50               0                50               0                
14.5                           0.044786144150183 -93.7851679011938 0.998244885830312 -4.74546654077023 0.998244885830312 -4.74546654077023 0.0447861372801327 -93.7852717409343 
! Gamma         0                0                0                0                
! Port Impedance         50               0                50               0                
14.6                           0.0450965273244256 -93.8210051431506 0.998228288976305 -4.77801556476991 0.998228288976305 -4.77801556476991 0.0450965203693691 -93.8211096684865 
! Gamma         0                0                0                0                
! Port Impedance         50               0                50               0                
14.7                           0.045406899280721 -93.8567990173243 0.998211597599277 -4.81056344156814 0.998211597599277 -4.81056344156814 0.0454068922401857 -93.8569042282553 
! Gamma         0                0                0                0                
! Port Impedance         50               0                50               0                
14.8                           0.0457172599702157 -93.8925501269637 0.998194811478775 -4.84311016222384 0.998194811478775 -4.84311016222385 0.0457172528437275 -93.892656023493 
! Gamma         0                0                0                0                
! Port Impedance         50               0                50               0                
14.9                           0.0460276093463057 -93.9282590657328 0.998177930399768 -4.87565571764974 0.998177930399768 -4.87565571764974 0.0460276021333885 -93.9283656478665 
! Gamma         0                0                0                0                
! Port Impedance         50               0                50               0                
15                             0.0463379473645119 -93.9639264178872 0.998160954152543 -4.90820009861993 0.998160954152543 -4.90820009861993 0.0463379400646877 -93.9640336856346 
! Gamma         0                0                0                0                
! Port Impedance         50               0                50               0                
15.1                           0.046648273982362 -93.9995527584462 0.998143882532592 -4.94074329577723 0.998143882532593 -4.94074329577723 0.0466482665951509 -93.9996607118196 
! Gamma         0                0                0                0                
! Port Impedance         50               0                50               0                
15.2                           0.0469585891592775 -94.0351386533601 0.998126715340511 -4.97328529964018 0.998126715340511 -4.97328529964018 0.0469585816841977 -94.0352472923745 
! Gamma         0                0                0                0                
! Port Impedance         50               0                50               0                
15.3                           0.0472688928564661 -94.0706846596737 0.998109452381884 -5.00582610060971 0.998109452381884 -5.00582610060971 0.0472688852930337 -94.070793984347 
! Gamma         0                0                0                0                
! Port Impedance         50               0                50               0                
15.4                           0.0475791850368189 -94.1061913256858 0.998092093467188 -5.03836568897552 0.998092093467188 -5.03836568897553 0.0475791773845479 -94.1063013360385 
! Gamma         0                0                0                0                
! Port Impedance         50               0                50               0                
15.5                           0.0478894656648121 -94.1416591911048 0.99807463841169 -5.07090405492221 0.99807463841169 -5.07090405492221 0.0478894579232144 -94.14176988716  
! Gamma         0                0                0                0                
! Port Impedance         50               0                50               0                
15.6                           0.0481997347064137 -94.1770887872013 0.998057087035341 -5.10344118853505 0.998057087035341 -5.10344118853505 0.0481997268749989 -94.1772001689845 
! Gamma         0                0                0                0                
! Port Impedance         50               0                50               0                
15.7                           0.0485099921289942 -94.2124806369564 0.998039439162682 -5.13597707980561 0.998039439162682 -5.13597707980561 0.0485099842072697 -94.2125927044955 
! Gamma         0                0                0                0                
! Port Impedance         50               0                50               0                
15.8                           0.0488202379012416 -94.2478352552074 0.998021694622747 -5.16851171863703 0.998021694622748 -5.16851171863704 0.0488202298887124 -94.2479480085328 
! Gamma         0                0                0                0                
! Port Impedance         50               0                50               0                
15.9                           0.0491304719930801 -94.2831531487906 0.998003853248967 -5.20104509484916 0.998003853248967 -5.20104509484916 0.0491304638892491 -94.2832665879347 
! Gamma         0                0                0                0                
! Port Impedance         50               0                50               0                
16                             0.0494406943755929 -94.31843481668  0.997985914879073 -5.23357719818331 0.997985914879073 -5.23357719818331 0.0494406861799605 -94.3185489416775 
! Gamma         0                0                0                0                
! Port Impedance         50               0                50               0                
16.1                           0.0497509050209487 -94.3536807501243 0.997967879355011 -5.26610801830699 0.997967879355011 -5.26610801830699 0.0497508967330128 -94.3537955610119 
! Gamma         0                0                0                0                
! Port Impedance         50               0                50               0                
16.2                           0.0500611039023309 -94.3888914327805 0.997949746522847 -5.29863754481825 0.997949746522848 -5.29863754481825 0.0500610955215871 -94.3890069295968 
! Gamma         0                0                0                0                
! Port Impedance         50               0                50               0                
16.3                           0.0503712909938712 -94.4240673408446 0.997931516232681 -5.33116576724994 0.997931516232681 -5.33116576724995 0.0503712825198124 -94.4241835236304 
! Gamma         0                0                0                0                
! Port Impedance         50               0                50               0                
16.4                           0.0506814662705852 -94.4592089431806 0.99791318833856 -5.36369267507376 0.99791318833856 -5.36369267507376 0.0506814577027019 -94.4593258119783 
! Gamma         0                0                0                0                
! Port Impedance         50               0                50               0                
16.5                           0.0509916297083122 -94.4943167014459 0.997894762698392 -5.39621825770403 0.997894762698393 -5.39621825770403 0.0509916210460922 -94.4944342562999 
! Gamma         0                0                0                0                
! Port Impedance         50               0                50               0                
16.6                           0.0513017812836567 -94.5293910702149 0.997876239173868 -5.42874250450144 0.997876239173868 -5.42874250450144 0.0513017725265854 -94.5295093111713 
! Gamma         0                0                0                0                
! Port Impedance         50               0                50               0                
16.7                           0.0516119209739337 -94.5644324971004 0.997857617630373 -5.4612654047765 0.997857617630373 -5.4612654047765 0.0516119121214937 -94.5645514242068 
! Gamma         0                0                0                0                
! Port Impedance         50               0                50               0                
16.8                           0.0519220487571158 -94.5994414228718 0.997838897936912 -5.49378694779292 0.997838897936912 -5.49378694779292 0.0519220398087871 -94.5995610361776 
! Gamma         0                0                0                0                
! Port Impedance         50               0                50               0                
16.9                           0.0522321646117834 -94.6344182815721 0.997820079966033 -5.52630712277077 0.997820079966033 -5.52630712277077 0.0522321555670431 -94.6345385811281 
! Gamma         0                0                0                0                
! Port Impedance         50               0                50               0                
17                             0.0525422685170767 -94.6693635006323 0.997801163593745 -5.55882591888951 0.997801163593745 -5.55882591888951 0.0525422593753993 -94.6694844864909 
! Gamma         0                0                0                0                
! Port Impedance         50               0                50               0                
17.1                           0.0528523604526508 -94.7042775009834 0.99778214869945 -5.59134332529093 0.99778214869945 -5.59134332529093 0.0528523512135081 -94.7043991731985 
! Gamma         0                0                0                0                
! Port Impedance         50               0                50               0                
17.2                           0.0531624403986323 -94.7391606971669 0.997763035165863 -5.62385933108188 0.997763035165863 -5.62385933108188 0.0531624310614931 -94.7392830557936 
! Gamma         0                0                0                0                
! Port Impedance         50               0                50               0                
17.3                           0.053472508335578 -94.7740134974428 0.997743822878948 -5.65637392533693 0.997743822878948 -5.65637392533693 0.0534724988999083 -94.7741365425376 
! Gamma         0                0                0                0                
! Port Impedance         50               0                50               0                
17.4                           0.0537825642444361 -94.8088363038961 0.997724511727844 -5.68888709710086 0.997724511727844 -5.68888709710086 0.0537825547096992 -94.8089600355168 
! Gamma         0                0                0                0                
! Port Impedance         50               0                50               0                
17.5                           0.054092608106509 -94.8436295125407 0.997705101604795 -5.72139883539107 0.997705101604795 -5.72139883539107 0.0540925984721653 -94.8437539307464 
! Gamma         0                0                0                0                
! Port Impedance         50               0                50               0                
17.6                           0.0544026399034179 -94.8783935134224 0.997685592405087 -5.75390912919986 0.997685592405087 -5.75390912919986 0.0544026301689247 -94.8785186182734 
! Gamma         0                0                0                0                
! Port Impedance         50               0                50               0                
17.7                           0.0547126596170689 -94.9131286907191 0.997665984026982 -5.78641796749661 0.997665984026982 -5.78641796749661 0.0547126497818806 -94.9132544822767 
! Gamma         0                0                0                0                
! Port Impedance         50               0                50               0                
17.8                           0.0550226672296214 -94.9478354228398 0.997646276371652 -5.81892533922984 0.997646276371652 -5.81892533922984 0.0550226572931895 -94.9479619011665 
! Gamma         0                0                0                0                
! Port Impedance         50               0                50               0                
17.9                           0.0553326627234574 -94.9825140825217 0.997626469343118 -5.8514312333292 0.997626469343118 -5.8514312333292 0.0553326526852305 -94.9826412476811 
! Gamma         0                0                0                0                
! Port Impedance         50               0                50               0                
18                             0.055642646081153 -95.0171650369256 0.997606562848189 -5.88393563870734 0.997606562848189 -5.88393563870734 0.0556426359405766 -95.0172928889822 
! Gamma         0                0                0                0                
! Port Impedance         50               0                50               0                
18.1                           0.0559526172854505 -95.0517886477294 0.997586556796403 -5.9164385442617 0.997586556796403 -5.9164385442617 0.055952607041967 -95.0519171867488 
! Gamma         0                0                0                0                
! Port Impedance         50               0                50               0                
18.2                           0.0562625763192327 -95.0863852712202 0.997566451099967 -5.94893993887621 0.997566451099967 -5.94893993887621 0.0562625659722815 -95.086514497269 
! Gamma         0                0                0                0                
! Port Impedance         50               0                50               0                
18.3                           0.0565725231654978 -95.120955258385 0.997546245673702 -5.98143981142295 0.997546245673702 -5.98143981142295 0.0565725127145153 -95.1210851715304 
! Gamma         0                0                0                0                
! Port Impedance         50               0                50               0                
18.4                           0.0568824578073364 -95.1554989549989 0.997525940434986 -6.01393815076362 0.997525940434986 -6.01393815076362 0.0568824472517559 -95.1556295553094 
! Gamma         0                0                0                0                
! Port Impedance         50               0                50               0                
18.5                           0.0571923802279087 -95.1900167017131 0.9975055353037  -6.04643494575109 0.9975055353037  -6.04643494575109 0.0571923695671602 -95.1901479892578 
! Gamma         0                0                0                0                
! Port Impedance         50               0                50               0                
18.6                           0.0575022904104237 -95.2245088341402 0.997485030202176 -6.07893018523072 0.997485030202176 -6.07893018523072 0.0575022796439342 -95.224640808989 
! Gamma         0                0                0                0                
! Port Impedance         50               0                50               0                
18.7                           0.0578121883381189 -95.2589756829385 0.997464425055144 -6.11142385804176 0.997464425055144 -6.11142385804176 0.0578121774653122 -95.2591083451619 
! Gamma         0                0                0                0                
! Port Impedance         50               0                50               0                
18.8                           0.0581220739942414 -95.2934175738946 0.997443719789681 -6.14391595301856 0.997443719789681 -6.14391595301856 0.0581220630145382 -95.2935509235643 
! Gamma         0                0                0                0                
! Port Impedance         50               0                50               0                
18.9                           0.0584319473620299 -95.3278348280053 0.997422914335164 -6.17640645899179 0.997422914335164 -6.17640645899179 0.0584319362748477 -95.3279688651934 
! Gamma         0                0                0                0                
! Port Impedance         50               0                50               0                
19                             0.0587418084246976 -95.362227761557 0.997402008623217 -6.20889536478959 0.997402008623218 -6.20889536478959 0.0587417972294507 -95.3623624863363 
! Gamma         0                0                0                0                
! Port Impedance         50               0                50               0                
19.1                           0.0590516571654159 -95.3965966862043 0.997381002587671 -6.24138265923864 0.997381002587671 -6.24138265923864 0.0590516458615154 -95.3967320986484 
! Gamma         0                0                0                0                
! Port Impedance         50               0                50               0                
19.2                           0.0593614935672994 -95.4309419090471 0.997359896164509 -6.27386833116518 0.997359896164509 -6.27386833116518 0.059361482154153 -95.4310780092302 
! Gamma         0                0                0                0                
! Port Impedance         50               0                50               0                
19.3                           0.059671317613391 -95.4652637327069 0.997338689291829 -6.306352369396  0.997338689291829 -6.306352369396  0.0596713060904033 -95.4654005207036 
! Gamma         0                0                0                0                
! Port Impedance         50               0                50               0                
19.4                           0.0599811292866485 -95.4995624554006 0.997317381909796 -6.33883476275938 0.997317381909796 -6.33883476275938 0.0599811176532208 -95.4996999312863 
! Gamma         0                0                0                0                
! Port Impedance         50               0                50               0                
19.5                           0.0602909285699316 -95.5338383710139 0.997295973960599 -6.37131550008594 0.997295973960599 -6.37131550008594 0.0602909168254619 -95.5339765348645 
! Gamma         0                0                0                0                
! Port Impedance         50               0                50               0                
19.6                           0.0606007154459896 -95.5680917691735 0.997274465388413 -6.40379457020948 0.997274465388413 -6.40379457020948 0.0606007035898726 -95.5682306210654 
! Gamma         0                0                0                0                
! Port Impedance         50               0                50               0                
19.7                           0.0609104898974497 -95.6023229353173 0.997252856139351 -6.43627196196779 0.997252856139351 -6.43627196196779 0.0609104779290768 -95.6024624753275 
! Gamma         0                0                0                0                
! Port Impedance         50               0                50               0                
19.8                           0.0612202519068066 -95.6365321507644 0.997231146161432 -6.46874766420337 0.997231146161432 -6.46874766420337 0.0612202398255659 -95.6366723789703 
! Gamma         0                0                0                0                
! Port Impedance         50               0                50               0                
19.9                           0.0615300014564117 -95.6707196927825 0.997209335404536 -6.50122166576418 0.997209335404536 -6.50122166576418 0.061529989261688 -95.6708606092621 
! Gamma         0                0                0                0                
! Port Impedance         50               0                50               0                
20                             0.0618397385284636 -95.7048858346559 0.99718742382037 -6.53369395550424 0.99718742382037 -6.53369395550424 0.0618397262196381 -95.7050274394875 
! Gamma         0                0                0                0                
! Port Impedance         50               0                50               0                
