! Touchstone file exported from HFSS 2026.1.0
!        File:           C:/ffzhzh/LocalFiles/Ansys_Project_Files/temp_train_TSV_1289_1783194506_51560.aedt
!        Generated:      03:49:57 AM Jul  5, 2026
!        Design:         TSV
!        Project:        temp_train_TSV_1289_1783194506_51560
!
! Variables:
!        h_bsmrdl = 2um
!        h_ox = 20um
!        h_rdl = 5um
!        h_sub = 58.72um
!        h_tmrdl = 5um
!        h_tsv = 58.72um
!        h_via = 3um
!        l_bsmrdl = 300um
!        l_sub = 425.32um
!        l_tmrdl = 200um
!        m_sub = 200um
!        pitch = 55.3um
!        r_tsv = 12.66um
!        s_tmrdl = 10um
!        w_bsmrdl = 18um
!        w_sub = 500um
!        w_tmrdl = 12um
!        x_tsv_center1 = 206um
!        x_tsv_center2 = 524um
!        x_tsv_center3 = 736um
!        x_tsv_center4 = 1054um
!        x_tsv_center5 = 1266um
!        x_tsv_center6 = 1584um
!
# GHz S MA R 50.000000
! Terminal data exported
! Port[1] = TSV1_1_T1
! Port[2] = TSV1_1_T2
0.1                            0.000110981121490108 49.6570493447475 0.999928201611695 -0.0339070067171541 0.999928201611692 -0.0339070067171513 0.00011098110462218 49.657059467165  
! Gamma         0                0                0                0                
! Port Impedance         50               0                50               0                
0.2                            0.000185573266081265 64.0514560292422 0.999919118237549 -0.0676870872898951 0.999919118237545 -0.0676870872898866 0.000185573249496515 64.0515494494512 
! Gamma         0                0                0                0                
! Port Impedance         50               0                50               0                
0.3                            0.000262970136217029 68.8047741639711 0.999905595671657 -0.101248103349748 0.999905595671654 -0.10124810334973 0.000262970301652125 68.8049220933248 
! Gamma         0                0                0                0                
! Port Impedance         50               0                50               0                
0.4                            0.000337812761797608 70.70887568284   0.999889420153633 -0.134549168822886 0.99988942015363 -0.134549168822854 0.000337813259663138 70.70904968749   
! Gamma         0                0                0                0                
! Port Impedance         50               0                50               0                
0.5                            0.000408918225910601 71.596668067302  0.999872230115739 -0.167595335402992 0.999872230115736 -0.167595335402946 0.000408919132120809 71.5968465498051 
! Gamma         0                0                0                0                
! Port Impedance         50               0                50               0                
0.6                            0.000476348877055439 72.1081797155584 0.99985523990149 -0.200420380553209 0.999855239901487 -0.20042038055315 0.000476350186642727 72.1083490424942 
! Gamma         0                0                0                0                
! Port Impedance         50               0                50               0                
0.7                            0.000540631718433241 72.494056784173  0.999839194084406 -0.233069282177305 0.999839194084403 -0.233069282177234 0.000540633364749391 72.4942105935075 
! Gamma         0                0                0                0                
! Port Impedance         50               0                50               0                
0.8                            0.000602418173236599 72.8526343723188 0.999824453663932 -0.265586297374836 0.99982445366393 -0.265586297374758 0.000602420055023487 72.8527718401894 
! Gamma         0                0                0                0                
! Port Impedance         50               0                50               0                
0.9                            0.000662324098447281 73.2178747391362 0.999811118957365 -0.298009123626753 0.999811118957363 -0.29800912362667 0.0006623261032176 73.2179986436655 
! Gamma         0                0                0                0                
! Port Impedance         50               0                50               0                
1                              0.000720866534854639 73.5965514639986 0.999799137262925 -0.330367259982565 0.999799137262923 -0.33036725998248 0.000720868554606446 73.5966665433225 
! Gamma         0                0                0                0                
! Port Impedance         50               0                50               0                
1.1                            0.000778451035275906 73.9848831741212 0.99978837946691 -0.362682553879111 0.999788379466908 -0.362682553879026 0.000778452975022225 73.984994941167  
! Gamma         0                0                0                0                
! Port Impedance         50               0                50               0                
1.2                            0.000835381954077036 74.3759805856528 0.999778687892092 -0.394970571190869 0.999778687892091 -0.394970571190787 0.000835383735212542 74.3760945713578 
! Gamma         0                0                0                0                
! Port Impedance         50               0                50               0                
1.3                            0.000891880552009237 74.7630099083493 0.999769903182926 -0.427242071953675 0.999769903182924 -0.427242071953597 0.000891882112535616 74.7631312341691 
! Gamma         0                0                0                0                
! Port Impedance         50               0                50               0                
1.4                            0.000948103600402296 75.1403557527405 0.999761877740606 -0.459504293416231 0.999761877740604 -0.459504293416156 0.000948104893515737 75.1404889278183 
! Gamma         0                0                0                0                
! Port Impedance         50               0                50               0                
1.5                            0.00100415954075735 75.5038809937918 0.999754481249925 -0.491761961275125 0.999754481249924 -0.491761961275055 0.00100416053275665 75.5040298521004 
! Gamma         0                0                0                0                
! Port Impedance         50               0                50               0                
1.6                            0.00106012143161636 75.8508118599402 0.999747601896995 -0.52401804505968 0.999747601896994 -0.524018045059615 0.00106012209967675 75.8509795772487 
! Gamma         0                0                0                0                
! Port Impedance         50               0                50               0                
1.7                            0.00111603686150499 76.17949671906   0.99974114543873 -0.55627430481671 0.999741145438729 -0.556274304816651 0.00111603719159292 76.1796858704656 
! Gamma         0                0                0                0                
! Port Impedance         50               0                50               0                
1.8                            0.00117193533334352 76.4891493701322 0.999735033346937 -0.588531679131004 0.999735033346936 -0.588531679130951 0.00117193531838814 76.4893620041907 
! Gamma         0                0                0                0                
! Port Impedance         50               0                50               0                
1.9                            0.00122783367051598 76.7796210286652 0.999729200680961 -0.620790557148809 0.99972920068096 -0.620790557148761 0.00122783330886587 76.7798587444277 
! Gamma         0                0                0                0                
! Port Impedance         50               0                50               0                
2                              0.0012837399296703 77.0512140905859 0.999723594014731 -0.653050967712718 0.99972359401473 -0.653050967712675 0.00128373922382129 77.0514781103427 
! Gamma         0                0                0                0                
! Port Impedance         50               0                50               0                
2.1                            0.00133965621040809 77.3045371958326 0.999718169562529 -0.685312710060452 0.999718169562528 -0.685312710060414 0.00133965516596996 77.3048284302725 
! Gamma         0                0                0                0                
! Port Impedance         50               0                50               0                
2.2                            0.00139558066075392 77.5403959944914 0.999712891551727 -0.717575443648866 0.999712891551726 -0.717575443648834 0.00139557928561888 77.5407150992178 
! Gamma         0                0                0                0                
! Port Impedance         50               0                50               0                
2.3                            0.00145150890100793 77.7597127871814 0.999707730842798 -0.749838749512767 0.999707730842797 -0.749838749512739 0.00145150720468532 77.760060210724  
! Gamma         0                0                0                0                
! Port Impedance         50               0                50               0                
2.4                            0.00150743502899284 77.9634686251938 0.999702663775228 -0.782102171847336 0.999702663775227 -0.782102171847312 0.00150743302207872 77.9638446492362 
! Gamma         0                0                0                0                
! Port Impedance         50               0                50               0                
2.5                            0.00156335232486587 78.152662445363  0.999697671210145 -0.814365245868283 0.999697671210144 -0.814365245868263 0.0015633500186212 78.1530672181359 
! Gamma         0                0                0                0                
! Port Impedance         50               0                50               0                
2.6                            0.00161925374066265 78.328282896665  0.999692737739589 -0.846627516159201 0.999692737739588 -0.846627516159184 0.00161925114667836 78.3287164604906 
! Gamma         0                0                0                0                
! Port Impedance         50               0                50               0                
2.7                            0.00167513223576732 78.4912894933876 0.999687851034641 -0.878888548431802 0.999687851034641 -0.878888548431788 0.0016751293656991 78.4917518073019 
! Gamma         0                0                0                0                
! Port Impedance         50               0                50               0                
2.8                            0.00173098100222527 78.6426005415631 0.999683001308161 -0.911147936733797 0.99968300130816 -0.911147936733786 0.00173097786758396 78.6430914998411 
! Gamma         0                0                0                0                
! Port Impedance         50               0                50               0                
2.9                            0.00178679361141378 78.783085928944  0.999678180871573 -0.943405307521184 0.999678180871572 -0.943405307521176 0.00178679022340072 78.7836053762367 
! Gamma         0                0                0                0                
! Port Impedance         50               0                50               0                
3                              0.0018425641047036 78.9135633649577 0.999673383768658 -0.975660321582781 0.999673383768657 -0.975660321582775 0.00184256047408208 78.9141111086414 
! Gamma         0                0                0                0                
! Port Impedance         50               0                50               0                
3.1                            0.00189828704438275 79.0347970327628 0.999668605472346 -1.00791267450659 0.999668605472345 -1.00791267450659 0.00189828318137871 79.0353728529984 
! Gamma         0                0                0                0                
! Port Impedance         50               0                50               0                
3.2                            0.00195395753655567 79.1474978965842 0.999663842633091 -1.04016209616985 0.99966384263309 -1.04016209616984 0.00195395345078237 79.1481015544999 
! Gamma         0                0                0                0                
! Port Impedance         50               0                50               0                
3.3                            0.00200957123445914 79.2523251160022 0.999659092869562 -1.07240834958943 0.999659092869561 -1.07240834958942 0.00200956693486139 79.2529563603347 
! Gamma         0                0                0                0                
! Port Impedance         50               0                50               0                
3.4                            0.00206512432828404 79.3498881725911 0.999654354594121 -1.10465122936783 0.99965435459412 -1.10465122936783 0.00206511982309854 79.3505467450649 
! Gamma         0                0                0                0                
! Port Impedance         50               0                50               0                
3.5                            0.0021206135258971 79.4407494271125 0.999649626867013 -1.13689055989865 0.999649626867012 -1.13689055989865 0.0021206088226261 79.4414350667797 
! Gamma         0                0                0                0                
! Port Impedance         50               0                50               0                
3.6                            0.00217603602763208 79.5254269079174 0.999644909274288 -1.16912619344522 0.999644909274287 -1.16912619344522 0.00217603113302816 79.5261393546437 
! Gamma         0                0                0                0                
! Port Impedance         50               0                50               0                
3.7                            0.00223138949743386 79.6043971912612 0.999640201825447 -1.20135800817126 0.999640201825446 -1.20135800817126 0.00223138441749393 79.6051361885086 
! Gamma         0                0                0                0                
! Port Impedance         50               0                50               0                
3.8                            0.0022866720319955 79.678098277805  0.999635504867522 -1.23358590617689 0.999635504867521 -1.23358590617689 0.00228666677196249 79.678863574833  
! Gamma         0                0                0                0                
! Port Impedance         50               0                50               0                
3.9                            0.00234188212906041 79.7469324010518 0.999630819012887 -1.26580981157647 0.999630819012886 -1.26580981157647 0.00234187669343139 79.7477237546393 
! Gamma         0                0                0                0                
! Port Impedance         50               0                50               0                
4                              0.0023970186557215 79.8112687260982 0.999626145078611 -1.29802966864183 0.99962614507861 -1.29802966864183 0.00239701304826112 79.8120859018673 
! Gamma         0                0                0                0                
! Port Impedance         50               0                50               0                
4.1                            0.00245208081729972 79.8714459132374 0.999621484035515 -1.33024544002611 0.999621484035514 -1.33024544002611 0.00245207504105807 79.8722886866483 
! Gamma         0                0                0                0                
! Port Impedance         50               0                50               0                
4.2                            0.00250706812720321 79.9277745323973 0.999616836965428 -1.36245710507703 0.999616836965427 -1.36245710507703 0.00250706218453733 79.9286426894708 
! Gamma         0                0                0                0                
! Port Impedance         50               0                50               0                
4.3                            0.00256198037803511 79.9805393224091 0.99961220502539 -1.39466465824438 0.999612205025389 -1.39466465824438 0.0025619742706334 79.9814326602226 
! Gamma         0                0                0                0                
! Port Impedance         50               0                50               0                
4.4                            0.00261681761412081 80.0300012946237 0.999607589417752 -1.42686810758323 0.999607589417751 -1.42686810758323 0.00261681134302983 80.0309196216202 
! Gamma         0                0                0                0                
! Port Impedance         50               0                50               0                
4.5                            0.00267158010555461 80.0763996841173 0.999602991365305 -1.45906747335254 0.999602991365304 -1.45906747335254 0.00267157367120771 80.0773428202599 
! Gamma         0                0                0                0                
! Port Impedance         50               0                50               0                
4.6                            0.00272626832381392 80.1199537541516 0.999598412090672 -1.49126278670725 0.999598412090671 -1.49126278670725 0.00272626172606124 80.1209215309502 
! Gamma         0                0                0                0                
! Port Impedance         50               0                50               0                
4.7                            0.00278088291895152 80.1608644610575 0.999593852799374 -1.52345408848122 0.999593852799373 -1.52345408848122 0.00278087615709101 80.1618567214909 
! Gamma         0                0                0                0                
! Port Impedance         50               0                50               0                
4.8                            0.0028354246983496 80.1993159875484 0.999589314666008 -1.55564142805745 0.999589314666007 -1.55564142805745 0.00283541777115863 80.2003325859009 
! Gamma         0                0                0                0                
! Port Impedance         50               0                50               0                
4.9                            0.00288989460699973 80.2354771528527 0.999584798823103 -1.58782486232187 0.999584798823102 -1.58782486232187 0.0028898875127671 80.2365179544818 
! Gamma         0                0                0                0                
! Port Impedance         50               0                50               0                
5                              0.00294429370925975 80.2695027081161 0.999580306352262 -1.62000445469676 0.999580306352261 -1.62000445469676 0.00294428644581771 80.2705675891642 
! Gamma         0                0                0                0                
! Port Impedance         50               0                50               0                
5.1                            0.00299862317202904 80.301534525368  0.999575838277261 -1.65218027424965 0.99957583827726 -1.65218027424965 0.00299861573678519 80.3026233724308 
! Gamma         0                0                0                0                
! Port Impedance         50               0                50               0                
5.2                            0.0030528842492781 80.3317026880525 0.999571395558809 -1.6843523948736 0.999571395558808 -1.68435239487359 0.00305287663924692 80.3328153978132 
! Gamma         0                0                0                0                
! Port Impedance         50               0                50               0                
5.3                            0.00310707826786431 80.3601264907401 0.999566979090748 -1.71652089453479 0.999566979090747 -1.71652089453479 0.00310707047969816 80.3612629695783 
! Gamma         0                0                0                0                
! Port Impedance         50               0                50               0                
5.4                            0.00316120661456434 80.3869153552023 0.999562589697447 -1.74868585458354 0.999562589697446 -1.74868585458354 0.00316119864458373 80.3880755187843 
! Gamma         0                0                0                0                
! Port Impedance         50               0                50               0                
5.5                            0.00321527072425296 80.4121696695761 0.999558228132241 -1.78084735912468 0.99955822813224 -1.78084735912467 0.00321526256847613 80.4133534424331 
! Gamma         0                0                0                0                
! Port Impedance         50               0                50               0                
5.6                            0.00326927206915876 80.4359815568795 0.999553895076728 -1.81300549444374 0.999553895076727 -1.81300549444373 0.00326926372333023 80.4371888719783 
! Gamma         0                0                0                0                
! Port Impedance         50               0                50               0                
5.7                            0.00332321214912833 80.4584355786908 0.9995495911408  -1.84516034848526 0.999549591140799 -1.84516034848525 0.00332320360874657 80.4596663770019 
! Gamma         0                0                0                0                
! Port Impedance         50               0                50               0                
5.8                            0.00337709248283249 80.4796093793596 0.999545316863291 -1.87731201037978 0.99954531686329 -1.87731201037977 0.00337708374317644 80.4808636094259 
! Gamma         0                0                0                0                
! Port Impedance         50               0                50               0                
5.9                            0.00343091459985009 80.4995742757054 0.999541072713119 -1.90946057001613 0.999541072713118 -1.90946057001612 0.00343090565600465 80.5008518932145 
! Gamma         0                0                0                0                
! Port Impedance         50               0                50               0                
6                              0.00348468003356772 80.518395796761  0.999536859090859 -1.94160611765609 0.999536859090858 -1.94160611765608 0.00348467088044807 80.5196967641244 
! Gamma         0                0                0                0                
! Port Impedance         50               0                50               0                
6.1                            0.00353839031483586 80.5361341777545 0.999532676330641 -1.97374874358813 0.99953267633064 -1.97374874358811 0.0035383809472106 80.5374584636945 
! Gamma         0                0                0                0                
! Port Impedance         50               0                50               0                
6.2                            0.00359204696632535 80.5528448121748 0.999528524702326 -2.0058885378176 0.999528524702326 -2.00588853781758 0.00359203737883849 80.5541923913221 
! Gamma         0                0                0                0                
! Port Impedance         50               0                50               0                
6.3                            0.00364565149753024 80.5685786654537 0.999524404413891 -2.03802558979064 0.99952440441389 -2.03802558979063 0.00364564168472196 80.5699495179559 
! Gamma         0                0                0                0                
! Port Impedance         50               0                50               0                
6.4                            0.00369920540036646 80.5833826534981 0.999520315613966 -2.0701599881492 0.999520315613965 -2.07015998814918 0.00369919535669276 80.5847767646414 
! Gamma         0                0                0                0                
! Port Impedance         50               0                50               0                
6.5                            0.00375271014531834 80.597299989041  0.999516258394502 -2.10229182051473 0.999516258394501 -2.10229182051471 0.00375269986516947 80.5987173488847 
! Gamma         0                0                0                0                
! Port Impedance         50               0                50               0                
6.6                            0.00380616717808782 80.610370498526  0.999512232793502 -2.13442117329846 0.999512232793502 -2.13442117329844 0.00380615665580554 80.6118111015512 
! Gamma         0                0                0                0                
! Port Impedance         50               0                50               0                
6.7                            0.00385957791670386 80.6226309120148 0.999508238797807 -2.16654813153594 0.999508238797806 -2.16654813153593 0.00385956714659767 80.6240947567876 
! Gamma         0                0                0                0                
! Port Impedance         50               0                50               0                
6.8                            0.00391294374905257 80.6341151283963 0.999504276345893 -2.19867277874393 0.999504276345892 -2.19867277874391 0.00391293272541471 80.6356022172456 
! Gamma         0                0                0                0                
! Port Impedance         50               0                50               0                
6.9                            0.00396626603079053 80.6448544579847 0.999500345330672 -2.23079519679773 0.999500345330671 -2.23079519679771 0.00396625474791001 80.6463647966945 
! Gamma         0                0                0                0                
! Port Impedance         50               0                50               0                
7                              0.00401954608360694 80.6548778444152 0.99949644560226 -2.26291546582723 0.999496445602259 -2.26291546582721 0.00401953453578252 80.6564114419321 
! Gamma         0                0                0                0                
! Port Impedance         50               0                50               0                
7.1                            0.00407278519380208 80.6642120675897 0.999492576970706 -2.29503366413004 0.999492576970706 -2.29503366413002 0.00407277337535425 80.665768935745  
! Gamma         0                0                0                0                
! Port Impedance         50               0                50               0                
7.2                            0.00412598461115221 80.672881929272  0.999488739208671 -2.32714986810006 0.999488739208671 -2.32714986810004 0.00412597251643416 80.6744620825177 
! Gamma         0                0                0                0                
! Port Impedance         50               0                50               0                
7.3                            0.00417914554803284 80.6809104228003 0.99948493205403 -2.35926415217024 0.99948493205403 -2.35926415217022 0.0041791331714406 80.6825138779602 
! Gamma         0                0                0                0                
! Port Impedance         50               0                50               0                
7.4                            0.00423226917877478 80.6883188882601 0.999481155212413 -2.39137658876804 0.999481155212413 -2.39137658876802 0.00423225651475644 80.6899456642943 
! Gamma         0                0                0                0                
! Port Impedance         50               0                50               0                
7.5                            0.00428535663922897 80.6951271543476 0.999477408359652 -2.42348724828247 0.999477408359652 -2.42348724828245 0.00428534368229307 80.6967772721305 
! Gamma         0                0                0                0                
! Port Impedance         50               0                50               0                
7.6                            0.00433840902651815 80.7013536680499 0.99947369114415 -2.45559619904148 0.99947369114415 -2.45559619904147 0.00433839577124127 80.7030271501617 
! Gamma         0                0                0                0                
! Port Impedance         50               0                50               0                
7.7                            0.00439142739895498 80.7070156131735 0.999470003189149 -2.48770350729874 0.999470003189149 -2.48770350729872 0.0043914138399886 80.7087124837041 
! Gamma         0                0                0                0                
! Port Impedance         50               0                50               0                
7.8                            0.00444441277610813 80.7121290186661 0.999466344094916 -2.51980923722868 0.999466344094916 -2.51980923722867 0.00444439890818477 80.7138493030317 
! Gamma         0                0                0                0                
! Port Impedance         50               0                50               0                
7.9                            0.00449736613899904 80.7167088575976 0.999462713440821 -2.55191345092911 0.999462713440821 -2.5519134509291 0.00449735195693773 80.7184525823683 
! Gamma         0                0                0                0                
! Port Impedance         50               0                50               0                
8                              0.00455028843041384 80.7207691375908 0.99945911078733 -2.58401620843036 0.99945911078733 -2.58401620843035 0.00455027392912494 80.7225363303306 
! Gamma         0                0                0                0                
! Port Impedance         50               0                50               0                
8.1                            0.00460318055531589 80.7243229834313 0.99945553567789 -2.61611756771031 0.99945553567789 -2.6161175677103 0.00460316572980539 80.726113672548  
! Gamma         0                0                0                0                
! Port Impedance         50               0                50               0                
8.2                            0.00465604338134606 80.7273827125179 0.99945198764073 -2.64821758471461 0.99945198764073 -2.6482175847146 0.00465602822671922 80.7291969271239 
! Gamma         0                0                0                0                
! Port Impedance         50               0                50               0                
8.3                            0.00470887773939861 80.7299599037645 0.999448466190558 -2.68031631338134 0.999448466190558 -2.68031631338133 0.00470886225086317 80.7317976735473 
! Gamma         0                0                0                0                
! Port Impedance         50               0                50               0                
8.4                            0.00476168442426195 80.732065460511  0.999444970830171 -2.7124138056697 0.999444970830172 -2.71241380566969 0.00476166859713083 80.7339268156134 
! Gamma         0                0                0                0                
! Port Impedance         50               0                50               0                
8.5                            0.00481446419531446 80.7337096679543 0.999441501051973 -2.74451011159196 0.999441501051973 -2.74451011159195 0.00481444802500797 80.7355946388626 
! Gamma         0                0                0                0                
! Port Impedance         50               0                50               0                
8.6                            0.00486721777726624 80.734902245566  0.999438056339402 -2.77660527924843 0.999438056339402 -2.77660527924842 0.00486720125931395 80.736810863008  
! Gamma         0                0                0                0                
! Port Impedance         50               0                50               0                
8.7                            0.004919945860939 80.7356523949273 0.999434636168274 -2.8086993548648 0.999434636168275 -2.80869935486479 0.00491992899098115 80.7375846897771 
! Gamma         0                0                0                0                
! Port Impedance         50               0                50               0                
8.8                            0.00497264910407662 80.7359688433721 0.999431240008047 -2.84079238283157 0.999431240008048 -2.84079238283156 0.00497263187786524 80.7379248465632 
! Gamma         0                0                0                0                
! Port Impedance         50               0                50               0                
8.9                            0.00502532813217995 80.7358598837982 0.999427867322996 -2.87288440574517 0.999427867322997 -2.87288440574516 0.00502531054557958 80.7378396262436 
! Gamma         0                0                0                0                
! Port Impedance         50               0                50               0                
9                              0.00507798353935992 80.7353334109757 0.99942451757332 -2.90497546445036 0.999424517573321 -2.90497546445036 0.00507796558834808 80.7373369234943 
! Gamma         0                0                0                0                
! Port Impedance         50               0                50               0                
9.1                            0.00513061588920374 80.734396954654  0.999421190216171 -2.93706559808381 0.999421190216172 -2.93706559808381 0.00513059756987109 80.736424267904  
! Gamma         0                0                0                0                
! Port Impedance         50               0                50               0                
9.2                            0.00518322571564952 80.7330577097428 0.999417884706614 -2.96915484411833 0.999417884706615 -2.96915484411833 0.00518320702419981 80.7351088541605 
! Gamma         0                0                0                0                
! Port Impedance         50               0                50               0                
9.3                            0.00523581352386515 80.7313225638204 0.999414600498516 -3.00124323840773 0.999414600498517 -3.00124323840773 0.00523579445661487 80.7333975695651 
! Gamma         0                0                0                0                
! Port Impedance         50               0                50               0                
9.4                            0.00528837979112769 80.7291981222002 0.999411337045378 -3.033330815232  0.999411337045379 -3.033330815232  0.00528836034450555 80.7312970191037 
! Gamma         0                0                0                0                
! Port Impedance         50               0                50               0                
9.5                            0.00534092496770009 80.7266907307668 0.999408093801094 -3.0654176073426 0.999408093801095 -3.0654176073426 0.00534090513824632 80.7288135482882 
! Gamma         0                0                0                0                
! Port Impedance         50               0                50               0                
9.6                            0.00539344947770238 80.7238064967754 0.999404870220667 -3.0975036460077 0.999404870220668 -3.09750364600771 0.00539342926206782 80.7259532639605 
! Gamma         0                0                0                0                
! Port Impedance         50               0                50               0                
9.7                            0.00544595371997476 80.7205513077925 0.999401665760853 -3.12958896105733 0.999401665760854 -3.12958896105734 0.00544593311491985 80.7227220532374 
! Gamma         0                0                0                0                
! Port Impedance         50               0                50               0                
9.8                            0.00549843806893055 80.7169308489391 0.999398479880767 -3.16167358092809 0.999398479880768 -3.16167358092809 0.00549841707132408 80.7191256007576 
! Gamma         0                0                0                0                
! Port Impedance         50               0                50               0                
9.9                            0.00555090287539692 80.7129506185852 0.999395312042434 -3.19375753270749 0.999395312042435 -3.1937575327075 0.00555088148221478 80.7151694043803 
! Gamma         0                0                0                0                
! Port Impedance         50               0                50               0                
10                             0.00560334846744207 80.708615942632  0.999392161711286 -3.22584084217779 0.999392161711287 -3.22584084217779 0.00560332667576578 80.7108587894703 
! Gamma         0                0                0                0                
! Port Impedance         50               0                50               0                
10.1                           0.00565577515118722 80.7039319875043 0.99938902835663 -3.25792353385911 0.999389028356631 -3.25792353385912 0.00565575295820246 80.7061989218943 
! Gamma         0                0                0                0                
! Port Impedance         50               0                50               0                
10.2                           0.00570818321160248 80.6989037719693 0.999385911452062 -3.29000563105197 0.999385911452063 -3.29000563105198 0.00570816061459744 80.7011948198419 
! Gamma         0                0                0                0                
! Port Impedance         50               0                50               0                
10.3                           0.00576057291328557 80.6935361778821 0.999382810475846 -3.32208715587898 0.999382810475847 -3.32208715587899 0.00576054990964927 80.6958513645744 
! Gamma         0                0                0                0                
! Port Impedance         50               0                50               0                
10.4                           0.00581294450122254 80.6878339599565 0.999379724911257 -3.3541681293257 0.999379724911258 -3.35416812932571 0.00581292108844312 80.6901733101983 
! Gamma         0                0                0                0                
! Port Impedance         50               0                50               0                
10.5                           0.0058652982015301 80.6818017546458 0.999376654246892 -3.38624857128075 0.999376654246893 -3.38624857128076 0.00586527437719298 80.6841652925476 
! Gamma         0                0                0                0                
! Port Impedance         50               0                50               0                
10.6                           0.00591763422217886 80.6754440882125 0.99937359797694 -3.41832850057487 0.999373597976941 -3.41832850057489 0.00591760998396494 80.6778318372566 
! Gamma         0                0                0                0                
! Port Impedance         50               0                50               0                
10.7                           0.00596995275369727 80.6687653840613 0.999370555601433 -3.45040793501918 0.999370555601434 -3.4504079350192 0.00596992809938099 80.6711773670942 
! Gamma         0                0                0                0                
! Port Impedance         50               0                50               0                
10.8                           0.00602225396985602 80.6617699694    0.99936752662646 -3.48248689144243 0.999367526626461 -3.48248689144245 0.00602222889730351 80.6642062086272 
! Gamma         0                0                0                0                
! Port Impedance         50               0                50               0                
10.9                           0.00607453802833278 80.6544620812896 0.999364510564358 -3.51456538572726 0.99936451056436 -3.51456538572728 0.00607451253549988 80.6569225982718 
! Gamma         0                0                0                0                
! Port Impedance         50               0                50               0                
11                             0.00612680507135716 80.6468458721384 0.999361506933882 -3.54664343284554 0.999361506933883 -3.54664343284556 0.00612677915628749 80.6493306877892 
! Gamma         0                0                0                0                
! Port Impedance         50               0                50               0                
11.1                           0.00617905522633606 80.6389254146911 0.999358515260343 -3.57872104689271 0.999358515260344 -3.57872104689273 0.00617902888715903 80.6414345492759 
! Gamma         0                0                0                0                
! Port Impedance         50               0                50               0                
11.2                           0.00623128860645939 80.630704706558  0.999355535075735 -3.61079824112107 0.999355535075736 -3.6107982411211 0.00623126184138826 80.6332381796949 
! Gamma         0                0                0                0                
! Port Impedance         50               0                50               0                
11.3                           0.00628350531128644 80.6221876743278 0.999352565918832 -3.64287502797221 0.999352565918834 -3.64287502797224 0.00628347811861635 80.624745504989  
! Gamma         0                0                0                0                
! Port Impedance         50               0                50               0                
11.4                           0.00633570542731306 80.613378177301  0.99934960733528 -3.6749514191083 0.999349607335281 -3.67495141910833 0.00633567780541904 80.6159603838154 
! Gamma         0                0                0                0                
! Port Impedance         50               0                50               0                
11.5                           0.00638788902851988 80.6042800108793 0.999346658877654 -3.70702742544256 0.999346658877656 -3.70702742544259 0.00638786097585492 80.6068866109365 
! Gamma         0                0                0                0                
! Port Impedance         50               0                50               0                
11.6                           0.006440056176902 80.5948969096435 0.999343720105517 -3.73910305716866 0.999343720105519 -3.73910305716869 0.00644002769199505 80.5975279202979 
! Gamma         0                0                0                0                
! Port Impedance         50               0                50               0                
11.7                           0.00649220692298026 80.5852325501482 0.999340790585453 -3.77117832378922 0.999340790585454 -3.77117832378925 0.00649217800443437 80.5878879878246 
! Gamma         0                0                0                0                
! Port Impedance         50               0                50               0                
11.8                           0.00654434130629477 80.5752905534602 0.99933786989109 -3.80325323414335 0.999337869891092 -3.80325323414339 0.0065443119527851 80.5779704339595 
! Gamma         0                0                0                0                
! Port Impedance         50               0                50               0                
11.9                           0.00659645935588074 80.5650744874644 0.999334957603114 -3.83532779643331 0.999334957603115 -3.83532779643335 0.00659642956615271 80.5677788259706 
! Gamma         0                0                0                0                
! Port Impedance         50               0                50               0                
12                             0.00664856109072725 80.5545878689604 0.999332053309262 -3.86740201825019 0.999332053309264 -3.86740201825023 0.00664853086359463 80.5573166800474 
! Gamma         0                0                0                0                
! Port Impedance         50               0                50               0                
12.1                           0.00670064652021933 80.5438341655677 0.99932915660432 -3.89947590659879 0.999329156604322 -3.89947590659883 0.00670061585456239 80.5465874632074 
! Gamma         0                0                0                0                
! Port Impedance         50               0                50               0                
12.2                           0.00675271564456365 80.5328167974603 0.999326267090093 -3.93154946792156 0.999326267090095 -3.9315494679216 0.00675268453932737 80.5355945950302 
! Gamma         0                0                0                0                
! Port Impedance         50               0                50               0                
12.3                           0.00680476845519845 80.5215391389447 0.999323384375383 -3.96362270812175 0.999323384375385 -3.96362270812179 0.00680473690939066 80.5243414492367 
! Gamma         0                0                0                0                
! Port Impedance         50               0                50               0                
12.4                           0.00685680493518801 80.5100045198988 0.999320508075948 -3.99569563258573 0.99932050807595 -3.99569563258577 0.00685677294787764 80.5128313551279 
! Gamma         0                0                0                0                
! Port Impedance         50               0                50               0                
12.5                           0.00690882505960211 80.4982162270836 0.999317637814458 -4.02776824620443 0.99931763781446 -4.02776824620448 0.00690879262991746 80.501067598897  
! Gamma         0                0                0                0                
! Port Impedance         50               0                50               0                
12.6                           0.00696082879588104 80.4861775053411 0.999314773220444 -4.05984055339412 0.999314773220446 -4.05984055339417 0.00696079592300803 80.4890534248276 
! Gamma         0                0                0                0                
! Port Impedance         50               0                50               0                
12.7                           0.00701281610418644 80.4738915586898 0.999311913930243 -4.09191255811631 0.999311913930245 -4.09191255811636 0.00701278278736695 80.4767920363891 
! Gamma         0                0                0                0                
! Port Impedance         50               0                50               0                
12.8                           0.00706478693773853 80.4613615513273 0.999309059586932 -4.12398426389699 0.999309059586934 -4.12398426389704 0.00706475317626875 80.4642865972399 
! Gamma         0                0                0                0                
! Port Impedance         50               0                50               0                
12.9                           0.00711674124314017 80.4485906085501 0.999306209840264 -4.15605567384512 0.999306209840265 -4.15605567384516 0.00711670703636895 80.4515402321469 
! Gamma         0                0                0                0                
! Port Impedance         50               0                50               0                
13                             0.00716867896068806 80.4355818175989 0.999303364346593 -4.1881267906704 0.999303364346595 -4.18812679067045 0.00716864430801535 80.4385560278311 
! Gamma         0                0                0                0                
! Port Impedance         50               0                50               0                
13.1                           0.00722060002467166 80.4223382284367 0.999300522768803 -4.22019761670043 0.999300522768805 -4.22019761670048 0.00722056492554692 80.4253370337459 
! Gamma         0                0                0                0                
! Port Impedance         50               0                50               0                
13.2                           0.00727250436366012 80.4088628544671 0.999297684776228 -4.25226815389714 0.999297684776229 -4.25226815389719 0.00727246881758082 80.4118862627951 
! Gamma         0                0                0                0                
! Port Impedance         50               0                50               0                
13.3                           0.00732439190077777 80.3951586731989 0.999294850044565 -4.28433840387265 0.999294850044567 -4.28433840387271 0.0073243559072879 80.3982066919979 
! Gamma         0                0                0                0                
! Port Impedance         50               0                50               0                
13.4                           0.00737626255396838 80.3812286268625 0.999292018255799 -4.31640836790447 0.999292018255801 -4.31640836790453 0.00737622611265697 80.384301263105  
! Gamma         0                0                0                0                
! Port Impedance         50               0                50               0                
13.5                           0.00742811623624882 80.3670756229837 0.99928918909811 -4.34847804695012 0.999289189098112 -4.34847804695018 0.00742807934674853 80.3701728831725 
! Gamma         0                0                0                0                
! Port Impedance         50               0                50               0                
13.6                           0.0074799528559523 80.3527025349192 0.999286362265786 -4.3805474416612 0.999286362265787 -4.38054744166126 0.00747991551793802 80.3558244250972 
! Gamma         0                0                0                0                
! Port Impedance         50               0                50               0                
13.7                           0.00753177231696168 80.3381122023578 0.999283537459132 -4.41261655239688 0.999283537459134 -4.41261655239694 0.00753173453014916 80.341258728118  
! Gamma         0                0                0                0                
! Port Impedance         50               0                50               0                
13.8                           0.00758357451893322 80.3233074317917 0.999280714384383 -4.44468537923687 0.999280714384385 -4.44468537923693 0.00758353628307773 80.3264785982871 
! Gamma         0                0                0                0                
! Port Impedance         50               0                50               0                
13.9                           0.00763535935751098 80.3082909969604 0.999277892753606 -4.47675392199386 0.999277892753607 -4.47675392199392 0.00763532067240605 80.3114868089137 
! Gamma         0                0                0                0                
! Port Impedance         50               0                50               0                
14                             0.00768712672453251 80.2930656392719 0.999275072284609 -4.50882218022548 0.999275072284611 -4.50882218022554 0.00768708759000863 80.2962861009848 
! Gamma         0                0                0                0                
! Port Impedance         50               0                50               0                
14.1                           0.00773887650822582 80.2776340682013 0.99927225270085 -4.5408901532458 0.999272252700852 -4.54089015324586 0.0077388369241492 80.2808791835646 
! Gamma         0                0                0                0                
! Port Impedance         50               0                50               0                
14.2                           0.00779060859339822 80.261998961672  0.999269433731336 -4.57295784013628 0.999269433731338 -4.57295784013635 0.00779056855966961 80.2652687341745 
! Gamma         0                0                0                0                
! Port Impedance         50               0                50               0                
14.3                           0.00784232286161723 80.2461629664202 0.999266615110536 -4.60502523975641 0.999266615110538 -4.60502523975647 0.0078422823781707 80.2494573991581 
! Gamma         0                0                0                0                
! Port Impedance         50               0                50               0                
14.4                           0.00789401919138385 80.2301286983447 0.99926379657828 -4.63709235075379 0.999263796578282 -4.63709235075385 0.0078939782581857 80.233447794031  
! Gamma         0                0                0                0                
! Port Impedance         50               0                50               0                
14.5                           0.00794569745829862 80.2138987428441 0.99926097787967 -4.66915917157388 0.999260977879672 -4.66915917157395 0.00794565607534621 80.2172425038174 
! Gamma         0                0                0                0                
! Port Impedance         50               0                50               0                
14.6                           0.00799735753522052 80.1974756551436 0.99925815876498 -4.70122570046935 0.999258158764982 -4.70122570046942 0.00799731570254121 80.200844083377  
! Gamma         0                0                0                0                
! Port Impedance         50               0                50               0                
14.7                           0.00804899929241926 80.1808619606112 0.999255338989567 -4.73329193550898 0.999255338989569 -4.73329193550904 0.00804895701006934 80.1842550577212 
! Gamma         0                0                0                0                
! Port Impedance         50               0                50               0                
14.8                           0.00810062259772105 80.1640601550661 0.999252518313775 -4.76535787458626 0.999252518313777 -4.76535787458633 0.00810057986578469 80.1674779223208 
! Gamma         0                0                0                0                
! Port Impedance         50               0                50               0                
14.9                           0.00815222731664809 80.1470727050797 0.999249696502844 -4.79742351542766 0.999249696502845 -4.79742351542772 0.00815218413523636 80.1505151434077 
! Gamma         0                0                0                0                
! Port Impedance         50               0                50               0                
15                             0.00820381331255223 80.1299020482697 0.999246873326813 -4.82948885560042 0.999246873326815 -4.82948885560049 0.00820376968180209 80.1333691582681 
! Gamma         0                0                0                0                
! Port Impedance         50               0                50               0                
15.1                           0.00825538044674276 80.1125505935899 0.999244048560436 -4.86155389252019 0.999244048560437 -4.86155389252026 0.00825533636681613 80.1160423755325 
! Gamma         0                0                0                0                
! Port Impedance         50               0                50               0                
15.2                           0.00830692857860881 80.095020721614  0.999241221983085 -4.89361862345825 0.999241221983087 -4.89361862345832 0.00830688404969163 80.0985371754593 
! Gamma         0                0                0                0                
! Port Impedance         50               0                50               0                
15.3                           0.00835845756573645 80.0773147848162 0.999238393378665 -4.92568304554842 0.999238393378667 -4.92568304554849 0.00835841258803776 80.0808559102151 
! Gamma         0                0                0                0                
! Port Impedance         50               0                50               0                
15.4                           0.00840996726402071 80.059435107848  0.999235562535521 -4.95774715579378 0.999235562535522 -4.95774715579385 0.00840992183777178 80.0630009041516 
! Gamma         0                0                0                0                
! Port Impedance         50               0                50               0                
15.5                           0.00846145752777279 80.0413839878121 0.999232729246354 -4.98981095107295 0.999232729246355 -4.98981095107302 0.00846141165322627 80.0449744540789 
! Gamma         0                0                0                0                
! Port Impedance         50               0                50               0                
15.6                           0.00851292820982258 80.0231636945335 0.999229893308132 -5.02187442814628 0.999229893308134 -5.02187442814635 0.00851288188725165 80.0267788295372 
! Gamma         0                0                0                0                
! Port Impedance         50               0                50               0                
15.7                           0.00856437916161678 80.004776470829  0.999227054522007 -5.05393758366166 0.999227054522009 -5.05393758366173 0.00856433239131433 80.0084162730653 
! Gamma         0                0                0                0                
! Port Impedance         50               0                50               0                
15.8                           0.0086158102333127 79.9862245327744 0.999224212693228 -5.0860004141601 0.999224212693229 -5.08600041416017 0.00861576301559055 79.9898890004682 
! Gamma         0                0                0                0                
! Port Impedance         50               0                50               0                
15.9                           0.00866722127386795 79.9675100699701 0.999221367631058 -5.11806291608115 0.99922136763106 -5.11806291608122 0.00866717360905609 79.9711992010822 
! Gamma         0                0                0                0                
! Port Impedance         50               0                50               0                
16                             0.0087186121311263 79.9486352458058 0.999218519148697 -5.15012508576798 0.999218519148699 -5.15012508576805 0.00871856401957211 79.9523490380396 
! Gamma         0                0                0                0                
! Port Impedance         50               0                50               0                
16.1                           0.00876998265189964 79.9296021977234 0.999215667063194 -5.18218691947232 0.999215667063196 -5.18218691947239 0.00876993409396719 79.9333406485317 
! Gamma         0                0                0                0                
! Port Impedance         50               0                50               0                
16.2                           0.00882133268204647 79.9104130374794 0.999212811195374 -5.21424841335919 0.999212811195375 -5.21424841335926 0.00882128367811579 79.9141761440704 
! Gamma         0                0                0                0                
! Port Impedance         50               0                50               0                
16.3                           0.00887266206654682 79.8910698514061 0.999209951369754 -5.24630956351136 0.999209951369755 -5.24630956351143 0.00887261261701321 79.8948576107501 
! Gamma         0                0                0                0                
! Port Impedance         50               0                50               0                
16.4                           0.00892397064957397 79.8715747006723 0.999207087414473 -5.2783703659337 0.999207087414474 -5.27837036593377 0.00892392075484734 79.8753871095075 
! Gamma         0                0                0                0                
! Port Impedance         50               0                50               0                
16.5                           0.00897525827456291 79.851929621543  0.999204219161211 -5.31043081655732 0.999204219161212 -5.31043081655739 0.00897520793506711 79.8557666763814 
! Gamma         0                0                0                0                
! Port Impedance         50               0                50               0                
16.6                           0.00902652478427582 79.8321366256385 0.999201346445117 -5.34249091124346 0.999201346445118 -5.34249091124352 0.009026474000448 79.8359983227718 
! Gamma         0                0                0                0                
! Port Impedance         50               0                50               0                
16.7                           0.00907777002086461 79.8121977001929 0.999198469104736 -5.37455064578733 0.999198469104738 -5.3745506457874 0.00907771879315461 79.8160840356982 
! Gamma         0                0                0                0                
! Port Impedance         50               0                50               0                
16.8                           0.00912899382593069 79.7921148083119 0.999195586981938 -5.40661001592171 0.99919558698194 -5.40661001592178 0.00912894215480044 79.7960257780573 
! Gamma         0                0                0                0                
! Port Impedance         50               0                50               0                
16.9                           0.0091801960405821 79.7718898892303 0.999192699921847 -5.43866901732041 0.999192699921848 -5.43866901732047 0.00918014392650502 79.77582548888   
! Gamma         0                0                0                0                
! Port Impedance         50               0                50               0                
17                             0.00923137650548803 79.7515248585681 0.999189807772769 -5.47072764560156 0.999189807772771 -5.47072764560162 0.00923132394894845 79.7554850835878 
! Gamma         0                0                0                0                
! Port Impedance         50               0                50               0                
17.1                           0.00928253506093091 79.7310216085869 0.999186910386133 -5.50278589633081 0.999186910386134 -5.50278589633087 0.00928248206242356 79.735006454249  
! Gamma         0                0                0                0                
! Port Impedance         50               0                50               0                
17.2                           0.00933367154685624 79.7103820084448 0.999184007616414 -5.53484376502434 0.999184007616416 -5.5348437650244 0.00933361810688562 79.7143914698333 
! Gamma         0                0                0                0                
! Port Impedance         50               0                50               0                
17.3                           0.00938478580292001 79.6896079044513 0.999181099321077 -5.56690124715175 0.999181099321078 -5.56690124715181 0.00938473192199996 79.6936419764665 
! Gamma         0                0                0                0                
! Port Impedance         50               0                50               0                
17.4                           0.00943587766853418 79.6687011203205 0.999178185360505 -5.59895833813884 0.999178185360506 -5.5989583381389 0.00943582334718729 79.6727597976839 
! Gamma         0                0                0                0                
! Port Impedance         50               0                50               0                
17.5                           0.00948694698290993 79.6476634574246 0.999175265597944 -5.63101503337026 0.999175265597945 -5.63101503337032 0.00948689222166707 79.6517467346836 
! Gamma         0                0                0                0                
! Port Impedance         50               0                50               0                
17.6                           0.00953799358509903 79.6264966950457 0.999172339899437 -5.66307132819202 0.999172339899439 -5.66307132819207 0.00953793838449888 79.6306045665778 
! Gamma         0                0                0                0                
! Port Impedance         50               0                50               0                
17.7                           0.00958901731403334 79.6052025906269 0.999169408133766 -5.69512721791391 0.999169408133768 -5.69512721791396 0.00958896167462187 79.6093350506443 
! Gamma         0                0                0                0                
! Port Impedance         50               0                50               0                
17.8                           0.00964001800856244 79.5837828800226 0.999166470172391 -5.72718269781185 0.999166470172393 -5.7271826978119 0.00963996193089248 79.5879399225763 
! Gamma         0                0                0                0                
! Port Impedance         50               0                50               0                
17.9                           0.00969099550748961 79.5622392777477 0.999163525889395 -5.75923776313005 0.999163525889396 -5.7592377631301 0.0096909389921204 79.5664208967317 
! Gamma         0                0                0                0                
! Port Impedance         50               0                50               0                
18                             0.00974194964960611 79.5405734772255 0.999160575161426 -5.79129240908314 0.999160575161427 -5.79129240908319 0.00974189269710284 79.5447796663809 
! Gamma         0                0                0                0                
! Port Impedance         50               0                50               0                
18.1                           0.00979288027372391 79.5187871510348 0.99915761786764 -5.82334663085818 0.999157617867641 -5.82334663085823 0.00979282288465729 79.5230179039536 
! Gamma         0                0                0                0                
! Port Impedance         50               0                50               0                
18.2                           0.00984378721870688 79.4968819511554 0.999154653889653 -5.8554004236166 0.999154653889654 -5.85540042361664 0.00984372939365275 79.5011372612842 
! Gamma         0                0                0                0                
! Port Impedance         50               0                50               0                
18.3                           0.00989467032350054 79.4748595092126 0.999151683111481 -5.887453782496  0.999151683111482 -5.88745378249605 0.00989461206303946 79.4791393698566 
! Gamma         0                0                0                0                
! Port Impedance         50               0                50               0                
18.4                           0.0099455294271605 79.4527214367202 0.999148705419491 -5.91950670261197 0.999148705419492 -5.91950670261201 0.00994547073187731 79.4570258410468 
! Gamma         0                0                0                0                
! Port Impedance         50               0                50               0                
18.5                           0.00999636436887942 79.4304693253225 0.999145720702352 -5.9515591790597 0.999145720702353 -5.95155917905973 0.0099963052393629 79.4347982663643 
! Gamma         0                0                0                0                
! Port Impedance         50               0                50               0                
18.6                           0.0100471749880129 79.4081047470342 0.999142728850982 -5.98361120691559 0.999142728850983 -5.98361120691563 0.0100471154248553 79.4124582176931 
! Gamma         0                0                0                0                
! Port Impedance         50               0                50               0                
18.7                           0.0100979611241038 79.3856292544794 0.999139729758503 -6.01566278123883 0.999139729758504 -6.01566278123886 0.0100979011279008 79.3900072475294 
! Gamma         0                0                0                0                
! Port Impedance         50               0                50               0                
18.8                           0.0101487226169062 79.3630443811285 0.999136723320189 -6.04771389707278 0.99913672332019 -6.04771389707281 0.010148662188256 79.3674468892194 
! Gamma         0                0                0                0                
! Port Impedance         50               0                50               0                
18.9                           0.0101994593064071 79.3403516415343 0.999133709433425 -6.07976454944642 0.999133709433426 -6.07976454944645 0.0101993984459105 79.3447786571943 
! Gamma         0                0                0                0                
! Port Impedance         50               0                50               0                
19                             0.0102501710328478 79.3175525315656 0.999130687997656 -6.11181473337565 0.999130687997657 -6.11181473337568 0.0102501097411078 79.3220040472047 
! Gamma         0                0                0                0                
! Port Impedance         50               0                50               0                
19.1                           0.0103008576367446 79.2946485286393 0.999127658914348 -6.14386444386454 0.999127658914349 -6.14386444386457 0.0103007959143658 79.2991245365523 
! Gamma         0                0                0                0                
! Port Impedance         50               0                50               0                
19.2                           0.0103515189589074 79.2716410919515 0.999124622086938 -6.17591367590655 0.999124622086939 -6.17591367590658 0.0103514568064961 79.2761415843208 
! Gamma         0                0                0                0                
! Port Impedance         50               0                50               0                
19.3                           0.0104021548404584 79.2485316627057 0.999121577420798 -6.20796242448569 0.999121577420798 -6.20796242448572 0.0104020922586218 79.2530566316039 
! Gamma         0                0                0                0                
! Port Impedance         50               0                50               0                
19.4                           0.0104527651228494 79.2253216643397 0.999118524823188 -6.2400106845776 0.999118524823189 -6.24001068457762 0.0104527021121958 79.2298711017327 
! Gamma         0                0                0                0                
! Port Impedance         50               0                50               0                
19.5                           0.0105033496478786 79.2020125027511 0.999115464203221 -6.27205845115057 0.999115464203222 -6.27205845115058 0.0105032862090167 79.2065864005006 
! Gamma         0                0                0                0                
! Port Impedance         50               0                50               0                
19.6                           0.0105539082577061 79.1786055665199 0.999112395471818 -6.30410571916657 0.999112395471818 -6.30410571916658 0.0105538443912448 79.1832039163859 
! Gamma         0                0                0                0                
! Port Impedance         50               0                50               0                
19.7                           0.0106044407948691 79.1551022271302 0.999109318541671 -6.33615248358219 0.999109318541671 -6.3361524835822 0.0106043765014173 79.1597250207735 
! Gamma         0                0                0                0                
! Port Impedance         50               0                50               0                
19.8                           0.0106549471022959 79.131503839189  0.999106233327204 -6.36819873934951 0.999106233327204 -6.36819873934952 0.0106548823824622 79.1361510681739 
! Gamma         0                0                0                0                
! Port Impedance         50               0                50               0                
19.9                           0.0107054270233197 79.1078117406436 0.99910313974454 -6.400244481417  0.99910313974454 -6.40024448141701 0.0107053618777121 79.1124833964399 
! Gamma         0                0                0                0                
! Port Impedance         50               0                50               0                
20                             0.0107558804016915 79.0840272529969 0.99910003771146 -6.43228970473029 0.99910003771146 -6.43228970473029 0.010755814830917 79.0887233269826 
! Gamma         0                0                0                0                
! Port Impedance         50               0                50               0                
