! Touchstone file exported from HFSS 2026.1.0
!        File:           C:/ffzhzh/LocalFiles/Ansys_Project_Files/temp_train_TSV_1146_1783191459_51560.aedt
!        Generated:      02:59:07 AM Jul  5, 2026
!        Design:         TSV
!        Project:        temp_train_TSV_1146_1783191459_51560
!
! Variables:
!        h_bsmrdl = 2um
!        h_ox = 20um
!        h_rdl = 5um
!        h_sub = 52.17um
!        h_tmrdl = 5um
!        h_tsv = 52.17um
!        h_via = 3um
!        l_bsmrdl = 300um
!        l_sub = 422.28um
!        l_tmrdl = 200um
!        m_sub = 200um
!        pitch = 59.94um
!        r_tsv = 11.14um
!        s_tmrdl = 10um
!        w_bsmrdl = 18um
!        w_sub = 500um
!        w_tmrdl = 12um
!        x_tsv_center1 = 206um
!        x_tsv_center2 = 524um
!        x_tsv_center3 = 736um
!        x_tsv_center4 = 1054um
!        x_tsv_center5 = 1266um
!        x_tsv_center6 = 1584um
!
# GHz S MA R 50.000000
! Terminal data exported
! Port[1] = TSV1_1_T1
! Port[2] = TSV1_1_T2
0.1                            0.000190199689975482 65.5756493467357 0.999921438165393 -0.0327923376869206 0.999921438165394 -0.0327923376869218 0.000190199699863269 65.575642622587  
! Gamma         0                0                0                0                
! Port Impedance         50               0                50               0                
0.2                            0.000355272583625309 75.8725808237249 0.999913725370101 -0.0654839238216155 0.999913725370102 -0.0654839238216231 0.000355272609576533 75.8725717554582 
! Gamma         0                0                0                0                
! Port Impedance         50               0                50               0                
0.3                            0.000522132570038081 79.0850315572955 0.999902095395582 -0.0979988259037484 0.999902095395583 -0.0979988259037706 0.00052213263477623 79.0850178689334 
! Gamma         0                0                0                0                
! Port Impedance         50               0                50               0                
0.4                            0.0006864722171404 80.4712242234468 0.999887946435228 -0.130298887275646 0.99988794643523 -0.13029888727569 0.000686472340134124 80.4712041802623 
! Gamma         0                0                0                0                
! Port Impedance         50               0                50               0                
0.5                            0.000847445693104892 81.1993822261819 0.999872619245583 -0.162381776202693 0.999872619245585 -0.162381776202764 0.000847445885272628 81.1993545465204 
! Gamma         0                0                0                0                
! Port Impedance         50               0                50               0                
0.6                            0.00100516247843514 81.6567835398276 0.999857167551344 -0.194269724483449 0.999857167551345 -0.194269724483546 0.0010051627408919 81.6567474344535 
! Gamma         0                0                0                0                
! Port Impedance         50               0                50               0                
0.7                            0.00116009852987246 81.9956850746606 0.999842290966674 -0.225996643642823 0.999842290966675 -0.225996643642946 0.00116009885595591 81.9956401956414 
! Gamma         0                0                0                0                
! Port Impedance         50               0                50               0                
0.8                            0.00131282951875559 82.279709149091  0.999828375805742 -0.257598354051701 0.999828375805743 -0.257598354051845 0.00131282989724325 82.2796554750249 
! Gamma         0                0                0                0                
! Port Impedance         50               0                50               0                
0.9                            0.00146389880078243 82.5353440443048 0.99981557821926 -0.289107043836906 0.99981557821926 -0.289107043837068 0.00146389921880464 82.535281756614  
! Gamma         0                0                0                0                
! Port Impedance         50               0                50               0                
1                              0.00161376295481363 82.7730055735422 0.999803906924294 -0.320549072391677 0.999803906924294 -0.320549072391851 0.00161376339987488 82.772934955569  
! Gamma         0                0                0                0                
! Port Impedance         50               0                50               0                
1.1                            0.00176278018318371 82.996287463829  0.999793287728253 -0.351944776189778 0.999793287728253 -0.351944776189962 0.00176278064429268 82.9962088313898 
! Gamma         0                0                0                0                
! Port Impedance         50               0                50               0                
1.2                            0.00191121899621589 83.2061032767191 0.999783607324947 -0.383309211064013 0.999783607324946 -0.383309211064201 0.00191121946435418 83.2060169364052 
! Gamma         0                0                0                0                
! Port Impedance         50               0                50               0                
1.3                            0.00205927409674271 83.4025045629443 0.999774740167467 -0.414653184558003 0.999774740167466 -0.414653184558194 0.00205927456492288 83.4024107905721 
! Gamma         0                0                0                0                
! Port Impedance         50               0                50               0                
1.4                            0.00220708289749452 83.5854293960817 0.999766563487834 -0.445984257386195 0.999766563487833 -0.445984257386386 0.00220708336060041 83.5853284280801 
! Gamma         0                0                0                0                
! Port Impedance         50               0                50               0                
1.5                            0.00235473994184152 83.7549668380221 0.999758964763477 -0.47730758912648 0.999758964763475 -0.47730758912667 0.00235474039637603 83.7548588703258 
! Gamma         0                0                0                0                
! Port Impedance         50               0                50               0                
1.6                            0.00250230847581666 83.9114126714689 0.999751844702536 -0.508626602981289 0.999751844702534 -0.508626602981476 0.00250230891962888 83.9112978623063 
! Gamma         0                0                0                0                
! Port Impedance         50               0                50               0                
1.7                            0.00264982930268193 84.0552440691652 0.999745117744728 -0.539943487006159 0.999745117744726 -0.539943487006342 0.0026498297347101 84.0551225435386 
! Gamma         0                0                0                0                
! Port Impedance         50               0                50               0                
1.8                            0.00279732736493716 84.187070304178  0.999738711296164 -0.571259562477204 0.999738711296162 -0.571259562477382 0.00279732778498302 84.1869421587905 
! Gamma         0                0                0                0                
! Port Impedance         50               0                50               0                
1.9                            0.00294481654790544 84.3075832689252 0.999732564404855 -0.602575550237915 0.999732564404853 -0.602575550238088 0.00294481695644378 84.3074485769101 
! Gamma         0                0                0                0                
! Port Impedance         50               0                50               0                
2                              0.00309230314318324 84.4175162425136 0.999726626266678 -0.633891761229941 0.999726626266675 -0.633891761230108 0.00309230354120508 84.4173750576728 
! Gamma         0                0                0                0                
! Port Impedance         50               0                50               0                
2.1                            0.00323978832489091 84.5176126473707 0.999720854763498 -0.665208231783503 0.999720854763495 -0.665208231783663 0.00323978871377626 84.5174650078274 
! Gamma         0                0                0                0                
! Port Impedance         50               0                50               0                
2.2                            0.00338726990875675 84.6086038884889 0.999715215127495 -0.696524819139845 0.999715215127493 -0.696524819139999 0.00338727029017227 84.6084498197577 
! Gamma         0                0                0                0                
! Port Impedance         50               0                50               0                
2.3                            0.00353474359461843 84.6911945538158 0.999709678766544 -0.727841268550055 0.999709678766541 -0.727841268550202 0.00353474397043546 84.6910340713459 
! Gamma         0                0                0                0                
! Port Impedance         50               0                50               0                
2.4                            0.00368220383872082 84.7660532147866 0.999704222254436 -0.759157260143253 0.999704222254433 -0.759157260143393 0.00368220421095004 84.7658863260458 
! Gamma         0                0                0                0                
! Port Impedance         50               0                50               0                
2.5                            0.00382964446150642 84.8338073108728 0.999698826474829 -0.790472441428839 0.999698826474826 -0.790472441428973 0.00382964483224566 84.8336340170448 
! Gamma         0                0                0                0                
! Port Impedance         50               0                50               0                
2.6                            0.0039770590667525 84.8950409140651 0.999693475901586 -0.821786449610278 0.999693475901583 -0.821786449610404 0.00397705943814518 84.8948612114265 
! Gamma         0                0                0                0                
! Port Impedance         50               0                50               0                
2.7                            0.00412444132631919 84.9502944605181 0.99968815799672 -0.853098926679044 0.999688157996717 -0.853098926679163 0.0041244417005212 84.9501083415533 
! Gamma         0                0                0                0                
! Port Impedance         50               0                50               0                
2.8                            0.00427178516927743 85.0000657783871 0.999682862707998 -0.884409529396931 0.999682862707995 -0.884409529397044 0.00427178554843073 84.9998732326888 
! Gamma         0                0                0                0                
! Port Impedance         50               0                50               0                
2.9                            0.00441908490311428 85.044811929842  0.999677582050061 -0.915717935664475 0.999677582050058 -0.915717935664581 0.00441908528932598 85.0446129448388 
! Gamma         0                0                0                0                
! Port Impedance         50               0                50               0                
3                              0.00456633528681724 85.0849515276748 0.999672309755128 -0.947023848340609 0.999672309755124 -0.947023848340708 0.00456633568214306 85.0847460892187 
! Gamma         0                0                0                0                
! Port Impedance         50               0                50               0                
3.1                            0.00471353157001091 85.1208672917619 0.999667040981439 -0.978326997272093 0.999667040981436 -0.978326997272185 0.0047135319764421 85.120655384602  
! Gamma         0                0                0                0                
! Port Impedance         50               0                50               0                
3.2                            0.00486066950830318 85.1529086864929 0.999661772069586 -1.00962714007361 0.999661772069582 -1.0096271400737 0.00486066992775651 85.152690294658  
! Gamma         0                0                0                0                
! Port Impedance         50               0                50               0                
3.3                            0.00500774536212955 85.1813945344189 0.999656500338505 -1.04092406204476 0.999656500338501 -1.04092406204484 0.00500774579643954 85.181169641525  
! Gamma         0                0                0                0                
! Port Impedance         50               0                50               0                
3.4                            0.00515475588432962 85.2066155395408 0.999651223914418 -1.07221757549999 0.999651223914415 -1.07221757550006 0.00515475633524288 85.2063841290381 
! Gamma         0                0                0                0                
! Port Impedance         50               0                50               0                
3.5                            0.0053016983002164 85.2288366802537 0.999645941587141 -1.10350751870868 0.999645941587138 -1.10350751870874 0.00530169876938754 85.228598735625  
! Gamma         0                0                0                0                
! Port Impedance         50               0                50               0                
3.6                            0.00544857028283878 85.2482994502419 0.999640652689206 -1.13479375458652 0.999640652689202 -1.13479375458658 0.00544857077182776 85.2480549551604 
! Gamma         0                0                0                0                
! Port Impedance         50               0                50               0                
3.7                            0.00559536992537349 85.2652239379848 0.999635356994039 -1.16607616923867 0.999635356994035 -1.16607616923873 0.00559537043564411 85.2649728764387 
! Gamma         0                0                0                0                
! Port Impedance         50               0                50               0                
3.8                            0.00574209571203048 85.2798107437141 0.999630054630116 -1.19735467042615 0.999630054630112 -1.1973546704262 0.00574209624494988 85.279553100105  
! Gamma         0                0                0                0                
! Port Impedance         50               0                50               0                
3.9                            0.00588874648845563 85.2922427379271 0.999624746008529 -1.22862918600623 0.999624746008525 -1.22862918600627 0.00588874704529459 85.2919784971454 
! Gamma         0                0                0                0                
! Port Impedance         50               0                50               0                
4                              0.00603532143232425 85.3026866687769 0.999619431761868 -1.25989966238211 0.999619431761865 -1.25989966238215 0.00603532201425825 85.3024158162592 
! Gamma         0                0                0                0                
! Port Impedance         50               0                50               0                
4.1                            0.00618182002460799 85.311294627493  0.999614112692666 -1.29116606298663 0.999614112692662 -1.29116606298666 0.00618182063271881 85.3110171492645 
! Gamma         0                0                0                0                
! Port Impedance         50               0                50               0                
4.2                            0.00632824202184361 85.3182053818626 0.999608789729945 -1.32242836681648 0.999608789729941 -1.32242836681651 0.00632824265712145 85.3179212645668 
! Gamma         0                0                0                0                
! Port Impedance         50               0                50               0                
4.3                            0.0064745874296206 85.323545588053  0.999603463892655 -1.35368656702801 0.999603463892652 -1.35368656702803 0.00647458809296665 85.3232548189713 
! Gamma         0                0                0                0                
! Port Impedance         50               0                50               0                
4.4                            0.00662085647742259 85.3274308909003 0.99959813625898 -1.38494066960141 0.999598136258977 -1.38494066960143 0.00662085716965185 85.3271334579625 
! Gamma         0                0                0                0                
! Port Impedance         50               0                50               0                
4.5                            0.0067670495948983 85.3299669223728 0.999592807940648 -1.41619069207704 0.999592807940645 -1.41619069207705 0.0067670503167428 85.3296628141613 
! Gamma         0                0                0                0                
! Port Impedance         50               0                50               0                
4.6                            0.00691316738959461 85.331250207362  0.999587480061531 -1.44743666236561 0.999587480061528 -1.44743666236562 0.00691316814170676 85.3309394131099 
! Gamma         0                0                0                0                
! Port Impedance         50               0                50               0                
4.7                            0.00705921062615315 85.3313689853166 0.999582153739914 -1.47867861763239 0.999582153739911 -1.47867861763239 0.0070592114091093 85.3310514949006 
! Gamma         0                0                0                0                
! Port Impedance         50               0                50               0                
4.8                            0.00720518020694925 85.3304039555683 0.999576830073901 -1.50991660325433 0.999576830073898 -1.50991660325433 0.00720518102125337 85.3300797594984 
! Gamma         0                0                0                0                
! Port Impedance         50               0                50               0                
4.9                            0.00735107715413657 85.3284289535426 0.999571510129522 -1.54115067184854 0.999571510129519 -1.54115067184854 0.00735107800022401 85.3280980429485 
! Gamma         0                0                0                0                
! Port Impedance         50               0                50               0                
5                              0.00749690259304927 85.3255115644076 0.999566194931162 -1.57238088236966 0.999566194931159 -1.57238088236965 0.00749690347129059 85.3251739310219 
! Gamma         0                0                0                0                
! Port Impedance         50               0                50               0                
5.1                            0.0076426577369065 85.3217136801114 0.999560885453963 -1.60360729927353 0.99956088545396 -1.60360729927352 0.00764265864761129 85.3213693162519 
! Gamma         0                0                0                0                
! Port Impedance         50               0                50               0                
5.2                            0.00778834387275883 85.3170920052009 0.999555582617932 -1.63482999174444 0.999555582617929 -1.63482999174442 0.00778834481617956 85.3167409037507 
! Gamma         0                0                0                0                
! Port Impedance         50               0                50               0                
5.3                            0.00793396234861381 85.3116985162954 0.999550287283511 -1.66604903298258 0.999550287283509 -1.66604903298256 0.00793396332494964 85.3113406706819 
! Gamma         0                0                0                0                
! Port Impedance         50               0                50               0                
5.4                            0.00807951456167621 85.3055808796167 0.999545000248386 -1.69726449954906 0.999545000248383 -1.69726449954904 0.00807951557107672 85.3052162837902 
! Gamma         0                0                0                0                
! Port Impedance         50               0                50               0                
5.5                            0.0082250019476385 85.298782830548  0.999539722245352 -1.728476470765  0.999539722245349 -1.72847647076497 0.00822500299020739 85.2984114789594 
! Gamma         0                0                0                0                
! Port Impedance         50               0                50               0                
5.6                            0.00837042597095768 85.2913445188041 0.999534453941092 -1.75968502816187 0.999534453941089 -1.75968502816184 0.00837042704675637 85.2909664063823 
! Gamma         0                0                0                0                
! Port Impedance         50               0                50               0                
5.7                            0.00851578811605582 85.2833028224432 0.999529195935706 -1.79089025497998 0.999529195935704 -1.79089025497995 0.00851578922510696 85.2829179445726 
! Gamma         0                0                0                0                
! Port Impedance         50               0                50               0                
5.8                            0.00866108987938343 85.2746916336354 0.999523948762887 -1.82209223571213 0.999523948762884 -1.8220922357121 0.00866109102167428 85.2742999861335 
! Gamma         0                0                0                0                
! Port Impedance         50               0                50               0                
5.9                            0.00880633276228659 85.2655421188166 0.99951871289063 -1.85329105568966 0.999518712890628 -1.85329105568962 0.00880633393777234 85.2651436979115 
! Gamma         0                0                0                0                
! Port Impedance         50               0                50               0                
6                              0.00895151826462147 85.2558829555999 0.99951348872239 -1.884486800708  0.999513488722388 -1.88448680070796 0.00895151947322838 85.2554777579086 
! Gamma         0                0                0                0                
! Port Impedance         50               0                50               0                
6.1                            0.0090966478790617 85.245740548589  0.999508276598602 -1.91567955668924 0.999508276598599 -1.9156795566892 0.00909664912069011 85.2453285710959 
! Gamma         0                0                0                0                
! Port Impedance         50               0                50               0                
6.2                            0.00924172308604702 85.2351392260271 0.999503076798494 -1.94686940937897 0.999503076798492 -1.94686940937893 0.00924172436057431 85.2347204660629 
! Gamma         0                0                0                0                
! Port Impedance         50               0                50               0                
6.3                            0.00938674534932412 85.2241014190329 0.999497889542146 -1.97805644407522 0.999497889542144 -1.97805644407518 0.00938674665660744 85.2236758742543 
! Gamma         0                0                0                0                
! Port Impedance         50               0                50               0                
6.4                            0.00953171611203293 85.2126478250063 0.999492714992715 -2.00924074538686 0.999492714992713 -2.00924074538681 0.00953171745191186 85.2122154933761 
! Gamma         0                0                0                0                
! Port Impedance         50               0                50               0                
6.5                            0.00967663679329447 85.2007975566354 0.99948755325882 -2.04042239701957 0.999487553258819 -2.04042239701952 0.00967663816559353 85.2003584364037 
! Gamma         0                0                0                0                
! Port Impedance         50               0                50               0                
6.6                            0.00982150878525886 85.1885682778047 0.99948240439701 -2.07160148158713 0.999482404397008 -2.07160148158708 0.00982151018978985 85.1881223674903 
! Gamma         0                0                0                0                
! Port Impedance         50               0                50               0                
6.7                            0.00996633345057433 85.1759763275786 0.999477268414301 -2.10277808044607 0.999477268414299 -2.10277808044602 0.0099663348871386 85.1755236259513 
! Gamma         0                0                0                0                
! Port Impedance         50               0                50               0                
6.8                            0.0101111121202409 85.1630368333277 0.99947214527076 -2.13395227355185 0.999472145270758 -2.1339522735518 0.0101111135886315 85.1625773393916 
! Gamma         0                0                0                0                
! Port Impedance         50               0                50               0                
6.9                            0.0102558460918146 85.1497638139662 0.999467034882091 -2.16512413933485 0.999467034882089 -2.1651241393348 0.010255847591818 85.1492975269433 
! Gamma         0                0                0                0                
! Port Impedance         50               0                50               0                
7                              0.0104005366279297 85.1361702741778 0.99946193712222 -2.19629375459441 0.999461937122218 -2.19629375459436 0.010400538159328 85.1356971934926 
! Gamma         0                0                0                0                
! Port Impedance         50               0                50               0                
7.1                            0.0105451849551102 85.1222682904293 0.999456851825849 -2.22746119440955 0.999456851825848 -2.2274611944095 0.0105451865176828 85.1217884156939 
! Gamma         0                0                0                0                
! Port Impedance         50               0                50               0                
7.2                            0.0106897922628424 85.1080690894973 0.99945177879098 -2.25862653206473 0.999451778790978 -2.25862653206468 0.0106897938563675 85.1075824204979 
! Gamma         0                0                0                0                
! Port Impedance         50               0                50               0                
7.3                            0.0108343597028824 85.0935831201679 0.999446717781372 -2.28978983898948 0.999446717781371 -2.28978983898943 0.0108343613271383 85.093089656851  
! Gamma         0                0                0                0                
! Port Impedance         50               0                50               0                
7.4                            0.0109788883887755 85.0788201187087 0.999441668528956 -2.32095118471046 0.999441668528955 -2.32095118471041 0.0109788900435426 85.0783198611688 
! Gamma         0                0                0                0                
! Port Impedance         50               0                50               0                
7.5                            0.0111233793955657 85.063789168661  0.99943663073616 -2.35211063681497 0.999436630736159 -2.35211063681492 0.0111233810806272 85.0632821171284 
! Gamma         0                0                0                0                
! Port Impedance         50               0                50               0                
7.6                            0.0112678337596736 85.0484987554477 0.999431604078174 -2.38326826092461 0.999431604078174 -2.38326826092456 0.0112678354748171 85.0479849102775 
! Gamma         0                0                0                0                
! Port Impedance         50               0                50               0                
7.7                            0.0114122524789262 85.0329568162522 0.999426588205128 -2.41442412067829 0.999426588205127 -2.41442412067824 0.0114122542239443 85.0324361779136 
! Gamma         0                0                0                0                
! Port Impedance         50               0                50               0                
7.8                            0.0115566365127187 85.0171707855787 0.999421582744182 -2.44557827772343 0.999421582744181 -2.44557827772338 0.0115566382874108 85.016643354645  
! Gamma         0                0                0                0                
! Port Impedance         50               0                50               0                
7.9                            0.0117009867822957 85.0011476368726 0.999416587301537 -2.47673079171469 0.999416587301536 -2.47673079171464 0.0117009885864681 85.0006134140118 
! Gamma         0                0                0                0                
! Port Impedance         50               0                50               0                
8                              0.011845304171134 84.9848939205423 0.999411601464355 -2.50788172031926 0.999411601464355 -2.50788172031921 0.0118453060046013 84.9843529065083 
! Gamma         0                0                0                0                
! Port Impedance         50               0                50               0                
8.1                            0.0119895895254169 84.9684157986959 0.99940662480259 -2.53903111922807 0.999406624802589 -2.53903111922802 0.0119895913880025 84.96786799432   
! Gamma         0                0                0                0                
! Port Impedance         50               0                50               0                
8.2                            0.0121338436545855 84.9517190768785 0.999401656870726 -2.5701790421722 0.999401656870726 -2.57017904217216 0.0121338455461224 84.951164483062  
! Gamma         0                0                0                0                
! Port Impedance         50               0                50               0                
8.3                            0.0122780673319573 84.9348092330702 0.99939669720944 -2.60132554094389 0.999396697209439 -2.60132554094385 0.0122780692522887 84.9342478507768 
! Gamma         0                0                0                0                
! Port Impedance         50               0                50               0                
8.4                            0.0124222612954023 84.9176914441823 0.999391745347161 -2.63247066542149 0.999391745347161 -2.63247066542145 0.012422263244382 84.9171232744313 
! Gamma         0                0                0                0                
! Port Impedance         50               0                50               0                
8.5                            0.0125664262480662 84.9003706102685 0.999386800801562 -2.66361446359801 0.999386800801562 -2.66361446359797 0.0125664282255595 84.8997956541289 
! Gamma         0                0                0                0                
! Port Impedance         50               0                50               0                
8.6                            0.0127105628591342 84.8828513766503 0.99938186308095 -2.69475698161251 0.99938186308095 -2.69475698161247 0.0127105648650178 84.8822696352343 
! Gamma         0                0                0                0                
! Port Impedance         50               0                50               0                
8.7                            0.0128546717646267 84.8651381541353 0.999376931685593 -2.72589826378422 0.999376931685593 -2.72589826378419 0.0128546737987897 84.8645496285933 
! Gamma         0                0                0                0                
! Port Impedance         50               0                50               0                
8.8                            0.0129987535682212 84.8472351374951 0.999372006108953 -2.75703835264871 0.999372006108954 -2.75703835264867 0.012998755630565 84.8466398290105 
! Gamma         0                0                0                0                
! Port Impedance         50               0                50               0                
8.9                            0.0131428088420933 84.8291463223536 0.999367085838855 -2.78817728899587 0.999367085838855 -2.78817728899583 0.0131428109325319 84.8285442321376 
! Gamma         0                0                0                0                
! Port Impedance         50               0                50               0                
9                              0.0132868381277727 84.8108755206215 0.999362170358571 -2.81931511190942 0.999362170358572 -2.81931511190939 0.0132868402462332 84.8102666499093 
! Gamma         0                0                0                0                
! Port Impedance         50               0                50               0                
9.1                            0.0134308419370082 84.7924263746053 0.999357259147846 -2.85045185880756 0.999357259147846 -2.85045185880753 0.0134308440834309 84.7918107246518 
! Gamma         0                0                0                0                
! Port Impedance         50               0                50               0                
9.2                            0.013574820752639 84.7738023699042 0.999352351683845 -2.8815875654845 0.999352351683845 -2.88158756548448 0.0135748229269775 84.7731799419802 
! Gamma         0                0                0                0                
! Port Impedance         50               0                50               0                
9.3                            0.0137187750294664 84.7550068471992 0.999347447442039 -2.9127222661527 0.999347447442039 -2.91272226615268 0.0137187772316878 84.7543776425879 
! Gamma         0                0                0                0                
! Port Impedance         50               0                50               0                
9.4                            0.0138627051951243 84.7360430130326 0.999342545897034 -2.94385599348554 0.999342545897034 -2.94385599348551 0.0138627074252094 84.7354070330266 
! Gamma         0                0                0                0                
! Port Impedance         50               0                50               0                
9.5                            0.0140066116509451 84.7169139496628 0.99933764652333 -2.97498877866023 0.99933764652333 -2.97498877866021 0.0140066139088884 84.716271195561  
! Gamma         0                0                0                0                
! Port Impedance         50               0                50               0                
9.6                            0.0141504947728179 84.6976226240763 0.999332748796035 -3.00612065140086 0.999332748796035 -3.00612065140085 0.0141504970586277 84.6969730971812 
! Gamma         0                0                0                0                
! Port Impedance         50               0                50               0                
9.7                            0.0142943549120376 84.6781718962292 0.999327852191517 -3.0372516400213 0.999327852191518 -3.03725164002128 0.0142943572257359 84.6775155978446 
! Gamma         0                0                0                0                
! Port Impedance         50               0                50               0                
9.8                            0.0144381923961418 84.6585645265852 0.999322956188007 -3.06838177146793 0.999322956188008 -3.06838177146792 0.0144381947377644 84.6579014580138 
! Gamma         0                0                0                0                
! Port Impedance         50               0                50               0                
9.9                            0.0145820075297353 84.6388031830111 0.999318060266159 -3.09951107136208 0.99931806026616 -3.09951107136207 0.0145820098993319 84.6381333455523 
! Gamma         0                0                0                0                
! Port Impedance         50               0                50               0                
10                             0.0147258005952995 84.6188904470852 0.999313163909555 -3.13063956404198 0.999313163909556 -3.13063956404197 0.0147258029929335 84.6182138420336 
! Gamma         0                0                0                0                
! Port Impedance         50               0                50               0                
10.1                           0.0148695718539862 84.5988288198708 0.999308266605176 -3.16176727260421 0.999308266605177 -3.1617672726042 0.0148695742797347 84.5981454485142 
! Gamma         0                0                0                0                
! Port Impedance         50               0                50               0                
10.2                           0.0150133215463949 84.5786207271994 0.999303367843826 -3.19289421894456 0.999303367843827 -3.19289421894456 0.0150133240003488 84.5779305908174 
! Gamma         0                0                0                0                
! Port Impedance         50               0                50               0                
10.3                           0.0151570498933319 84.5582685245078 0.99929846712052 -3.22402042379822 0.999298467120521 -3.22402042379822 0.0151570523755955 84.5575716243704 
! Gamma         0                0                0                0                
! Port Impedance         50               0                50               0                
10.4                           0.0153007570965516 84.5377745012675 0.999293563934836 -3.25514590677922 0.999293563934838 -3.25514590677922 0.0153007596072428 84.5370708386337 
! Gamma         0                0                0                0                
! Port Impedance         50               0                50               0                
10.5                           0.0154444433394788 84.5171408850409 0.999288657791234 -3.28627068641909 0.999288657791235 -3.28627068641909 0.015444445878729 84.5164304611578 
! Gamma         0                0                0                0                
! Port Impedance         50               0                50               0                
10.6                           0.0155881087879127 84.4963698451986 0.999283748199338 -3.31739478020475 0.99928374819934 -3.31739478020476 0.0155881113558664 84.4956526613003 
! Gamma         0                0                0                0                
! Port Impedance         50               0                50               0                
10.7                           0.0157317535907101 84.4754634963255 0.999278834674198 -3.34851820461552 0.9992788346742  -3.34851820461553 0.0157317561875251 84.4747395536324 
! Gamma         0                0                0                0                
! Port Impedance         50               0                50               0                
10.8                           0.0158753778804503 84.4544239013447 0.999273916736512 -3.37964097515924 0.999273916736514 -3.37964097515925 0.0158753805062975 84.4536932010622 
! Gamma         0                0                0                0                
! Port Impedance         50               0                50               0                
10.9                           0.01601898177408 84.4332530743813 0.999268993912832 -3.41076310640749 0.999268993912833 -3.4107631064075 0.0160189844291432 84.4325156176998 
! Gamma         0                0                0                0                
! Port Impedance         50               0                50               0                
11                             0.0161625653735387 84.4119529833922 0.999264065735738 -3.44188461202996 0.999264065735739 -3.44188461202998 0.0161625680580144 84.4112087714859 
! Gamma         0                0                0                0                
! Port Impedance         50               0                50               0                
11.1                           0.0163061287663641 84.3905255525787 0.999259131743994 -3.47300550482784 0.999259131743996 -3.47300550482786 0.0163061314804617 84.3897745866056 
! Gamma         0                0                0                0                
! Port Impedance         50               0                50               0                
11.2                           0.0164496720262795 84.368972664604  0.999254191482683 -3.50412579676628 0.999254191482685 -3.5041257967663 0.0164496747702207 84.3682149457052 
! Gamma         0                0                0                0                
! Port Impedance         50               0                50               0                
11.3                           0.0165931952137604 84.3472961626307 0.999249244503318 -3.53524549900596 0.999249244503319 -3.53524549900598 0.0165931979877794 84.3465316919301 
! Gamma         0                0                0                0                
! Port Impedance         50               0                50               0                
11.4                           0.0167366983765837 84.3254978521949 0.999244290363934 -3.56636462193373 0.999244290363936 -3.56636462193375 0.0167367011809268 84.3247266307987 
! Gamma         0                0                0                0                
! Port Impedance         50               0                50               0                
11.5                           0.0168801815503574 84.3035795029309 0.999239328629175 -3.59748317519228 0.999239328629177 -3.59748317519231 0.016880184385283 84.3028015319278 
! Gamma         0                0                0                0                
! Port Impedance         50               0                50               0                
11.6                           0.0170236447590324 84.2815428501599 0.999234358870345 -3.62860116770896 0.999234358870347 -3.62860116770899 0.0170236476248109 84.2807581306205 
! Gamma         0                0                0                0                
! Port Impedance         50               0                50               0                
11.7                           0.0171670880153963 84.2593895963545 0.999229380665464 -3.65971860772366 0.999229380665466 -3.65971860772369 0.0171670909123098 84.2585981293314 
! Gamma         0                0                0                0                
! Port Impedance         50               0                50               0                
11.8                           0.0173105113215501 84.2371214124898 0.999224393599295 -3.69083550281577 0.999224393599296 -3.6908355028158 0.0173105142498922 84.2363231990174 
! Gamma         0                0                0                0                
! Port Impedance         50               0                50               0                
11.9                           0.0174539146693669 84.2147399392909 0.99921939726337 -3.72195185993034 0.999219397263372 -3.72195185993037 0.0174539176294428 84.2139349803856 
! Gamma         0                0                0                0                
! Port Impedance         50               0                50               0                
12                             0.0175972980409347 84.1922467883866 0.999214391255998 -3.75306768540329 0.999214391256   -3.75306768540333 0.0175973010330608 84.1914350850463 
! Gamma         0                0                0                0                
! Port Impedance         50               0                50               0                
12.1                           0.0177406614089826 84.1696435433768 0.999209375182262 -3.78418298498584 0.999209375182264 -3.78418298498588 0.0177406644334865 84.1688250965815 
! Gamma         0                0                0                0                
! Port Impedance         50               0                50               0                
12.2                           0.0178840047372911 84.1469317608214 0.999204348654012 -3.81529776386804 0.999204348654014 -3.81529776386809 0.0178840077945113 84.1461065715329 
! Gamma         0                0                0                0                
! Port Impedance         50               0                50               0                
12.3                           0.0180273279810868 84.124112971158  0.999199311289841 -3.84641202670155 0.999199311289843 -3.84641202670159 0.0180273310713726 84.1232810403201 
! Gamma         0                0                0                0                
! Port Impedance         50               0                50               0                
12.4                           0.0181706310874226 84.1011886795541 0.99919426271506 -3.87752577762156 0.999194262715062 -3.8775257776216 0.0181706342111342 84.1003500080926 
! Gamma         0                0                0                0                
! Port Impedance         50               0                50               0                
12.5                           0.0183139139955432 84.0781603666995 0.999189202561662 -3.90863902026801 0.999189202561664 -3.90863902026806 0.018313917153051 84.0773149555226 
! Gamma         0                0                0                0                
! Port Impedance         50               0                50               0                
12.6                           0.0184571766372358 84.0550294895453 0.99918413046828 -3.939751757806  0.999184130468282 -3.93975175780605 0.0184571798289207 84.0541773395436 
! Gamma         0                0                0                0                
! Port Impedance         50               0                50               0                
12.7                           0.0186004189371683 84.0317974819924 0.999179046080135 -3.97086399294545 0.999179046080138 -3.9708639929455 0.0186004221634213 84.0309385940391 
! Gamma         0                0                0                0                
! Port Impedance         50               0                50               0                
12.8                           0.0187436408132132 84.0084657555356 0.99917394904899 -4.00197572796009 0.999173949048992 -4.00197572796015 0.0187436440744356 84.0076001304867 
! Gamma         0                0                0                0                
! Port Impedance         50               0                50               0                
12.9                           0.0188868421767596 83.9850356998661 0.999168839033081 -4.03308696470574 0.999168839033083 -4.03308696470579 0.0188868454733625 83.9841633385605 
! Gamma         0                0                0                0                
! Port Impedance         50               0                50               0                
13                             0.0190300229330121 83.9615086834363 0.999163715697061 -4.06419770463785 0.999163715697063 -4.06419770463791 0.0190300262654164 83.9606295866962 
! Gamma         0                0                0                0                
! Port Impedance         50               0                50               0                
13.1                           0.0191731829812783 83.9378860539904 0.999158578711929 -4.09530794882852 0.999158578711931 -4.09530794882858 0.0191731863499146 83.9370002226216 
! Gamma         0                0                0                0                
! Port Impedance         50               0                50               0                
13.2                           0.0193163222152443 83.9141691390646 0.999153427754961 -4.12641769798271 0.999153427754963 -4.12641769798278 0.0193163256205525 83.9132765738563 
! Gamma         0                0                0                0                
! Port Impedance         50               0                50               0                
13.3                           0.0194594405232393 83.8903592464565 0.999148262509632 -4.15752695245401 0.999148262509634 -4.15752695245407 0.0194594439656689 83.8894599481823 
! Gamma         0                0                0                0                
! Port Impedance         50               0                50               0                
13.4                           0.0196025377884897 83.8664576646712 0.999143082665541 -4.18863571225964 0.999143082665544 -4.1886357122597 0.0196025412684993 83.8655516340887 
! Gamma         0                0                0                0                
! Port Impedance         50               0                50               0                
13.5                           0.0197456138893622 83.8424656633409 0.999137887918333 -4.219743977095  0.999137887918335 -4.21974397709507 0.0197456174074195 83.8415529011923 
! Gamma         0                0                0                0                
! Port Impedance         50               0                50               0                
13.6                           0.0198886686995977 83.8183844936249 0.999132677969614 -4.25085174634765 0.999132677969616 -4.25085174634772 0.0198886722561794 83.817465000637  
! Gamma         0                0                0                0                
! Port Impedance         50               0                50               0                
13.7                           0.0200317020885347 83.794215388588  0.999127452526866 -4.28195901911062 0.999127452526869 -4.28195901911069 0.0200317056841264 83.7932891654729 
! Gamma         0                0                0                0                
! Port Impedance         50               0                50               0                
13.8                           0.0201747139213245 83.7699595635617 0.999122211303369 -4.3130657941954 0.999122211303371 -4.31306579419548 0.0201747175564205 83.7690266110169 
! Gamma         0                0                0                0                
! Port Impedance         50               0                50               0                
13.9                           0.0203177040591366 83.7456182164886 0.999116954018106 -4.34417207014424 0.999116954018108 -4.34417207014432 0.0203177077342398 83.7446785351971 
! Gamma         0                0                0                0                
! Port Impedance         50               0                50               0                
14                             0.0204606723593559 83.721192528251  0.99911168039568 -4.37527784524209 0.999111680395683 -4.37527784524217 0.0204606760749776 83.7202461188817 
! Gamma         0                0                0                0                
! Port Impedance         50               0                50               0                
14.1                           0.0206036186757717 83.6966836629858 0.999106390166226 -4.40638311752799 0.999106390166228 -4.40638311752806 0.0206036224324317 83.695730526194  
! Gamma         0                0                0                0                
! Port Impedance         50               0                50               0                
14.2                           0.0207465428587586 83.6720927683872 0.999101083065319 -4.43748788480604 0.999101083065321 -4.43748788480612 0.0207465466569849 83.6711329048145 
! Gamma         0                0                0                0                
! Port Impedance         50               0                50               0                
14.3                           0.02088944475545 83.6474209759962 0.999095758833888 -4.46859214465597 0.99909575883389 -4.46859214465605 0.0208894485957788 83.6464543862712 
! Gamma         0                0                0                0                
! Port Impedance         50               0                50               0                
14.4                           0.0210323242099042 83.6226694014809 0.999090417218122 -4.4996958944432 0.999090417218125 -4.49969589444328 0.0210323280928797 83.6216960862192 
! Gamma         0                0                0                0                
! Port Impedance         50               0                50               0                
14.5                           0.0211751810632632 83.5978391449054 0.999085057969386 -4.53079913132858 0.999085057969389 -4.53079913132867 0.0211751849894376 83.5968591047101 
! Gamma         0                0                0                0                
! Port Impedance         50               0                50               0                
14.6                           0.0213180151539053 83.5729312909909 0.999079680844127 -4.56190185227768 0.999079680844129 -4.56190185227776 0.0213180191238386 83.5719445264526 
! Gamma         0                0                0                0                
! Port Impedance         50               0                50               0                
14.7                           0.0214608263175907 83.5479469093668 0.999074285603785 -4.59300405406972 0.999074285603787 -4.59300405406981 0.0214608303318506 83.5469534210642 
! Gamma         0                0                0                0                
! Port Impedance         50               0                50               0                
14.8                           0.0216036143876012 83.5228870548158 0.999068872014705 -4.62410573330619 0.999068872014707 -4.62410573330627 0.0216036184467631 83.5218868433156 
! Gamma         0                0                0                0                
! Port Impedance         50               0                50               0                
14.9                           0.0217463791948735 83.4977527675099 0.999063439848048 -4.65520688641901 0.99906343984805 -4.65520688641909 0.0217463832995203 83.4967458333675 
! Gamma         0                0                0                0                
! Port Impedance         50               0                50               0                
15                             0.0218891205681275 83.4725450732412 0.999057988879703 -4.68630750967847 0.999057988879705 -4.68630750967856 0.0218891247188496 83.4715314170008 
! Gamma         0                0                0                0                
! Port Impedance         50               0                50               0                
15.1                           0.0220318383339886 83.447264983646  0.999052518890198 -4.71740759920077 0.9990525188902  -4.71740759920086 0.0220318425313836 83.4462446058408 
! Gamma         0                0                0                0                
! Port Impedance         50               0                50               0                
15.2                           0.0221745323171043 83.4219134964225 0.999047029664615 -4.7485071509553 0.999047029664617 -4.74850715095539 0.0221745365617774 83.4208863975752 
! Gamma         0                0                0                0                
! Port Impedance         50               0                50               0                
15.3                           0.0223172023402569 83.3964915955446 0.999041520992502 -4.77960616077155 0.999041520992504 -4.77960616077164 0.0223172066328203 83.3954577761673 
! Gamma         0                0                0                0                
! Port Impedance         50               0                50               0                
15.4                           0.0224598482244703 83.371000251469  0.999035992667789 -4.81070462434583 0.999035992667791 -4.81070462434592 0.0224598525655433 83.3699597120636 
! Gamma         0                0                0                0                
! Port Impedance         50               0                50               0                
15.5                           0.0226024697891127 83.3454404213386 0.999030444488703 -4.84180253724764 0.999030444488705 -4.84180253724773 0.0226024741793215 83.3443931623973 
! Gamma         0                0                0                0                
! Port Impedance         50               0                50               0                
15.6                           0.0227450668519943 83.3198130491816 0.999024876257686 -4.87289989492579 0.999024876257688 -4.87289989492588 0.0227450712919724 83.318759071187  
! Gamma         0                0                0                0                
! Port Impedance         50               0                50               0                
15.7                           0.0228876392294617 83.294119066106  0.999019287781311 -4.90399669271431 0.999019287781313 -4.9039966927144 0.0228876437198492 83.2930583695313 
! Gamma         0                0                0                0                
! Port Impedance         50               0                50               0                
15.8                           0.0230301867364871 83.2683593904905 0.9990136788702  -4.93509292583801 0.999013678870202 -4.9350929258381 0.023030191277931 83.2672919757996 
! Gamma         0                0                0                0                
! Port Impedance         50               0                50               0                
15.9                           0.0231727091867543 83.2425349281713 0.999008049338945 -4.96618858941796 0.999008049338947 -4.96618858941805 0.0231727137799082 83.2414607958194 
! Gamma         0                0                0                0                
! Port Impedance         50               0                50               0                
16                             0.0233152063927406 83.2166465726262 0.999002399006031 -4.9972836784766 0.999002399006033 -4.99728367847669 0.0233152110382649 83.2155657230597 
! Gamma         0                0                0                0                
! Port Impedance         50               0                50               0                
16.1                           0.0234576781657951 83.1906952051545 0.998996727693752 -5.02837818794268 0.998996727693754 -5.02837818794277 0.0234576828643569 83.1896076388116 
! Gamma         0                0                0                0                
! Port Impedance         50               0                50               0                
16.2                           0.0236001243162141 83.1646816950546 0.998991035228141 -5.05947211265605 0.998991035228143 -5.05947211265614 0.0236001290684867 83.1635874123652 
! Gamma         0                0                0                0                
! Port Impedance         50               0                50               0                
16.3                           0.0237425446533121 83.1386068997979 0.998985321438888 -5.09056544737217 0.99898532143889 -5.09056544737226 0.0237425494599756 83.1375059011839 
! Gamma         0                0                0                0                
! Port Impedance         50               0                50               0                
16.4                           0.0238849389854908 83.1124716652004 0.998979586159272 -5.12165818676648 0.998979586159274 -5.12165818676657 0.0238849438472314 83.111363951076  
! Gamma         0                0                0                0                
! Port Impedance         50               0                50               0                
16.5                           0.0240273071203041 83.0862768255911 0.99897382922608 -5.15275032543853 0.998973829226082 -5.15275032543861 0.0240273120378146 83.085162396363  
! Gamma         0                0                0                0                
! Port Impedance         50               0                50               0                
16.6                           0.0241696488645211 83.0600232039779 0.998968050479544 -5.183841857916  0.998968050479546 -5.18384185791608 0.0241696538385003 83.0589020600454 
! Gamma         0                0                0                0                
! Port Impedance         50               0                50               0                
16.7                           0.0243119640241853 83.0337116122112 0.998962249763261 -5.21493277865852 0.998962249763263 -5.2149327786586 0.0243119690553384 83.0325837539666 
! Gamma         0                0                0                0                
! Port Impedance         50               0                50               0                
16.8                           0.024454252404672 83.0073428511448 0.998956426924131 -5.2460230820613 0.998956426924133 -5.24602308206138 0.0244542574937104 83.0062082789735 
! Gamma         0                0                0                0                
! Port Impedance         50               0                50               0                
16.9                           0.024596513810743 82.9809177107943 0.998950581812283 -5.27711276245866 0.998950581812285 -5.27711276245874 0.0245965189583841 82.9797764250748 
! Gamma         0                0                0                0                
! Port Impedance         50               0                50               0                
17                             0.0247387480465982 82.9544369704935 0.998944714281013 -5.30820181412736 0.998944714281014 -5.30820181412744 0.0247387532535656 82.9532889715981 
! Gamma         0                0                0                0                
! Port Impedance         50               0                50               0                
17.1                           0.0248809549159256 82.9279013990484 0.998938824186711 -5.3392902312898 0.998938824186713 -5.33929023128988 0.0248809601829488 82.9267466873429 
! Gamma         0                0                0                0                
! Port Impedance         50               0                50               0                
17.2                           0.025023134221949 82.901311754889  0.998932911388805 -5.37037800811712 0.998932911388807 -5.3703780081172 0.0250231395497634 82.9001503307331 
! Gamma         0                0                0                0                
! Port Impedance         50               0                50               0                
17.3                           0.025165285767473 82.8746687862192 0.998926975749691 -5.40146513873208 0.998926975749693 -5.40146513873216 0.0251652911568199 82.8735006499665 
! Gamma         0                0                0                0                
! Port Impedance         50               0                50               0                
17.4                           0.0253074093549263 82.847973231164  0.998921017134674 -5.43255161721194 0.998921017134675 -5.43255161721202 0.0253074148065531 82.8467983831626 
! Gamma         0                0                0                0                
! Port Impedance         50               0                50               0                
17.5                           0.0254495047864035 82.8212258179155 0.998915035411903 -5.46363743759108 0.998915035411905 -5.46363743759116 0.0254495103010632 82.8200442585077 
! Gamma         0                0                0                0                
! Port Impedance         50               0                50               0                
17.6                           0.025591571863704 82.7944272648763 0.998909030452318 -5.49472259386361 0.998909030452319 -5.49472259386368 0.0255915774421555 82.7932389943989 
! Gamma         0                0                0                0                
! Port Impedance         50               0                50               0                
17.7                           0.0257336103883703 82.7675782808011 0.998903002129583 -5.5258070799858 0.998903002129584 -5.52580707998588 0.0257336160313781 82.766383299586  
! Gamma         0                0                0                0                
! Port Impedance         50               0                50               0                
17.8                           0.0258756201617231 82.7406795649368 0.998896950320035 -5.55689088987847 0.998896950320037 -5.55689088987853 0.0258756258700574 82.7394778733103 
! Gamma         0                0                0                0                
! Port Impedance         50               0                50               0                
17.9                           0.0260176009848963 82.7137318071597 0.998890874902626 -5.58797401742917 0.998890874902628 -5.58797401742924 0.0260176067593332 82.7125234054435 
! Gamma         0                0                0                0                
! Port Impedance         50               0                50               0                
18                             0.0261595526588697 82.686735688112  0.998884775758865 -5.61905645649441 0.998884775758867 -5.61905645649448 0.0261595585001906 82.6855205766228 
! Gamma         0                0                0                0                
! Port Impedance         50               0                50               0                
18.1                           0.0263014749844997 82.6596918793356 0.998878652772768 -5.65013820090166 0.998878652772769 -5.65013820090172 0.0263014808934917 82.6584700583856 
! Gamma         0                0                0                0                
! Port Impedance         50               0                50               0                
18.2                           0.0264433677625495 82.6326010434049 0.9988725058308  -5.68121924445131 0.998872505830801 -5.68121924445137 0.0264433737400053 82.6313725133016 
! Gamma         0                0                0                0                
! Port Impedance         50               0                50               0                
18.3                           0.0265852307937174 82.6054638340566 0.998866334821828 -5.71229958091858 0.998866334821829 -5.71229958091864 0.0265852368404352 82.6042285951034 
! Gamma         0                0                0                0                
! Port Impedance         50               0                50               0                
18.4                           0.0267270638786638 82.5782808963193 0.998860139637069 -5.74337920405528 0.99886013963707 -5.74337920405534 0.0267270699954472 82.5770389488153 
! Gamma         0                0                0                0                
! Port Impedance         50               0                50               0                
18.5                           0.0268688668180373 82.5510528666402 0.998853920170037 -5.77445810759155 0.998853920170038 -5.7744581075916 0.0268688730056953 82.5498042108801 
! Gamma         0                0                0                0                
! Port Impedance         50               0                50               0                
18.6                           0.0270106394124988 82.5237803730101 0.998847676316499 -5.80553628523746 0.9988476763165  -5.80553628523751 0.0270106456718458 82.5225250092851 
! Gamma         0                0                0                0                
! Port Impedance         50               0                50               0                
18.7                           0.0271523814627453 82.4964640350878 0.998841407974423 -5.83661373068462 0.998841407974424 -5.83661373068467 0.0271523877946012 82.495201963685  
! Gamma         0                0                0                0                
! Port Impedance         50               0                50               0                
18.8                           0.0272940927695322 82.4691044643214 0.998835115043936 -5.86769043760762 0.998835115043936 -5.86769043760766 0.0272940991747222 82.4678356855243 
! Gamma         0                0                0                0                
! Port Impedance         50               0                50               0                
18.9                           0.0274357731336946 82.4417022640691 0.998828797427272 -5.89876639966548 0.998828797427273 -5.89876639966552 0.0274357796130491 82.4404267781575 
! Gamma         0                0                0                0                
! Port Impedance         50               0                50               0                
19                             0.0275774223561674 82.4142580297175 0.998822455028734 -5.92984161050303 0.998822455028735 -5.92984161050307 0.0275774289105223 82.4129758369678 
! Gamma         0                0                0                0                
! Port Impedance         50               0                50               0                
19.1                           0.0277190402380049 82.3867723487988 0.998816087754648 -5.96091606375217 0.998816087754649 -5.9609160637522 0.0277190468682011 82.3854834494842 
! Gamma         0                0                0                0                
! Port Impedance         50               0                50               0                
19.2                           0.0278606265803988 82.3592458011064 0.998809695513316 -5.99198975303311 0.998809695513317 -5.99198975303315 0.0278606332872826 82.3579501954966 
! Gamma         0                0                0                0                
! Port Impedance         50               0                50               0                
19.3                           0.0280021811846962 82.3316789588084 0.99880327821498 -6.0230626719556 0.998803278214981 -6.02306267195563 0.0280021879691191 82.3303766471702 
! Gamma         0                0                0                0                
! Port Impedance         50               0                50               0                
19.4                           0.0281437038524158 82.3040723865602 0.99879683577178 -6.05413481411999 0.998796835771781 -6.05413481412002 0.0281437107152344 82.3027633691573 
! Gamma         0                0                0                0                
! Port Impedance         50               0                50               0                
19.5                           0.0282851943852639 82.276426641615  0.998790368097711 -6.08520617311835 0.998790368097711 -6.08520617311837 0.02828520132734 82.2751109187083 
! Gamma         0                0                0                0                
! Port Impedance         50               0                50               0                
19.6                           0.0284266525851497 82.2487422739332 0.998783875108584 -6.11627674253548 0.998783875108585 -6.11627674253549 0.0284266596073502 82.2474198457806 
! Gamma         0                0                0                0                
! Port Impedance         50               0                50               0                
19.7                           0.0285680782541992 82.2210198262898 0.998777356721994 -6.14734651594987 0.998777356721995 -6.14734651594988 0.0285680853573962 82.2196906931466 
! Gamma         0                0                0                0                
! Port Impedance         50               0                50               0                
19.8                           0.0287094711947692 82.1932598343807 0.998770812857274 -6.17841548693466 0.998770812857274 -6.17841548693467 0.0287094783798398 82.1919239964994 
! Gamma         0                0                0                0                
! Port Impedance         50               0                50               0                
19.9                           0.0288508312094601 82.1654628269272 0.998764243435463 -6.20948364905853 0.998764243435464 -6.20948364905853 0.0288508384772864 82.1641202845581 
! Gamma         0                0                0                0                
! Port Impedance         50               0                50               0                
20                             0.0289921581011282 82.1376293257792 0.998757648379272 -6.24055099588649 0.998757648379272 -6.24055099588648 0.0289921654525976 82.13628007917   
! Gamma         0                0                0                0                
! Port Impedance         50               0                50               0                
