! Touchstone file exported from HFSS 2026.1.0
!        File:           C:/ffzhzh/LocalFiles/Ansys_Project_Files/temp_train_TSV_1218_1783192981_51560.aedt
!        Generated:      03:24:15 AM Jul  5, 2026
!        Design:         TSV
!        Project:        temp_train_TSV_1218_1783192981_51560
!
! Variables:
!        h_bsmrdl = 2um
!        h_ox = 20um
!        h_rdl = 5um
!        h_sub = 71.58um
!        h_tmrdl = 5um
!        h_tsv = 71.58um
!        h_via = 3um
!        l_bsmrdl = 300um
!        l_sub = 429.84um
!        l_tmrdl = 200um
!        m_sub = 200um
!        pitch = 51.87um
!        r_tsv = 14.92um
!        s_tmrdl = 10um
!        w_bsmrdl = 18um
!        w_sub = 500um
!        w_tmrdl = 12um
!        x_tsv_center1 = 206um
!        x_tsv_center2 = 524um
!        x_tsv_center3 = 736um
!        x_tsv_center4 = 1054um
!        x_tsv_center5 = 1266um
!        x_tsv_center6 = 1584um
!
# GHz S MA R 50.000000
! Terminal data exported
! Port[1] = TSV1_1_T1
! Port[2] = TSV1_1_T2
0.1                            8.4663428465264E-05 -37.3856464119161 0.999932692895508 -0.0390653280226778 0.999932692895503 -0.0390653280226778 8.46634128644412E-05 -37.3856450452577 
! Gamma         0                0                0                0                
! Port Impedance         50               0                50               0                
0.2                            0.000133034214240402 -53.1060459635142 0.999920103074149 -0.0779311796335252 0.999920103074143 -0.0779311796335087 0.000133034279001738 -53.1060437177802 
! Gamma         0                0                0                0                
! Port Impedance         50               0                50               0                
0.3                            0.000193878100274972 -59.6476423416629 0.999901895955355 -0.116465537716493 0.999901895955349 -0.116465537716438 0.000193878296640444 -59.6476590386682 
! Gamma         0                0                0                0                
! Port Impedance         50               0                50               0                
0.4                            0.000263081508216914 -63.1885676300733 0.999880910802919 -0.154628375972176 0.999880910802913 -0.154628375972066 0.000263081846284281 -63.1886158200172 
! Gamma         0                0                0                0                
! Port Impedance         50               0                50               0                
0.5                            0.000338384526815808 -65.6396405494081 0.999859490746168 -0.192451545902462 0.999859490746162 -0.192451545902293 0.000338384971222589 -65.639722564458 
! Gamma         0                0                0                0                
! Port Impedance         50               0                50               0                
0.6                            0.000417965772028431 -67.6098009980955 0.99983914033415 -0.230002012353289 0.999839140334145 -0.230002012353066 0.000417966261915789 -67.6099132015106 
! Gamma         0                0                0                0                
! Port Impedance         50               0                50               0                
0.7                            0.000500390737996745 -69.3029590025038 0.999820603399139 -0.267352277230053 0.999820603399134 -0.267352277229786 0.000500391207760085 -69.3030957357475 
! Gamma         0                0                0                0                
! Port Impedance         50               0                50               0                
0.8                            0.000584616804334025 -70.7943190711787 0.9998041002457  -0.304564916181088 0.999804100245696 -0.304564916180789 0.000584617195987099 -70.7944748134245 
! Gamma         0                0                0                0                
! Port Impedance         50               0                50               0                
0.9                            0.000669932849189975 -72.1184998075415 0.999789554455683 -0.341687891038492 0.999789554455679 -0.341687891038172 0.000669933117007636 -72.1186700006107 
! Gamma         0                0                0                0                
! Port Impedance         50               0                50               0                
1                              0.00075587539088069 -73.2973933029494 0.999776752094307 -0.378755413616  0.999776752094305 -0.378755413615669 0.000755875501530119 -73.2975744903369 
! Gamma         0                0                0                0                
! Port Impedance         50               0                50               0                
1.1                            0.000842152777087496 -74.3485433147701 0.999765435715823 -0.415790740265724 0.999765435715821 -0.415790740265388 0.000842152707832302 -74.3487330084519 
! Gamma         0                0                0                0                
! Port Impedance         50               0                50               0                
1.2                            0.00092858744860988 -75.2874080221716 0.999755352805583 -0.452809108074795 0.999755352805582 -0.452809108074461 0.000928587185039964 -75.2876044991235 
! Gamma         0                0                0                0                
! Port Impedance         50               0                50               0                
1.3                            0.00101507556397689 -76.1278544385819 0.999746277034142 -0.489820163735174 0.999746277034142 -0.489820163734846 0.00101507509790975 -76.1280565483152 
! Gamma         0                0                0                0                
! Port Impedance         50               0                50               0                
1.4                            0.00110156003165275 -76.8822386942976 0.99973801493618 -0.526829773666229 0.99973801493618 -0.52682977366591 0.00110155935941587 -76.8824457021047 
! Gamma         0                0                0                0                
! Port Impedance         50               0                50               0                
1.5                            0.00118801294889467 -77.5614507313379 0.999730405522718 -0.563841301245996 0.999730405522719 -0.563841301245688 0.00118801207000231 -77.5616621989943 
! Gamma         0                0                0                0                
! Port Impedance         50               0                50               0                
1.6                            0.00127442432686753 -78.1750002736339 0.99972331691708 -0.600856480630439 0.999723316917081 -0.600856480630143 0.00127442324303409 -78.175215971708 
! Gamma         0                0                0                0                
! Port Impedance         50               0                50               0                
1.7                            0.00136079491078965 -78.7311391407083 0.999716642086953 -0.637876003810526 0.999716642086954 -0.637876003810243 0.00136079362520663 -78.7313589852831 
! Gamma         0                0                0                0                
! Port Impedance         50               0                50               0                
1.8                            0.00144713163309747 -79.2370006824563 0.999710294639137 -0.67489991060766 0.999710294639139 -0.674899910607391 0.00144713014990825 -79.2372246899059 
! Gamma         0                0                0                0                
! Port Impedance         50               0                50               0                
1.9                            0.00153344474938295 -79.6987406095352 0.999704205070715 -0.711927845759892 0.999704205070717 -0.711927845759637 0.00153344307330253 -79.6989688643529 
! Gamma         0                0                0                0                
! Port Impedance         50               0                50               0                
2                              0.00161974604744086 -80.1216696197973 0.999698317589737 -0.748959227280125 0.99969831758974 -0.748959227279883 0.0016197441834804 -80.1219022517528 
! Gamma         0                0                0                0                
! Port Impedance         50               0                50               0                
2.1                            0.00170604774041796 -80.5103730910048 0.999692587491087 -0.78599335589946 0.999692587491089 -0.785993355899231 0.00170604569368498 -80.5106102589326 
! Gamma         0                0                0                0                
! Port Impedance         50               0                50               0                
2.2                            0.00179236179614515 -80.8688162524816 0.999686979022837 -0.823029485498068 0.999686979022839 -0.823029485497853 0.00179235957169808 -80.8690581327761 
! Gamma         0                0                0                0                
! Port Impedance         50               0                50               0                
2.3                            0.00187869954446105 -81.2004350432618 0.999681463665147 -0.860066867741718 0.99968146366515 -0.860066867741517 0.00187869714720322 -81.2006818217173 
! Gamma         0                0                0                0                
! Port Impedance         50               0                50               0                
2.4                            0.00196507146134806 -81.5082137718824 0.999676018746821 -0.897104779686793 0.999676018746824 -0.897104779686603 0.00196506889595032 -81.5084656379132 
! Gamma         0                0                0                0                
! Port Impedance         50               0                50               0                
2.5                            0.0020514870649909 -81.7947510669142 0.999670626334083 -0.934142540163445 0.999670626334086 -0.934142540163268 0.00205148433583533 -81.7950082094758 
! Gamma         0                0                0                0                
! Port Impedance         50               0                50               0                
2.6                            0.00213795488203905 -82.06231568246  0.999665272337001 -0.9711795187926 0.999665272337003 -0.971179518792435 0.00213795199317841 -82.0625782871886 
! Gamma         0                0                0                0                
! Port Impedance         50               0                50               0                
2.7                            0.00222448245720777 -82.3128936437779 0.999659945789266 -1.00821514019901 0.999659945789269 -1.00821514019886 0.00222447941233676 -82.3131618910072 
! Gamma         0                0                0                0                
! Port Impedance         50               0                50               0                
2.8                            0.00231107638891055 -82.5482280694518 0.999654638265907 -1.04524888512491 0.999654638265909 -1.04524888512477 0.00231107319134613 -82.5485021328632 
! Gamma         0                0                0                0                
! Port Impedance         50               0                50               0                
2.9                            0.00239774237979006 -82.769852835245 0.999649343410858 -1.08228028957861 0.999649343410861 -1.08228028957848 0.002397739032459 -82.7701328809767 
! Gamma         0                0                0                0                
! Port Impedance         50               0                50               0                
3                              0.00248448529501522 -82.979121075665 0.999644056552241 -1.1193089427724 0.999644056552244 -1.11930894277228 0.00248448180044713 -82.9794072617558 
! Gamma         0                0                0                0                
! Port Impedance         50               0                50               0                
3.1                            0.00257130922380939 -83.177229364146 0.999638774387875 -1.15633448435029 0.999638774387878 -1.15633448435018 0.0025713055841344 -83.1775218402231 
! Gamma         0                0                0                0                
! Port Impedance         50               0                50               0                
3.2                            0.00265821754136391 -83.3652382762226 0.999633494727283 -1.19335660123599 0.999633494727286 -1.19335660123588 0.00265821375831402 -83.3655371833679 
! Gamma         0                0                0                0                
! Port Impedance         50               0                50               0                
3.3                            0.00274521296938839 -83.5440899228731 0.999628216279288 -1.23037502431779 0.999628216279291 -1.23037502431769 0.00274520904430188 -83.5443953936203 
! Gamma         0                0                0                0                
! Port Impedance         50               0                50               0                
3.4                            0.00283229763426113 -83.7146229422138 0.999622938476629 -1.26738952511035 0.999622938476632 -1.26738952511026 0.00283229356808959 -83.7149351006424 
! Gamma         0                0                0                0                
! Port Impedance         50               0                50               0                
3.5                            0.00291947312220229 -83.877585354946 0.999617661330723 -1.30439991248226 0.999617661330726 -1.30439991248218 0.00291946891551977 -83.8779043168449 
! Gamma         0                0                0                0                
! Port Impedance         50               0                50               0                
3.6                            0.00300674053118719 -84.0336456201961 0.999612385311144 -1.34140602950399 0.999612385311147 -1.34140602950392 0.00300673618420113 -84.0339714932788 
! Gamma         0                0                0                0                
! Port Impedance         50               0                50               0                
3.7                            0.00309410051950311 -84.1834021714947 0.999607111245428 -1.37840775044787 0.999607111245431 -1.37840775044781 0.00309409603206682 -84.1837350556516 
! Gamma         0                0                0                0                
! Port Impedance         50               0                50               0                
3.8                            0.00318155335096929 -84.3273916656734 0.999601840235688 -1.41540497795684 0.999601840235691 -1.41540497795678 0.00318154872259561 -84.3277316532501 
! Gamma         0                0                0                0                
! Port Impedance         50               0                50               0                
3.9                            0.00326909893690959 -84.4660961387201 0.999596573589192 -1.45239764038858 0.999596573589194 -1.45239764038853 0.00326909416678565 -84.4664433148139 
! Gamma         0                0                0                0                
! Port Impedance         50               0                50               0                
4                              0.00335673687500808 -84.5999492306819 0.999591312760587 -1.48938568933549 0.999591312760589 -1.48938568933545 0.00335673196201073 -84.6003036734503 
! Gamma         0                0                0                0                
! Port Impedance         50               0                50               0                
4.1                            0.00344446648519881 -84.7293416153369 0.999586059303868 -1.52636909731667 0.999586059303871 -1.52636909731664 0.00344446142791082 -84.7297033963124 
! Gamma         0                0                0                0                
! Port Impedance         50               0                50               0                
4.2                            0.00353228684275116 -84.8546257485622 0.999580814832541 -1.5633478556359 0.999580814832544 -1.56334785563587 0.00353228163947775 -84.854994932971 
! Gamma         0                0                0                0                
! Port Impedance         50               0                50               0                
4.3                            0.00362019680871358 -84.9761200312909 0.999575580986685 -1.600321972398  0.999575580986687 -1.60032197239798 0.00362019145749928 -84.9764966783709 
! Gamma         0                0                0                0                
! Port Impedance         50               0                50               0                
4.4                            0.00370819505787683 -85.0941124679924 0.999570359405854 -1.6372914706754 0.999570359405856 -1.63729147067538 0.00370818955652247 -85.0944966313098 
! Gamma         0                0                0                0                
! Port Impedance         50               0                50               0                
4.5                            0.00379628010441227 -85.2088638891808 0.999565151706919 -1.6742563868163 0.999565151706921 -1.67425638681629 0.00379627445049201 -85.2092556169414 
! Gamma         0                0                0                0                
! Port Impedance         50               0                50               0                
4.6                            0.00388445032533501 -85.3206107960994 0.999559959466103 -1.71121676888605 0.999559959466106 -1.71121676888604 0.00388444451621328 -85.3210101314553 
! Gamma         0                0                0                0                
! Port Impedance         50               0                50               0                
4.7                            0.00397270398193439 -85.4295678770872 0.999554784204581 -1.74817267523337 0.999554784204584 -1.74817267523337 0.00397269801478259 -85.4299748584356 
! Gamma         0                0                0                0                
! Port Impedance         50               0                50               0                
4.8                            0.0040610392393073 -85.5359302378885 0.999549627377102 -1.78512417317351 0.999549627377105 -1.7851241731735 0.00406103311112026 -85.5363448991631 
! Gamma         0                0                0                0                
! Port Impedance         50               0                50               0                
4.9                            0.00414945418412285 -85.6398753820969 0.999544490363194 -1.82207133778053 0.999544490363196 -1.82207133778053 0.00414944789173492 -85.6402977530505 
! Gamma         0                0                0                0                
! Port Impedance         50               0                50               0                
5                              0.00423794684073998 -85.7415649728063 0.999539374460549 -1.85901425078175 0.999539374460551 -1.85901425078176 0.00423794038084066 -85.7419950792838 
! Gamma         0                0                0                0                
! Port Impedance         50               0                50               0                
5.1                            0.00432651518579296 -85.8411464022257 0.999534280880269 -1.89595299954711 0.999534280880272 -1.89595299954712 0.00432650855494207 -85.8415842664275 
! Gamma         0                0                0                0                
! Port Impedance         50               0                50               0                
5.2                            0.00441515716135372 -85.9387541923659 0.999529210743684 -1.93288767616725 0.999529210743686 -1.93288767616727 0.00441515035599599 -85.9391998331009 
! Gamma         0                0                0                0                
! Port Impedance         50               0                50               0                
5.3                            0.00450387068677362 -86.0345112467991 0.999524165080486 -1.9698183766141 0.999524165080488 -1.96981837661412 0.00450386370325278 -86.0349646797278 
! Gamma         0                0                0                0                
! Port Impedance         50               0                50               0                
5.4                            0.00459265366930189 -86.1285299708611 0.999519144828   -2.00674519997806 0.999519144828001 -2.00674519997808 0.00459264650387404 -86.1289912087275 
! Gamma         0                0                0                0                
! Port Impedance         50               0                50               0                
5.5                            0.00468150401357215 -86.2209132754083 0.999514150831365 -2.04366824777656 0.999514150831367 -2.04366824777658 0.00468149666241862 -86.2213823282618 
! Gamma         0                0                0                0                
! Port Impedance         50               0                50               0                
5.6                            0.00477041963004375 -86.3117554773194 0.999509183844512 -2.08058762332871 0.999509183844514 -2.08058762332873 0.00477041208928321 -86.3122323527256 
! Gamma         0                0                0                0                
! Port Impedance         50               0                50               0                
5.7                            0.00485939844247892 -86.4011431082746 0.99950424453177 -2.11750343119131 0.999504244531772 -2.11750343119133 0.00485939070817891 -86.4016278115159 
! Gamma         0                0                0                0                
! Port Impedance         50               0                50               0                
5.8                            0.00494843839453285 -86.4891556419242 0.999499333469999 -2.15441577665158 0.999499333470001 -2.1544157766516 0.00494843046272058 -86.4896481761899 
! Gamma         0                0                0                0                
! Port Impedance         50               0                50               0                
5.9                            0.00503753745552824 -86.5758661483314 0.999494451151147 -2.19132476527253 0.999494451151148 -2.19132476527255 0.0050375293222008 -86.5763665148978 
! Gamma         0                0                0                0                
! Port Impedance         50               0                50               0                
6                              0.00512669362548242 -86.6613418835096 0.999489597985133 -2.22823050248677 0.999489597985134 -2.2282305024868 0.00512668528661629 -86.6618500819098 
! Gamma         0                0                0                0                
! Port Impedance         50               0                50               0                
6.1                            0.00521590493945008 -86.7456448209572 0.999484774302996 -2.26513309323512 0.999484774302997 -2.26513309323515 0.00521589639101 -86.746160849141 
! Gamma         0                0                0                0                
! Port Impedance         50               0                50               0                
6.2                            0.00530516947124121 -86.8288321312888 0.999479980360229 -2.30203264164645 0.99947998036023 -2.30203264164648 0.00530516070918843 -86.829355985774 
! Gamma         0                0                0                0                
! Port Impedance         50               0                50               0                
6.3                            0.00539448533656954 -86.9109566153666 0.999475216340257 -2.33892925075546 0.999475216340258 -2.33892925075549 0.00539447635686945 -86.9114882913799 
! Gamma         0                0                0                0                
! Port Impedance         50               0                50               0                
6.4                            0.00548385069568342 -86.992067095725 0.999470482357991 -2.37582302225525 0.999470482357992 -2.37582302225528 0.00548384149431258 -86.9926065873349 
! Gamma         0                0                0                0                
! Port Impedance         50               0                50               0                
6.5                            0.00557326375552713 -87.0722087705462 0.999465778463444 -2.41271405628189 0.999465778463445 -2.41271405628192 0.00557325432847973 -87.0727560707873 
! Gamma         0                0                0                0                
! Port Impedance         50               0                50               0                
6.6                            0.0056627227714776 -87.1514235339808 0.999461104645348 -2.44960245122817 0.999461104645349 -2.4496024512282 0.00566271311477134 -87.1519786349693 
! Gamma         0                0                0                0                
! Port Impedance         50               0                50               0                
6.7                            0.0057522260486981 -87.2297502661888 0.999456460834759 -2.48648830358406 0.99945646083476 -2.48648830358409 0.00575221615837957 -87.230313159231 
! Gamma         0                0                0                0                
! Port Impedance         50               0                50               0                
6.8                            0.00584177194314734 -87.3072250961206 0.999451846908623 -2.5233717078015 0.999451846908624 -2.52337170780154 0.00584176181529687 -87.307795771813 
! Gamma         0                0                0                0                
! Port Impedance         50               0                50               0                
6.9                            0.00593135886227977 -87.3838816397302 0.999447262693272 -2.56025275618136 0.999447262693273 -2.56025275618139 0.00593134849301577 -87.3844600880535 
! Gamma         0                0                0                0                
! Port Impedance         50               0                50               0                
7                              0.00602098526546984 -87.4597512160365 0.999442707967855 -2.59713153878046 0.999442707967856 -2.59713153878049 0.00602097465095275 -87.4603374264415 
! Gamma         0                0                0                0                
! Port Impedance         50               0                50               0                
7.1                            0.00611064966419058 -87.5348630431903 0.999438182467663 -2.63400814333689 0.999438182467663 -2.63400814333692 0.0061106388006263 -87.5354570046786 
! Gamma         0                0                0                0                
! Port Impedance         50               0                50               0                
7.2                            0.00620035062197435 -87.6092444164875 0.999433685887361 -2.67088265521168 0.999433685887362 -2.67088265521171 0.00620033950561732 -87.6098461176854 
! Gamma         0                0                0                0                
! Port Impedance         50               0                50               0                
7.3                            0.00629008675418133 -87.6829208700678 0.999429217884108 -2.7077551573454 0.999429217884108 -2.70775515734543 0.00629007538133719 -87.6835302992945 
! Gamma         0                0                0                0                
! Port Impedance         50               0                50               0                
7.4                            0.00637985672759916 -87.7559163238625 0.999424778080553 -2.74462573022801 0.999424778080554 -2.74462573022804 0.00637984509462704 -87.7565334691928 
! Gamma         0                0                0                0                
! Port Impedance         50               0                50               0                
7.5                            0.0064696592598951 -87.8282532171967 0.99942036606772 -2.7814944518807 0.999420366067721 -2.78149445188073 0.00646964736320963 -87.828878066519 
! Gamma         0                0                0                0                
! Port Impedance         50               0                50               0                
7.6                            0.00655949311894036 -87.8999526303147 0.99941598140776 -2.81836139784835 0.99941598140776 -2.81836139784838 0.00655948095501327 -87.9005851713832 
! Gamma         0                0                0                0                
! Port Impedance         50               0                50               0                
7.7                            0.00664935712202418 -87.9710343949651 0.99941162363658 -2.85522664120157 0.99941162363658 -2.85522664120159 0.00664934468738566 -87.9716746154487 
! Gamma         0                0                0                0                
! Port Impedance         50               0                50               0                
7.8                            0.00673925013497392 -88.0415171950768 0.999407292266348 -2.89209025254698 0.999407292266348 -2.89209025254701 0.00673923742621373 -88.0421650826028 
! Gamma         0                0                0                0                
! Port Impedance         50               0                50               0                
7.9                            0.00682917107119584 -88.1114186584521 0.999402986787866 -2.9289523000451 0.999402986787866 -2.92895230004513 0.0068291580849641 -88.1120742006461 
! Gamma         0                0                0                0                
! Port Impedance         50               0                50               0                
8                              0.00691911889064965 -88.1807554403138 0.999398706672827 -2.96581284943459 0.999398706672827 -2.96581284943462 0.00691910562365741 -88.1814186248363 
! Gamma         0                0                0                0                
! Port Impedance         50               0                50               0                
8.1                            0.00700909259876879 -88.2495432994633 0.999394451375941 -3.00267196406224 0.999394451375941 -3.00267196406226 0.00700907904778846 -88.2502141140422 
! Gamma         0                0                0                0                
! Port Impedance         50               0                50               0                
8.2                            0.00709909124533733 -88.3177971677324 0.999390220336946 -3.03952970491785 0.999390220336945 -3.03952970491787 0.00709907740720281 -88.3184756001927 
! Gamma         0                0                0                0                
! Port Impedance         50               0                50               0                
8.3                            0.00718911392333288 -88.3855312133472 0.999386012982501 -3.07638613067341 0.9993860129825  -3.07638613067343 0.00718909979493956 -88.3862172516377 
! Gamma         0                0                0                0                
! Port Impedance         50               0                50               0                
8.4                            0.00727915976774428 -88.4527588987632 0.999381828727965 -3.11324129772576 0.999381828727965 -3.11324129772578 0.00727914534604888 -88.4534525309796 
! Gamma         0                0                0                0                
! Port Impedance         50               0                50               0                
8.5                            0.00736922795437167 -88.5194930334763 0.999377666979068 -3.15009526024241 0.999377666979068 -3.15009526024242 0.0073692132363919 -88.5201942478834 
! Gamma         0                0                0                0                
! Port Impedance         50               0                50               0                
8.6                            0.00745931769861578 -88.5857458222706 0.999373527133472 -3.18694807020979 0.999373527133471 -3.1869480702098 0.00745930268142991 -88.58645460732  
! Gamma         0                0                0                0                
! Port Impedance         50               0                50               0                
8.7                            0.00754942825426257 -88.6515289093144 0.999369408582233 -3.22379977748362 0.999369408582232 -3.22379977748363 0.00754941293500881 -88.6522452536616 
! Gamma         0                0                0                0                
! Port Impedance         50               0                50               0                
8.8                            0.00763955891226833 -88.7168534184839 0.999365310711166 -3.26065042984088 0.999365310711166 -3.26065042984089 0.00763954328814418 -88.7175773110026 
! Gamma         0                0                0                0                
! Port Impedance         50               0                50               0                
8.9                            0.00772970899955017 -88.7817299902529 0.999361232902115 -3.29750007303302 0.999361232902114 -3.29750007303303 0.00772969306781162 -88.7824614200475 
! Gamma         0                0                0                0                
! Port Impedance         50               0                50               0                
9                              0.00781987787778583 -88.8461688154594 0.99935717453413 -3.33434875084019 0.99935717453413 -3.3343487508402 0.00781986163574644 -88.8469077718758 
! Gamma         0                0                0                0                
! Port Impedance         50               0                50               0                
9.1                            0.00791006494222633 -88.9101796662289 0.999353134984568 -3.37119650512596 0.999353134984568 -3.37119650512596 0.00791004838725635 -88.9109261388637 
! Gamma         0                0                0                0                
! Port Impedance         50               0                50               0                
9.2                            0.00800026962052471 -88.9737719243085 0.999349113630101 -3.40804337589248 0.9993491136301  -3.40804337589249 0.00800025275005001 -88.9745259030166 
! Gamma         0                0                0                0                
! Port Impedance         50               0                50               0                
9.3                            0.00809049137158323 -89.036954607044 0.999345109847657 -3.44488940133577 0.999345109847657 -3.44488940133577 0.00809047418308423 -89.0377160819453 
! Gamma         0                0                0                0                
! Port Impedance         50               0                50               0                
9.4                            0.00818072968442144 -89.099736391209 0.999341123015283 -3.4817346179008 0.999341123015282 -3.4817346179008 0.00818071217543196 -89.1005053526931 
! Gamma         0                0                0                0                
! Port Impedance         50               0                50               0                
9.5                            0.0082709840770669 -89.162125634876 0.999337152512937 -3.51857906033642 0.999337152512936 -3.51857906033642 0.00827096624517304 -89.1629020736063 
! Gamma         0                0                0                0                
! Port Impedance         50               0                50               0                
9.6                            0.00836125409547009 -89.2241303975043 0.999333197723222 -3.55542276174977 0.999333197723221 -3.55542276174977 0.00836123593830897 -89.2249143044211 
! Gamma         0                0                0                0                
! Port Impedance         50               0                50               0                
9.7                            0.00845153931244482 -89.2857584584001 0.99932925803205 -3.5922657536601 0.999329258032049 -3.59226575366009 0.00845152082770336 -89.2865498247226 
! Gamma         0                0                0                0                
! Port Impedance         50               0                50               0                
9.8                            0.00854183932663504 -89.3470173336934 0.999325332829255 -3.6291080660519 0.999325332829254 -3.62910806605189 0.0085418205120487 -89.3478161509208 
! Gamma         0                0                0                0                
! Port Impedance         50               0                50               0                
9.9                            0.0086321537615089 -89.4079142919606 0.999321421509143 -3.66594972742723 0.999321421509142 -3.66594972742722 0.00863213461486037 -89.4087205518726 
! Gamma         0                0                0                0                
! Port Impedance         50               0                50               0                
10                             0.00872248226438058 -89.4684563686117 0.999317523471001 -3.7027907648571 0.999317523470999 -3.70279076485709 0.00872246278349851 -89.4692700632679 
! Gamma         0                0                0                0                
! Port Impedance         50               0                50               0                
10.1                           0.00881282450546024 -89.5286503791489 0.999313638119546 -3.73963120403187 0.999313638119545 -3.73963120403186 0.00881280468821793 -89.5294715008884 
! Gamma         0                0                0                0                
! Port Impedance         50               0                50               0                
10.2                           0.00890318017693235 -89.588502931396 0.999309764865342 -3.77647106931064 0.999309764865341 -3.77647106931062 0.00890316002124644 -89.5893314728355 
! Gamma         0                0                0                0                
! Port Impedance         50               0                50               0                
10.3                           0.00899354899206254 -89.6480204367851 0.999305903125163 -3.81331038376949 0.999305903125161 -3.81331038376947 0.00899352849589166 -89.6488563908172 
! Gamma         0                0                0                0                
! Port Impedance         50               0                50               0                
10.4                           0.00908393068433263 -89.707209120785 0.999302052322321 -3.85014916924862 0.999302052322319 -3.8501491692486 0.00908390984567616 -89.7080524805755 
! Gamma         0                0                0                0                
! Port Impedance         50               0                50               0                
10.5                           0.00917432500660418 -89.7660750325417 0.999298211886959 -3.88698744639831 0.999298211886958 -3.88698744639829 0.00917430382350086 -89.7669257915271 
! Gamma         0                0                0                0                
! Port Impedance         50               0                50               0                
10.6                           0.00926473173030978 -89.8246240538006 0.999294381256307 -3.92382523472362 0.999294381256306 -3.9238252347236 0.00926471020083646 -89.8254822056848 
! Gamma         0                0                0                0                
! Port Impedance         50               0                50               0                
10.7                           0.00935515064467205 -89.8828619071711 0.999290559874908 -3.96066255262798 0.999290559874906 -3.96066255262795 0.00935512876694243 -89.8837274459217 
! Gamma         0                0                0                0                
! Port Impedance         50               0                50               0                
10.8                           0.00944558155595004 -89.9407941637879 0.999286747194806 -3.99749941745542 0.999286747194804 -3.99749941745539 0.0094455593281133 -89.941667083633 
! Gamma         0                0                0                0                
! Port Impedance         50               0                50               0                
10.9                           0.00953602428671217 -89.9984262504229 0.999282942675721 -4.03433584553174 0.99928294267572 -4.03433584553171 0.00953600170695178 -89.9993065458466 
! Gamma         0                0                0                0                
! Port Impedance         50               0                50               0                
11                             0.00962647867513563 -90.0557634560901 0.999279145785187 -4.07117185220425 0.999279145785186 -4.07117185220421 0.00962645574166808 -90.0566511218286 
! Gamma         0                0                0                0                
! Port Impedance         50               0                50               0                
11.1                           0.00971694457433145 -90.1128109381894 0.999275355998667 -4.10800745188045 0.999275355998665 -4.10800745188041 0.00971692128540502 -90.1137059692267 
! Gamma         0                0                0                0                
! Port Impedance         50               0                50               0                
11.2                           0.00980742185169465 -90.1695737282257 0.999271572799648 -4.14484265806539 0.999271572799647 -4.14484265806536 0.00980739820558818 -90.1704761197888 
! Gamma         0                0                0                0                
! Port Impedance         50               0                50               0                
11.3                           0.00989791038827905 -90.2260567371382 0.99926779567972 -4.18167748339789 0.999267795679719 -4.18167748339785 0.00989788638330076 -90.2269664846929 
! Gamma         0                0                0                0                
! Port Impedance         50               0                50               0                
11.4                           0.00998841007819584 -90.282264760274 0.999264024138627 -4.2185119396855 0.999264024138625 -4.21851193968546 0.00998838571268216 -90.2831818595201 
! Gamma         0                0                0                0                
! Port Impedance         50               0                50               0                
11.5                           0.0100789208280355 -90.3382024820329 0.999260257684305 -4.25534603793834 0.999260257684304 -4.2553460379383 0.0100788961003499 -90.3391269288994 
! Gamma         0                0                0                0                
! Port Impedance         50               0                50               0                
11.6                           0.0101694425563121 -90.3938744802115 0.99925649583291 -4.29217978840179 0.999256495832909 -4.29217978840174 0.010169417464844 -90.3948062708517 
! Gamma         0                0                0                0                
! Port Impedance         50               0                50               0                
11.7                           0.0102599751929301 -90.4492852300703 0.999252738108819 -4.32901320058799 0.999252738108817 -4.32901320058795 0.0102599497360937 -90.4502243608571 
! Gamma         0                0                0                0                
! Port Impedance         50               0                50               0                
11.8                           0.0103505186786715 -90.5044391081468 0.999248984044625 -4.36584628330632 0.999248984044624 -4.36584628330627 0.0103504928549046 -90.5053855756678 
! Gamma         0                0                0                0                
! Port Impedance         50               0                50               0                
11.9                           0.0104410729647043 -90.5593403958338 0.999245233181125 -4.40267904469269 0.999245233181123 -4.40267904469264 0.0104410467724676 -90.5602941968864 
! Gamma         0                0                0                0                
! Port Impedance         50               0                50               0                
12                             0.0105316380121107 -90.6139932827423 0.999241485067281 -4.43951149223788 0.999241485067279 -4.43951149223783 0.0105316114498862 -90.6149544143289 
! Gamma         0                0                0                0                
! Port Impedance         50               0                50               0                
12.1                           0.0106222137914342 -90.6684018698663 0.999237739260188 -4.47634363281476 0.999237739260187 -4.4763436328147 0.0106221868577249 -90.6693703291894 
! Gamma         0                0                0                0                
! Port Impedance         50               0                50               0                
12.2                           0.0107128002822461 -90.722570172563 0.999233995325023 -4.51317547270453 0.999233995325022 -4.51317547270448 0.0107127729755742 -90.7235459570204 
! Gamma         0                0                0                0                
! Port Impedance         50               0                50               0                
12.3                           0.0108033974727289 -90.7765021233659 0.999230252834985 -4.55000701762205 0.999230252834983 -4.55000701762199 0.0108033697916355 -90.7774852305459 
! Gamma         0                0                0                0                
! Port Impedance         50               0                50               0                
12.4                           0.0108940053592778 -90.8302015746402 0.999226511371231 -4.58683827274008 0.999226511371229 -4.58683827274003 0.0108939773023215 -90.8311920023169 
! Gamma         0                0                0                0                
! Port Impedance         50               0                50               0                
12.5                           0.0109846239461189 -90.883672301095 0.999222770522807 -4.62366924271273 0.999222770522805 -4.62366924271268 0.0109845955118752 -90.8846700472236 
! Gamma         0                0                0                0                
! Port Impedance         50               0                50               0                
12.6                           0.0110752532449429 -90.9369180021616 0.999219029886567 -4.66049993169795 0.999219029886565 -4.66049993169789 0.011075224432003 -90.9379230648739 
! Gamma         0                0                0                0                
! Port Impedance         50               0                50               0                
12.7                           0.0111658932745546 -90.9899423042493 0.999215289067089 -4.69733034337914 0.999215289067087 -4.69733034337908 0.0111658640815248 -90.9909546818488 
! Gamma         0                0                0                0                
! Port Impedance         50               0                50               0                
12.8                           0.0112565440605377 -91.0427487628853 0.999211547676589 -4.73416048098595 0.999211547676588 -4.73416048098588 0.0112565144860384 -91.0437684538432 
! Gamma         0                0                0                0                
! Port Impedance         50               0                50               0                
12.9                           0.0113472056349334 -91.0953408647508 0.999207805334829 -4.77099034731427 0.999207805334827 -4.77099034731421 0.0113471756775982 -91.0963678677011 
! Gamma         0                0                0                0                
! Port Impedance         50               0                50               0                
13                             0.0114378780359331 -91.1477220296166 0.999204061669014 -4.80781994474543 0.999204061669012 -4.80781994474536 0.0114378476944081 -91.148756343352 
! Gamma         0                0                0                0                
! Port Impedance         50               0                50               0                
13.1                           0.0115285613075837 -91.1998956121887 0.9992003163137  -4.84464927526455 0.999200316313699 -4.84464927526449 0.0115285305805267 -91.2009372356564 
! Gamma         0                0                0                0                
! Port Impedance         50               0                50               0                
13.2                           0.0116192554995071 -91.2518649038689 0.999196568910688 -4.88147834047836 0.999196568910686 -4.88147834047829 0.0116192243855867 -91.2529138361663 
! Gamma         0                0                0                0                
! Port Impedance         50               0                50               0                
13.3                           0.01170996066663 -91.3036331344357 0.999192819108917 -4.91830714163206 0.999192819108916 -4.91830714163199 0.0117099291645251 -91.3046893748062 
! Gamma         0                0                0                0                
! Port Impedance         50               0                50               0                
13.4                           0.0118006768689273 -91.3552034736523 0.999189066564362 -4.95513567962571 0.99918906656436 -4.95513567962563 0.0118006449773261 -91.3562670214816 
! Gamma         0                0                0                0                
! Port Impedance         50               0                50               0                
13.5                           0.0118914041711751 -91.4065790328053 0.999185310939919 -4.9919639550298 0.999185310939917 -4.99196395502972 0.0118913718887746 -91.4076498876171 
! Gamma         0                0                0                0                
! Port Impedance         50               0                50               0                
13.6                           0.0119821426427159 -91.4577628661799 0.999181551905299 -5.02879196810031 0.999181551905297 -5.02879196810023 0.0119821099682211 -91.4588410276322 
! Gamma         0                0                0                0                
! Port Impedance         50               0                50               0                
13.7                           0.0120728923572333 -91.5087579724746 0.999177789136916 -5.06561971879306 0.999177789136914 -5.06561971879298 0.0120728592893565 -91.5098434403562 
! Gamma         0                0                0                0                
! Port Impedance         50               0                50               0                
13.8                           0.0121636533925369 -91.5595672961603 0.999174022317774 -5.10244720677752 0.999174022317773 -5.10244720677745 0.0121636199299972 -91.5606600703867 
! Gamma         0                0                0                0                
! Port Impedance         50               0                50               0                
13.9                           0.0122544258303568 -91.6101937287866 0.999170251137356 -5.13927443145006 0.999170251137354 -5.13927443144998 0.0122543919718792 -91.6112938093969 
! Gamma         0                0                0                0                
! Port Impedance         50               0                50               0                
14                             0.0123452097561469 -91.6606401102391 0.999166475291508 -5.17610139194658 0.999166475291507 -5.17610139194651 0.012345175500462 -91.6617474973918 
! Gamma         0                0                0                0                
! Port Impedance         50               0                50               0                
14.1                           0.0124360052588977 -91.7109092299498 0.999162694482331 -5.21292808715473 0.99916269448233 -5.21292808715465 0.012435970604741 -91.7120239239202 
! Gamma         0                0                0                0                
! Port Impedance         50               0                50               0                
14.2                           0.0125268124309566 -91.7610038280647 0.999158908418064 -5.24975451572549 0.999158908418062 -5.24975451572541 0.0125267773770677 -91.762125829241 
! Gamma         0                0                0                0                
! Port Impedance         50               0                50               0                
14.3                           0.0126176313678567 -91.8109265965704 0.999155116812971 -5.28658067608439 0.999155116812969 -5.28658067608431 0.0126175959129789 -91.8120559054507 
! Gamma         0                0                0                0                
! Port Impedance         50               0                50               0                
14.4                           0.012708462168153 -91.8606801803815 0.999151319387233 -5.32340656644218 0.999151319387231 -5.32340656644209 0.0127084263110329 -91.8618167975708 
! Gamma         0                0                0                0                
! Port Impedance         50               0                50               0                
14.5                           0.0127993049332668 -91.9102671783923 0.999147515866834 -5.36023218480505 0.999147515866833 -5.36023218480497 0.0127992686726534 -91.9114111045989 
! Gamma         0                0                0                0                
! Port Impedance         50               0                50               0                
14.6                           0.0128901597673355 -91.9596901444936 0.999143705983449 -5.39705752898448 0.999143705983448 -5.3970575289844 0.0128901231019802 -91.9608413805267 
! Gamma         0                0                0                0                
! Port Impedance         50               0                50               0                
14.7                           0.0129810267770712 -92.0089515885571 0.999139889474338 -5.43388259660662 0.999139889474336 -5.43388259660654 0.0129809897057268 -92.0101101353237 
! Gamma         0                0                0                0                
! Port Impedance         50               0                50               0                
14.8                           0.0130719060716238 -92.058053977389 0.99913606608223 -5.47070738512126 0.999136066082229 -5.47070738512118 0.0130718685930443 -92.059219835891 
! Gamma         0                0                0                0                
! Port Impedance         50               0                50               0                
14.9                           0.0131627977624519 -92.1069997356548 0.999132235555224 -5.50753189181047 0.999132235555223 -5.50753189181039 0.0131627598753918 -92.1081729069861 
! Gamma         0                0                0                0                
! Port Impedance         50               0                50               0                
15                             0.0132537019631981 -92.1557912467749 0.999128397646675 -5.54435611379686 0.999128397646674 -5.54435611379678 0.0132536636664123 -92.1569717321192 
! Gamma         0                0                0                0                
! Port Impedance         50               0                50               0                
15.1                           0.0133446187895715 -92.2044308537959 0.999124552115092 -5.58118004805141 0.999124552115091 -5.58118004805133 0.0133445800818143 -92.2056186544237 
! Gamma         0                0                0                0                
! Port Impedance         50               0                50               0                
15.2                           0.0134355483592342 -92.252920860235 0.999120698724032 -5.61800369140111 0.99912069872403 -5.61800369140102 0.0134355092392595 -92.2541159775012 
! Gamma         0                0                0                0                
! Port Impedance         50               0                50               0                
15.3                           0.013526490791694 -92.3012635309011 0.999116837241998 -5.65482704053609 0.999116837241996 -5.65482704053601 0.0135264512582544 -92.3024659662428 
! Gamma         0                0                0                0                
! Port Impedance         50               0                50               0                
15.4                           0.0136174462082015 -92.3494610926936 0.999112967442337 -5.69165009201664 0.999112967442336 -5.69165009201655 0.013617406260048 -92.3506708476272 
! Gamma         0                0                0                0                
! Port Impedance         50               0                50               0                
15.5                           0.0137084147316517 -92.3975157353783 0.99910908910314 -5.72847284227973 0.999109089103139 -5.72847284227965 0.0137083743675336 -92.3987328114978 
! Gamma         0                0                0                0                
! Port Impedance         50               0                50               0                
15.6                           0.0137993964864913 -92.4454296123434 0.999105202007144 -5.76529528764541 0.999105202007142 -5.76529528764533 0.0137993557051553 -92.4466540113177 
! Gamma         0                0                0                0                
! Port Impedance         50               0                50               0                
15.7                           0.0138903915986286 -92.4932048413349 0.999101305941631 -5.80211742432283 0.99910130594163 -5.80211742432275 0.0138903503988187 -92.4944365649059 
! Gamma         0                0                0                0                
! Port Impedance         50               0                50               0                
15.8                           0.0139814001953489 -92.5408435051734 0.99909740069834 -5.83893924841605 0.999097400698339 -5.83893924841597 0.0139813585758062 -92.5420825551536 
! Gamma         0                0                0                0                
! Port Impedance         50               0                50               0                
15.9                           0.0140724224052333 -92.5883476524516 0.999093486073364 -5.87576075592956 0.999093486073363 -5.87576075592948 0.0140723803646953 -92.5895940307226 
! Gamma         0                0                0                0                
! Port Impedance         50               0                50               0                
16                             0.0141634583580813 -92.6357192982156 0.999089561867063 -5.9125819427736 0.999089561867062 -5.91258194277352 0.0141634158952818 -92.6369730067256 
! Gamma         0                0                0                0                
! Port Impedance         50               0                50               0                
16.1                           0.0142545081848371 -92.6829604246279 0.999085627883972 -5.94940280476919 0.999085627883971 -5.94940280476911 0.0142544652985056 -92.68422146539  
! Gamma         0                0                0                0                
! Port Impedance         50               0                50               0                
16.2                           0.0143455720175191 -92.7300729816147 0.999081683932711 -5.98622333765302 0.99908168393271 -5.98622333765294 0.0143455287063808 -92.7313413567051 
! Gamma         0                0                0                0                
! Port Impedance         50               0                50               0                
16.3                           0.014436649989153 -92.7770588874976 0.999077729825897 -6.02304353708203 0.999077729825896 -6.02304353708196 0.0144366062519284 -92.7783345990538 
! Gamma         0                0                0                0                
! Port Impedance         50               0                50               0                
16.4                           0.0145277422337081 -92.8239200296099 0.999073765380059 -6.05986339863787 0.999073765380058 -6.05986339863779 0.0145276980691124 -92.8252030798287 
! Gamma         0                0                0                0                
! Port Impedance         50               0                50               0                
16.5                           0.014618848886036 -92.8706582648982 0.999069790415553 -6.0966829178311 0.999069790415551 -6.09668291783103 0.0146188042927792 -92.8719486560344 
! Gamma         0                0                0                0                
! Port Impedance         50               0                50               0                
16.6                           0.0147099700818129 -92.9172754205104 0.999065804756476 -6.13350209010525 0.999065804756474 -6.13350209010518 0.0147099250585992 -92.9185731548748 
! Gamma         0                0                0                0                
! Port Impedance         50               0                50               0                
16.7                           0.0148011059574845 -92.9637732943694 0.99906180823059 -6.17032091084068 0.999061808230589 -6.1703209108406 0.0148010605030121 -92.9650783743276 
! Gamma         0                0                0                0                
! Port Impedance         50               0                50               0                
16.8                           0.0148922566502128 -93.0101536557342 0.999057800669239 -6.20713937535825 0.999057800669238 -6.20713937535817 0.0148922107631737 -93.0114660837046 
! Gamma         0                0                0                0                
! Port Impedance         50               0                50               0                
16.9                           0.0149834222978264 -93.0564182457476 0.99905378190727 -6.24395747892286 0.999053781907269 -6.24395747892279 0.0149833759769062 -93.0577380242004 
! Gamma         0                0                0                0                
! Port Impedance         50               0                50               0                
17                             0.0150746030387728 -93.1025687779725 0.999049751782958 -6.28077521674682 0.999049751782957 -6.28077521674675 0.0150745562826501 -93.103895909428 
! Gamma         0                0                0                0                
! Port Impedance         50               0                50               0                
17.1                           0.0151657990120725 -93.1486069389152 0.99904571013793 -6.31759258399306 0.99904571013793 -6.31759258399299 0.0151657518194189 -93.1499414259423 
! Gamma         0                0                0                0                
! Port Impedance         50               0                50               0                
17.2                           0.0152570103572762 -93.1945343885376 0.999041656817094 -6.35440957577818 0.999041656817093 -6.35440957577811 0.015256962726756 -93.1958762337528 
! Gamma         0                0                0                0                
! Port Impedance         50               0                50               0                
17.3                           0.0153482372144233 -93.2403527607582 0.999037591668559 -6.3912261871754 0.999037591668559 -6.39122618717533 0.0153481891446933 -93.2417019668241 
! Gamma         0                0                0                0                
! Port Impedance         50               0                50               0                
17.4                           0.0154394797240027 -93.2860636639422 0.999033514543577 -6.42804241321737 0.999033514543576 -6.4280424132173 0.015439431213712 -93.2874202335661 
! Gamma         0                0                0                0                
! Port Impedance         50               0                50               0                
17.5                           0.0155307380269158 -93.3316686813802 0.999029425296461 -6.46485824889881 0.99902942529646 -6.46485824889874 0.0155306890747051 -93.3330326173132 
! Gamma         0                0                0                0                
! Port Impedance         50               0                50               0                
17.6                           0.0156220122644403 -93.3771693717579 0.999025323784525 -6.50167368917908 0.999025323784525 -6.50167368917902 0.0156219628689425 -93.3785406767934 
! Gamma         0                0                0                0                
! Port Impedance         50               0                50               0                
17.7                           0.0157133025781974 -93.4225672696145 0.999021209868018 -6.53848872898462 0.999021209868017 -6.53848872898456 0.0157132527380367 -93.4239459465873 
! Gamma         0                0                0                0                
! Port Impedance         50               0                50               0                
17.8                           0.0158046091101189 -93.4678638857923 0.999017083410053 -6.57530336321124 0.999017083410053 -6.57530336321119 0.0158045588239107 -93.4692499375774 
! Gamma         0                0                0                0                
! Port Impedance         50               0                50               0                
17.9                           0.0158959320024169 -93.5130607078759 0.999012944276552 -6.61211758672637 0.999012944276551 -6.61211758672632 0.0158958812687679 -93.5144541373874 
! Gamma         0                0                0                0                
! Port Impedance         50               0                50               0                
18                             0.0159872713975549 -93.558159200623 0.999008792336175 -6.64893139437114 0.999008792336175 -6.64893139437109 0.0159872202150626 -93.5595600108132 
! Gamma         0                0                0                0                
! Port Impedance         50               0                50               0                
18.1                           0.0160786274382201 -93.6031608063856 0.999004627460268 -6.68574478096242 0.999004627460268 -6.68574478096237 0.0160785758054727 -93.6045690002438 
! Gamma         0                0                0                0                
! Port Impedance         50               0                50               0                
18.2                           0.0161700002672973 -93.6480669455226 0.999000449522798 -6.72255774129472 0.999000449522798 -6.72255774129467 0.0161699481828734 -93.6494825260744 
! Gamma         0                0                0                0                
! Port Impedance         50               0                50               0                
18.3                           0.0162613900278438 -93.6928790168039 0.998996258400295 -6.75937027014204 0.998996258400295 -6.759370270142  0.0162613374903124 -93.69430198711  
! Gamma         0                0                0                0                
! Port Impedance         50               0                50               0                
18.4                           0.0163527968630659 -93.7375983978062 0.998992053971799 -6.79618236225961 0.998992053971798 -6.79618236225956 0.0163527438709861 -93.7390287609617 
! Gamma         0                0                0                0                
! Port Impedance         50               0                50               0                
18.5                           0.0164442209162965 -93.7822264453004 0.9989878361188  -6.83299401238552 0.9989878361188  -6.83299401238548 0.0164441674682171 -93.7836642044337 
! Gamma         0                0                0                0                
! Port Impedance         50               0                50               0                
18.6                           0.0165356623309735 -93.8267644956311 0.998983604725188 -6.86980521524237 0.998983604725188 -6.86980521524233 0.0165356084254332 -93.8282096539034 
! Gamma         0                0                0                0                
! Port Impedance         50               0                50               0                
18.7                           0.0166271212506199 -93.8712138650889 0.998979359677198 -6.90661596553872 0.998979359677198 -6.90661596553868 0.016627066886147 -93.872666425693 
! Gamma         0                0                0                0                
! Port Impedance         50               0                50               0                
18.8                           0.0167185978188246 -93.9155758502741 0.998975100863355 -6.94342625797055 0.998975100863355 -6.94342625797051 0.0167185429939366 -93.917035816434 
! Gamma         0                0                0                0                
! Port Impedance         50               0                50               0                
18.9                           0.0168100921792239 -93.9598517284543 0.998970828174431 -6.98023608722263 0.99897082817443 -6.98023608722259 0.0168100368924276 -93.9613191034241 
! Gamma         0                0                0                0                
! Port Impedance         50               0                50               0                
19                             0.0169016044754846 -94.0040427579133 0.998966541503385 -7.01704544796982 0.998966541503385 -7.01704544796979 0.0169015487252758 -94.0055175449767 
! Gamma         0                0                0                0                
! Port Impedance         50               0                50               0                
19.1                           0.0169931348512874 -94.0481501782945 0.998962240745327 -7.0538543348783 0.998962240745327 -7.05385433487828 0.0169930786361508 -94.0496323807639 
! Gamma         0                0                0                0                
! Port Impedance         50               0                50               0                
19.2                           0.0170846834503117 -94.0921752109362 0.99895792579746 -7.09066274260679 0.99895792579746 -7.09066274260677 0.0170846267687207 -94.0936648321523 
! Gamma         0                0                0                0                
! Port Impedance         50               0                50               0                
19.3                           0.0171762504162207 -94.1361190592009 0.998953596559038 -7.1274706658076 0.998953596559038 -7.12747066580758 0.0171761932666371 -94.1376161025316 
! Gamma         0                0                0                0                
! Port Impedance         50               0                50               0                
19.4                           0.0172678358926475 -94.1799829087974 0.998949252931322 -7.16427809912776 0.998949252931322 -7.16427809912774 0.0172677782735216 -94.1814873776376 
! Gamma         0                0                0                0                
! Port Impedance         50               0                50               0                
19.5                           0.0173594400231822 -94.2237679280973 0.998944894817534 -7.20108503721   0.998944894817534 -7.20108503720998 0.0173593819329526 -94.2252798258681 
! Gamma         0                0                0                0                
! Port Impedance         50               0                50               0                
19.6                           0.0174510629513593 -94.2674752684445 0.998940522122815 -7.23789147469371 0.998940522122816 -7.2378914746937 0.0174510043884526 -94.2689945985926 
! Gamma         0                0                0                0                
! Port Impedance         50               0                50               0                
19.7                           0.0175427048206462 -94.3111060644589 0.998936134754182 -7.27469740621591 0.998936134754182 -7.2746974062159 0.0175426457834769 -94.3126328304559 
! Gamma         0                0                0                0                
! Port Impedance         50               0                50               0                
19.8                           0.0176343657744318 -94.3546614343338 0.998931732620487 -7.31150282641202 0.998931732620488 -7.31150282641202 0.0176343062614021 -94.356195639676 
! Gamma         0                0                0                0                
! Port Impedance         50               0                50               0                
19.9                           0.0177260459560162 -94.3981424801283 0.998927315632377 -7.34830772991679 0.998927315632378 -7.3483077299168 0.0177259859655162 -94.3996841283357 
! Gamma         0                0                0                0                
! Port Impedance         50               0                50               0                
20                             0.0178177455086009 -94.4415502880522 0.998922883702256 -7.38511211136501 0.998922883702256 -7.38511211136501 0.0178176850390079 -94.4430993826684 
! Gamma         0                0                0                0                
! Port Impedance         50               0                50               0                
