! Touchstone file exported from HFSS 2026.1.0
!        File:           C:/ffzhzh/LocalFiles/Ansys_Project_Files/temp_train_TSV_1115_1783190837_51560.aedt
!        Generated:      02:48:34 AM Jul  5, 2026
!        Design:         TSV
!        Project:        temp_train_TSV_1115_1783190837_51560
!
! Variables:
!        h_bsmrdl = 2um
!        h_ox = 20um
!        h_rdl = 5um
!        h_sub = 54.7um
!        h_tmrdl = 5um
!        h_tsv = 54.7um
!        h_via = 3um
!        l_bsmrdl = 300um
!        l_sub = 422.92um
!        l_tmrdl = 200um
!        m_sub = 200um
!        pitch = 34.83um
!        r_tsv = 11.46um
!        s_tmrdl = 10um
!        w_bsmrdl = 18um
!        w_sub = 500um
!        w_tmrdl = 12um
!        x_tsv_center1 = 206um
!        x_tsv_center2 = 524um
!        x_tsv_center3 = 736um
!        x_tsv_center4 = 1054um
!        x_tsv_center5 = 1266um
!        x_tsv_center6 = 1584um
!
# GHz S MA R 50.000000
! Terminal data exported
! Port[1] = TSV1_1_T1
! Port[2] = TSV1_1_T2
0.1                            0.000144505159422907 -54.165778224873 0.999915330959858 -0.0307174087344398 0.999915330959858 -0.0307174087344393 0.000144505155875861 -54.1657812106914 
! Gamma         0                0                0                0                
! Port Impedance         50               0                50               0                
0.2                            0.000255647495298589 -68.096027686742 0.999904412219566 -0.0612724505000258 0.999904412219566 -0.0612724505000181 0.000255647536704652 -68.0960284625982 
! Gamma         0                0                0                0                
! Port Impedance         50               0                50               0                
0.3                            0.000378765465201697 -72.9439292682797 0.999888383903877 -0.0915525931850622 0.999888383903877 -0.0915525931850381 0.000378765588350125 -72.9439341678671 
! Gamma         0                0                0                0                
! Port Impedance         50               0                50               0                
0.4                            0.000509331723291332 -75.279423685679 0.999869550925111 -0.121515887699927 0.99986955092511 -0.121515887699879 0.000509331949562503 -75.2794374002026 
! Gamma         0                0                0                0                
! Port Impedance         50               0                50               0                
0.5                            0.000645652875968633 -76.7182987255062 0.999849916816536 -0.151179411552236 0.999849916816536 -0.151179411552161 0.000645653201364786 -76.7183234680216 
! Gamma         0                0                0                0                
! Port Impedance         50               0                50               0                
0.6                            0.000786330360023408 -77.7802008964133 0.999830863252893 -0.180592982724352 0.999830863252893 -0.180592982724252 0.000786330760748597 -77.7802369035237 
! Gamma         0                0                0                0                
! Port Impedance         50               0                50               0                
0.7                            0.000930135928769422 -78.6540143499702 0.999813154040068 -0.209815540230976 0.999813154040068 -0.209815540230854 0.000930136371754931 -78.6540607329558 
! Gamma         0                0                0                0                
! Port Impedance         50               0                50               0                
0.8                            0.00107608150587835 -79.4133090086966 0.999797091753   -0.238901061329226 0.999797091753   -0.238901061329088 0.00107608195738636 -79.4133644469365 
! Gamma         0                0                0                0                
! Port Impedance         50               0                50               0                
0.9                            0.0012234317996804 -80.0891738112583 0.999782693150599 -0.267892972919444 0.999782693150599 -0.267892972919294 0.00122343223015206 -80.0892369636403 
! Gamma         0                0                0                0                
! Port Impedance         50               0                50               0                
1                              0.00137166934049128 -80.696795888317 0.99976982516159 -0.296823606266991 0.999769825161591 -0.296823606266835 0.0013716697263677 -80.6968655822322 
! Gamma         0                0                0                0                
! Port Impedance         50               0                50               0                
1.1                            0.00152044433881419 -81.2453570190784 0.999758292554115 -0.325715832245594 0.999758292554117 -0.325715832245434 0.00152044466258458 -81.2454323078649 
! Gamma         0                0                0                0                
! Port Impedance         50               0                50               0                
1.2                            0.00166952782803307 -81.7416736861807 0.999747887622612 -0.354585236168909 0.999747887622613 -0.354585236168749 0.00166952807747707 -81.7417538425334 
! Gamma         0                0                0                0                
! Port Impedance         50               0                50               0                
1.3                            0.00181877445180991 -82.1914869585184 0.999738415065846 -0.383442107311447 0.999738415065848 -0.383442107311288 0.00181877461900041 -82.191571443043 
! Gamma         0                0                0                0                
! Port Impedance         50               0                50               0                
1.4                            0.00196809522698278 -82.5998924509088 0.999729702377957 -0.412293019700709 0.999729702377959 -0.412293019700554 0.00196809530732319 -82.5999808752903 
! Gamma         0                0                0                0                
! Port Impedance         50               0                50               0                
1.5                            0.00211743848854351 -82.9714744949   0.999721602495814 -0.441142002150506 0.999721602495816 -0.441142002150355 0.00211743847994485 -82.9715665879917 
! Gamma         0                0                0                0                
! Port Impedance         50               0                50               0                
1.6                            0.00226677690170666 -83.310351241232 0.999713992685748 -0.4699913704595 0.999713992685751 -0.469991370459355 0.00226677680392603 -83.3104468207884 
! Gamma         0                0                0                0                
! Port Impedance         50               0                50               0                
1.7                            0.00241609874416772 -83.6202011552817 0.999706771861557 -0.498842305543982 0.99970677186156 -0.498842305543843 0.00241609855829426 -83.6203001055595 
! Gamma         0                0                0                0                
! Port Impedance         50               0                50               0                
1.8                            0.00256540210904565 -83.9042911812397 0.999699857464791 -0.527695249310449 0.999699857464794 -0.527695249310316 0.00256540183710859 -83.9043934357403 
! Gamma         0                0                0                0                
! Port Impedance         50               0                50               0                
1.9                            0.0027146910742201 -84.1655097007579 0.999693182446246 -0.556550173200988 0.99969318244625 -0.556550173200862 0.00271469071889287 -84.1656152291407 
! Gamma         0                0                0                0                
! Port Impedance         50               0                50               0                
2                              0.00286397318455836 -84.4064025147121 0.999686692572754 -0.585406759123456 0.999686692572757 -0.585406759123336 0.00286397274893626 -84.4065113129587 
! Gamma         0                0                0                0                
! Port Impedance         50               0                50               0                
2.1                            0.00301325780719779 -84.6292094039354 0.999680344124224 -0.614264520602234 0.999680344124227 -0.61426452060212 0.00301325729463112 -84.629321486991 
! Gamma         0                0                0                0                
! Port Impedance         50               0                50               0                
2.2                            0.00316255506647995 -84.8358993746592 0.999674101970983 -0.643122883327455 0.999674101970987 -0.643122883327348 0.00316255448044864 -84.8360147709379 
! Gamma         0                0                0                0                
! Port Impedance         50               0                50               0                
2.3                            0.00331187516356717 -85.0282034197214 0.999667937990393 -0.671981238192514 0.999667937990397 -0.671981238192414 0.00331187450758641 -85.0283221670053 
! Gamma         0                0                0                0                
! Port Impedance         50               0                50               0                
2.4                            0.00346122795129102 -85.2076442169418 0.999661829772631 -0.700838975713193 0.999661829772634 -0.7008389757131 0.00346122722884005 -85.2077663593197 
! Gamma         0                0                0                0                
! Port Impedance         50               0                50               0                
2.5                            0.00361062267820232 -85.3755625914835 0.999655759566638 -0.729695507860379 0.999655759566642 -0.729695507860291 0.00361062189267074 -85.3756881770638 
! Gamma         0                0                0                0                
! Port Impedance         50               0                50               0                
2.6                            0.0037600678445418 -85.5331408189703 0.999649713422596 -0.758550281397754 0.999649713422599 -0.758550281397672 0.00376006699918903 -85.5332698981726 
! Gamma         0                0                0                0                
! Port Impedance         50               0                50               0                
2.7                            0.00390957113190693 -85.6814229845584 0.999643680493869 -0.787402785502396 0.999643680493872 -0.787402785502321 0.00390957022983182 -85.6815556088379 
! Gamma         0                0                0                0                
! Port Impedance         50               0                50               0                
2.8                            0.00405913938105302 -85.8213326781556 0.999637652467817 -0.81625255555704 0.99963765246782 -0.81625255555697 0.00405913842517131 -85.8214688990528 
! Gamma         0                0                0                0                
! Port Impedance         50               0                50               0                
2.9                            0.00420877860070549 -85.9536883256125 0.999631623100588 -0.845099174400031 0.999631623100592 -0.845099174399967 0.00420877759373333 -85.9538281940473 
! Gamma         0                0                0                0                
! Port Impedance         50               0                50               0                
3                              0.00435849399590298 -86.0792164490586 0.999625587835861 -0.873942271909516 0.999625587835865 -0.873942271909458 0.00435849294034536 -86.0793600148106 
! Gamma         0                0                0                0                
! Port Impedance         50               0                50               0                
3.1                            0.00450829000817624 -86.198563128961 0.999619543491482 -0.902781523519507 0.999619543491485 -0.902781523519454 0.00450828890631934 -86.1987104402903 
! Gamma         0                0                0                0                
! Port Impedance         50               0                50               0                
3.2                            0.00465817036241505 -86.312303913567 0.999613488001155 -0.93161664807504 0.999613488001159 -0.931616648074992 0.00465816921632172 -86.3124550169437 
! Gamma         0                0                0                0                
! Port Impedance         50               0                50               0                
3.3                            0.00480813811699341 -86.4209523927087 0.999607420200948 -0.960447405303288 0.999607420200952 -0.960447405303244 0.00480813692850129 -86.4211073326238 
! Gamma         0                0                0                0                
! Port Impedance         50               0                50               0                
3.4                            0.00495819571488507 -86.5249676250291 0.999601339652382 -0.9892735930881 0.999601339652386 -0.989273593088061 0.00495819448560687 -86.5251264438706 
! Gamma         0                0                0                0                
! Port Impedance         50               0                50               0                
3.5                            0.00510834503428751 -86.6247605818722 0.999595246495544 -1.01809504467398 0.999595246495547 -1.01809504467395 0.00510834376561309 -86.624923319849 
! Gamma         0                0                0                0                
! Port Impedance         50               0                50               0                
3.6                            0.00525858743780533 -86.7206997479196 0.999589141326906 -1.0469116258833 0.99958914132691 -1.04691162588327 0.00525858613090527 -86.7208664430251 
! Gamma         0                0                0                0                
! Port Impedance         50               0                50               0                
3.7                            0.00540892381960406 -86.8131159983103 0.999583025097601 -1.07572323240142 0.999583025097605 -1.0757232324014 0.00540892247543458 -86.8132866863144 
! Gamma         0                0                0                0                
! Port Impedance         50               0                50               0                
3.8                            0.00555935465018949 -86.9023068543326 0.999576899028658 -1.10452978716451 0.999576899028661 -1.10452978716449 0.00555935326949835 -86.9024815687978 
! Gamma         0                0                0                0                
! Port Impedance         50               0                50               0                
3.9                            0.00570988001863117 -86.9885402046278 0.999570764540399 -1.133331237871  0.999570764540402 -1.13333123787098 0.00570987860196442 -86.9887189769422 
! Gamma         0                0                0                0                
! Port Impedance         50               0                50               0                
4                              0.00586049967215868 -87.0720575659052 0.999564623193681 -1.16212755462838 0.999564623193685 -1.16212755462837 0.00586049821986827 -87.0722404253303 
! Gamma         0                0                0                0                
! Port Impedance         50               0                50               0                
4.1                            0.00601121305313242 -87.1530769461789 0.999558476641077 -1.19091872774054 0.999558476641081 -1.19091872774053 0.00601121156538424 -87.1532639199076 
! Gamma         0                0                0                0                
! Port Impedance         50               0                50               0                
4.2                            0.00616201933343785 -87.2317953642131 0.999552326586435 -1.21970476563659 0.999552326586438 -1.21970476563658 0.00616201781022037 -87.2319864774357 
! Gamma         0                0                0                0                
! Port Impedance         50               0                50               0                
4.3                            0.00631291744638334 -87.3083910709792 0.999546174751514 -1.24848569293934 0.999546174751517 -1.24848569293934 0.00631291588751643 -87.3085863469551 
! Gamma         0                0                0                0                
! Port Impedance         50               0                50               0                
4.4                            0.00646390611620001 -87.3830255122546 0.999540022848609 -1.27726154866949 0.999540022848612 -1.27726154866949 0.00646390452134419 -87.3832249723892 
! Gamma         0                0                0                0                
! Port Impedance         50               0                50               0                
4.5                            0.00661498388525386 -87.4558450658549 0.999533872558252 -1.30603238458069 0.999533872558255 -1.30603238458069 0.00661498225391956 -87.4560487297784 
! Gamma         0                0                0                0                
! Port Impedance         50               0                50               0                
4.6                            0.00676614913908535 -87.5269825822155 0.999527725511227 -1.33479826361965 0.99952772551123 -1.33479826361965 0.00676614747064236 -87.5271904678641 
! Gamma         0                0                0                0                
! Port Impedance         50               0                50               0                
4.7                            0.00691740012939459 -87.5965587529982 0.999521583274251 -1.36355925850533 0.999521583274254 -1.36355925850533 0.00691739842308141 -87.5967708766958 
! Gamma         0                0                0                0                
! Port Impedance         50               0                50               0                
4.8                            0.00706873499508929 -87.6646833289698 0.999515447338769 -1.39231545042076 0.999515447338772 -1.39231545042077 0.00706873325002255 -87.6648997055101 
! Gamma         0                0                0                0                
! Port Impedance         50               0                50               0                
4.9                            0.00722015178151151 -87.7314562054902 0.999509319112392 -1.4210669278114 0.999509319112396 -1.42106692781141 0.00722014999669514 -87.7316768482181 
! Gamma         0                0                0                0                
! Port Impedance         50               0                50               0                
5                              0.00737164845795575 -87.7969683914715 0.99950319991259 -1.44981378528357 0.999503199912593 -1.44981378528358 0.00737164663229009 -87.7971933123637 
! Gamma         0                0                0                0                
! Port Impedance         50               0                50               0                
5.1                            0.00752322293358784 -87.8613028755592 0.999497090962275 -1.47855612259717 0.999497090962278 -1.47855612259718 0.00752322106587852 -87.861532085303 
! Gamma         0                0                0                0                
! Port Impedance         50               0                50               0                
5.2                            0.00767487307186992 -87.9245354014864 0.999490993387004 -1.50729404374646 0.999490993387007 -1.50729404374647 0.00767487116083646 -87.924768909557 
! Gamma         0                0                0                0                
! Port Impedance         50               0                50               0                
5.3                            0.00782659670359239 -87.9867351630093 0.999484908213527 -1.5360276561235 0.99948490821353 -1.53602765612352 0.00782659474787661 -87.9869729777449 
! Gamma         0                0                0                0                
! Port Impedance         50               0                50               0                
5.4                            0.0079783916386098 -88.0479654275103 0.999478836369476 -1.56475706975858 0.999478836369479 -1.5647570697586 0.00797838963678385 -88.048207556185 
! Gamma         0                0                0                0                
! Port Impedance         50               0                50               0                
5.5                            0.00813025567637265 -88.1082840962201 0.999472778683992 -1.59348239663257 0.999472778683995 -1.59348239663258 0.00813025362694678 -88.1085305451142 
! Gamma         0                0                0                0                
! Port Impedance         50               0                50               0                
5.6                            0.00828218661534303 -88.1677442080293 0.999466735889143 -1.62220375005605 0.999466735889145 -1.62220375005607 0.00828218451677302 -88.1679949824968 
! Gamma         0                0                0                0                
! Port Impedance         50               0                50               0                
5.7                            0.00843418226137741 -88.226394393016 0.999460708621971 -1.65092124411073 0.999460708621974 -1.65092124411075 0.00843418011207163 -88.2266494975502 
! Gamma         0                0                0                0                
! Port Impedance         50               0                50               0                
5.8                            0.00858624043515544 -88.2842792810845 0.999454697427073 -1.67963499314832 0.999454697427075 -1.67963499314834 0.00858623823348163 -88.2845387193799 
! Gamma         0                0                0                0                
! Port Impedance         50               0                50               0                
5.9                            0.00873835897872963 -88.3414398704751 0.999448702759579 -1.70834511134289 0.999448702759581 -1.70834511134291 0.00873835672302121 -88.3417036454872 
! Gamma         0                0                0                0                
! Port Impedance         50               0                50               0                
6                              0.00889053576126607 -88.3979138603528 0.999442724988462 -1.73705171229251 0.999442724988464 -1.73705171229253 0.00889053344982824 -88.3981819743546 
! Gamma         0                0                0                0                
! Port Impedance         50               0                50               0                
6.1                            0.00904276868404285 -88.4537359512018 0.999436764400092 -1.76575490866645 0.999436764400094 -1.76575490866647 0.00904276631515818 -88.4540084058381 
! Gamma         0                0                0                0                
! Port Impedance         50               0                50               0                
6.2                            0.00919505568476819 -88.5089381163344 0.999430821201959 -1.79445481189425 0.999430821201961 -1.79445481189428 0.00919505325670203 -88.5092149126724 
! Gamma         0                0                0                0                
! Port Impedance         50               0                50               0                
6.3                            0.00934739474127712 -88.5635498474513 0.999424895526527 -1.82315153189343 0.999424895526529 -1.82315153189345 0.00934739225228251 -88.56383098603  
! Gamma         0                0                0                0                
! Port Impedance         50               0                50               0                
6.4                            0.00949978387466117 -88.6175983768726 0.999418987435148 -1.85184517683246 0.99941898743515 -1.85184517683248 0.00949978132298347 -88.6178838577479 
! Gamma         0                0                0                0                
! Port Impedance         50               0                50               0                
6.5                            0.00965222115188239 -88.671108878769 0.999413096922011 -1.88053585292626 0.999413096922012 -1.88053585292628 0.00965221853576365 -88.6713987015571 
! Gamma         0                0                0                0                
! Port Impedance         50               0                50               0                
6.6                            0.00980470468791945 -88.7241046514795 0.999407223918079 -1.90922366426121 0.999407223918081 -1.90922366426123 0.00980470200560235 -88.7243988153977 
! Gamma         0                0                0                0                
! Port Impedance         50               0                50               0                
6.7                            0.0099572326474901 -88.7766072827748 0.999401368295   -1.93790871264726 0.999401368295002 -1.93790871264728 0.00995722989722161 -88.7769057866799 
! Gamma         0                0                0                0                
! Port Impedance         50               0                50               0                
6.8                            0.0101098032463913 -88.8286367997358 0.999395529868945 -1.96659109749449 0.999395529868947 -1.96659109749451 0.0101098004264262 -88.8289396421597 
! Gamma         0                0                0                0                
! Port Impedance         50               0                50               0                
6.9                            0.0102624147524955 -88.8802118047399 0.999389708404376 -1.99527091571215 0.999389708404378 -1.99527091571217 0.0102624118610991 -88.8805189839233 
! Gamma         0                0                0                0                
! Port Impedance         50               0                50               0                
7                              0.0104150654864379 -88.9313495988962 0.999383903617712 -2.02394826162777 0.999383903617714 -2.02394826162779 0.0104150625218894 -88.93166111282  
! Gamma         0                0                0                0                
! Port Impedance         50               0                50               0                
7.1                            0.0105677538220282 -88.9820662941342 0.999378115180886 -2.05262322692458 0.999378115180888 -2.05262322692459 0.0105677507826229 -88.9823821405491 
! Gamma         0                0                0                0                
! Port Impedance         50               0                50               0                
7.2                            0.0107204781864162 -89.0323769150281 0.999372342724783 -2.08129590059537 0.999372342724785 -2.08129590059539 0.0107204750704679 -89.0326970914817 
! Gamma         0                0                0                0                
! Port Impedance         50               0                50               0                
7.3                            0.0108732370600396 -89.0822954913324 0.999366585842551 -2.10996636891114 0.999366585842552 -2.10996636891116 0.0108732338658826 -89.0826199951946 
! Gamma         0                0                0                0                
! Port Impedance         50               0                50               0                
7.4                            0.0110260289763791 -89.1318351421045 0.999360844092776 -2.1386347154029 0.999360844092777 -2.13863471540292 0.0110260257023703 -89.1321639705912 
! Gamma         0                0                0                0                
! Port Impedance         50               0                50               0                
7.5                            0.0111788525215442 -89.1810081522077 0.999355117002522 -2.16730102085533 0.999355117002523 -2.16730102085534 0.0111788491660644 -89.1813413024027 
! Gamma         0                0                0                0                
! Port Impedance         50               0                50               0                
7.6                            0.011331706333711 -89.229826041907 0.999349404070234 -2.19596536331088 0.999349404070235 -2.19596536331089 0.0113317028951666 -89.2301635107824 
! Gamma         0                0                0                0                
! Port Impedance         50               0                50               0                
7.7                            0.011484589102432 -89.2782996302025 0.999343704768498 -2.22462781808313 0.999343704768499 -2.22462781808315 0.0114845855792564 -89.2786414146371 
! Gamma         0                0                0                0                
! Port Impedance         50               0                50               0                
7.8                            0.0116374995678349 -89.3264390924822 0.999338018546661 -2.2532884577784 0.999338018546662 -2.25328845777841 0.0116374959584893 -89.3267851892791 
! Gamma         0                0                0                0                
! Port Impedance         50               0                50               0                
7.9                            0.0117904365197267 -89.3742540130214 0.999332344833316 -2.28194735232434 0.999332344833317 -2.28194735232435 0.0117904328227011 -89.3746044189236 
! Gamma         0                0                0                0                
! Port Impedance         50               0                50               0                
8                              0.0119433987966182 -89.4217534328022 0.99932668303865 -2.31060456900494 0.999326683038651 -2.31060456900495 0.0119433950104322 -89.4221081445074 
! Gamma         0                0                0                0                
! Port Impedance         50               0                50               0                
8.1                            0.0120963852846818 -89.4689458930868 0.999321032556659 -2.33926017250077 0.99932103255666 -2.33926017250077 0.0120963814078855 -89.4693049072607 
! Gamma         0                0                0                0                
! Port Impedance         50               0                50               0                
8.2                            0.0122493949166542 -89.5158394751312 0.999315392767228 -2.3679142249339 0.999315392767229 -2.36791422493391 0.0122493909478283 -89.5162027884197 
! Gamma         0                0                0                0                
! Port Impedance         50               0                50               0                
8.3                            0.0124024266706954 -89.5624418363948 0.999309763038095 -2.39656678591675 0.999309763038096 -2.39656678591676 0.0124024226084521 -89.5628094454353 
! Gamma         0                0                0                0                
! Port Impedance         50               0                50               0                
8.4                            0.0125554795692136 -89.6087602435642 0.999304142726683 -2.42521791260414 0.999304142726684 -2.42521791260414 0.0125554754121963 -89.6091321449956 
! Gamma         0                0                0                0                
! Port Impedance         50               0                50               0                
8.5                            0.0127085526776635 -89.6548016026818 0.999298531181821 -2.45386765974813 0.999298531181822 -2.45386765974814 0.0127085484245475 -89.6551777931539 
! Gamma         0                0                0                0                
! Port Impedance         50               0                50               0                
8.6                            0.0128616451033276 -89.7005724866422 0.999292927745346 -2.48251607975503 0.999292927745347 -2.48251607975503 0.0128616407528199 -89.700952962824 
! Gamma         0                0                0                0                
! Port Impedance         50               0                50               0                
8.7                            0.0130147559940858 -89.7460791602942 0.999287331753599 -2.51116322274409 0.9992873317536  -2.51116322274409 0.0130147515449253 -89.7464639188813 
! Gamma         0                0                0                0                
! Port Impedance         50               0                50               0                
8.8                            0.01316788453718 -89.7913276033654 0.999281742538821 -2.53980913660757 0.999281742538821 -2.53980913660757 0.0131678799881375 -89.7917166410872 
! Gamma         0                0                0                0                
! Port Impedance         50               0                50               0                
8.9                            0.0133210299579795 -89.836323531406 0.99927615943044 -2.56845386707173 0.999276159430441 -2.56845386707172 0.0133210253078572 -89.8367168450311 
! Gamma         0                0                0                0                
! Port Impedance         50               0                50               0                
9                              0.0134741915187503 -89.8810724149287 0.999270581756275 -2.59709745775834 0.999270581756276 -2.59709745775833 0.0134741867663818 -89.8814700012712 
! Gamma         0                0                0                0                
! Port Impedance         50               0                50               0                
9.1                            0.0136273685174347 -89.9255794969087 0.999265008843638 -2.62573995024666 0.999265008843638 -2.62573995024665 0.0136273636616851 -89.9259813528322 
! Gamma         0                0                0                0                
! Port Impedance         50               0                50               0                
9.2                            0.0137805602864435 -89.9698498087891 0.999259440020359 -2.65438138413529 0.999259440020359 -2.65438138413528 0.0137805553262084 -89.9702559312116 
! Gamma         0                0                0                0                
! Port Impedance         50               0                50               0                
9.3                            0.0139337661914631 -90.0138881851263 0.999253874615729 -2.68302179710398 0.999253874615729 -2.68302179710397 0.013933761125669 -90.0142985710236 
! Gamma         0                0                0                0                
! Port Impedance         50               0                50               0                
9.4                            0.0140869856302823 -90.0576992769965 0.999248311961363 -2.71166122497495 0.999248311961364 -2.71166122497493 0.0140869804578855 -90.0581139234056 
! Gamma         0                0                0                0                
! Port Impedance         50               0                50               0                
9.5                            0.014240218031639 -90.1012875642736 0.999242751391994 -2.74029970177366 0.999242751391995 -2.74029970177364 0.0142402127516258 -90.1017064682956 
! Gamma         0                0                0                0                
! Port Impedance         50               0                50               0                
9.6                            0.01439346285409 -90.1446573668796 0.999237192246196 -2.76893725978894 0.999237192246196 -2.76893725978892 0.0143934574654758 -90.1450805256819 
! Gamma         0                0                0                0                
! Port Impedance         50               0                50               0                
9.7                            0.014546719584905 -90.1878128550972 0.999231633867044 -2.79757392963213 0.999231633867044 -2.7975739296321 0.0145467140867341 -90.1882402659157 
! Gamma         0                0                0                0                
! Port Impedance         50               0                50               0                
9.8                            0.014699987738986 -90.2307580590292 0.999226075602715 -2.82620974029536 0.999226075602715 -2.82620974029533 0.0146999821303308 -90.23118971917  
! Gamma         0                0                0                0                
! Port Impedance         50               0                50               0                
9.9                            0.0148532668578132 -90.2734968772795 0.999220516807033 -2.85484471920871 0.999220516807033 -2.85484471920869 0.014853261137774 -90.2739327841204 
! Gamma         0                0                0                0                
! Port Impedance         50               0                50               0                
10                             0.0150065565084186 -90.3160330849242 0.999214956839955 -2.88347889229625 0.999214956839955 -2.88347889229622 0.0150065506761228 -90.3164732359157 
! Gamma         0                0                0                0                
! Port Impedance         50               0                50               0                
10.1                           0.0151598562823868 -90.3583703408357 0.999209395068015 -2.91211228403081 0.999209395068015 -2.91211228403078 0.0151598503369886 -90.3588147335016 
! Gamma         0                0                0                0                
! Port Impedance         50               0                50               0                
10.2                           0.0153131657948855 -90.400512194416 0.999203830864713 -2.94074491748754 0.999203830864713 -2.9407449174875 0.0153131597355648 -90.4009608263546 
! Gamma         0                0                0                0                
! Port Impedance         50               0                50               0                
10.3                           0.0154664846837226 -90.4424620917923 0.999198263610872 -2.96937681439614 0.999198263610872 -2.96937681439611 0.0154664785096851 -90.4429149606763 
! Gamma         0                0                0                0                
! Port Impedance         50               0                50               0                
10.4                           0.0156198126084339 -90.4842233815203 0.999192692694942 -2.99800799519175 0.999192692694942 -2.99800799519171 0.0156198063189102 -90.484680485097 
! Gamma         0                0                0                0                
! Port Impedance         50               0                50               0                
10.5                           0.0157731492493984 -90.5257993198393 0.999187117513273 -3.0266384790644 0.999187117513272 -3.02663847906436 0.0157731428436432 -90.5262606559309 
! Gamma         0                0                0                0                
! Port Impedance         50               0                50               0                
10.6                           0.0159264943069822 -90.5671930755178 0.999181537470354 -3.0552682840072 0.999181537470354 -3.05526828400716 0.015926487784274 -90.567658642021 
! Gamma         0                0                0                0                
! Port Impedance         50               0                50               0                
10.7                           0.0160798475007108 -90.6084077343252 0.999175951979015 -3.08389742686302 0.999175951979015 -3.08389742686298 0.0160798408603513 -90.6088775292111 
! Gamma         0                0                0                0                
! Port Impedance         50               0                50               0                
10.8                           0.0162332085684697 -90.6494463031619 0.999170360460602 -3.11252592336984 0.999170360460601 -3.1125259233698 0.0162332018097828 -90.6499203244754 
! Gamma         0                0                0                0                
! Port Impedance         50               0                50               0                
10.9                           0.0163865772657318 -90.6903117138773 0.999164762345119 -3.14115378820466 0.999164762345119 -3.14115378820462 0.0163865703880635 -90.6907899597367 
! Gamma         0                0                0                0                
! Port Impedance         50               0                50               0                
11                             0.0165399533648125 -90.7310068268031 0.999159157071354 -3.16978103502608 0.999159157071354 -3.16978103502603 0.0165399463675302 -90.7314892953993 
! Gamma         0                0                0                0                
! Port Impedance         50               0                50               0                
11.1                           0.0166933366541514 -90.7715344340251 0.999153544086969 -3.19840767651544 0.999153544086968 -3.1984076765154 0.0166933295366431 -90.7720211236209 
! Gamma         0                0                0                0                
! Port Impedance         50               0                50               0                
11.2                           0.0168467269376198 -90.8118972624175 0.999147922848573 -3.22703372441666 0.999147922848573 -3.22703372441661 0.0168467196992936 -90.8123881713469 
! Gamma         0                0                0                0                
! Port Impedance         50               0                50               0                
11.3                           0.017000124033854 -90.852097976459 0.999142292821781 -3.25565918957469 0.999142292821781 -3.25565918957464 0.0170001166741377 -90.8525931031261 
! Gamma         0                0                0                0                
! Port Impedance         50               0                50               0                
11.4                           0.0171535277756131 -90.8921391808492 0.999136653481242 -3.28428408197269 0.999136653481241 -3.28428408197263 0.0171535202939533 -90.8926385237275 
! Gamma         0                0                0                0                
! Port Impedance         50               0                50               0                
11.5                           0.0173069380091616 -90.9320234229424 0.999131004310656 -3.31290841076786 0.999131004310656 -3.3129084107678 0.0173069304050235 -90.9325269805737 
! Gamma         0                0                0                0                
! Port Impedance         50               0                50               0                
11.6                           0.0174603545936752 -90.9717531950151 0.99912534480278 -3.34153218432607 0.99912534480278 -3.34153218432601 0.0174603468665417 -90.9722609660081 
! Gamma         0                0                0                0                
! Port Impedance         50               0                50               0                
11.7                           0.0176137774006696 -91.0113309363789 0.999119674459409 -3.37015541025519 0.999119674459408 -3.37015541025513 0.017613769550041 -91.0118429194086 
! Gamma         0                0                0                0                
! Port Impedance         50               0                50               0                
11.8                           0.0177672063134518 -91.0507590353547 0.999113992791351 -3.39877809543725 0.999113992791351 -3.39877809543719 0.0177671983388452 -91.051275229161 
! Gamma         0                0                0                0                
! Port Impedance         50               0                50               0                
11.9                           0.0179206412265931 -91.090039831117 0.99910829931839 -3.42740024605938 0.99910829931839 -3.42740024605932 0.0179206331275418 -91.0905602345036 
! Gamma         0                0                0                0                
! Port Impedance         50               0                50               0                
12                             0.0180740820454226 -91.1291756154213 0.999102593569235 -3.45602186764363 0.999102593569234 -3.45602186764356 0.0180740738214756 -91.1297002272545 
! Gamma         0                0                0                0                
! Port Impedance         50               0                50               0                
12.1                           0.0182275286855414 -91.1681686342222 0.999096875081457 -3.48464296507565 0.999096875081456 -3.48464296507558 0.0182275203362629 -91.1686974534296 
! Gamma         0                0                0                0                
! Port Impedance         50               0                50               0                
12.2                           0.0183809810723566 -91.2070210891928 0.999091143401426 -3.5132635426323 0.999091143401426 -3.51326354263223 0.0183809725973255 -91.2075541147625 
! Gamma         0                0                0                0                
! Port Impedance         50               0                50               0                
12.3                           0.0185344391406333 -91.2457351391532 0.999085398084232 -3.54188360400819 0.999085398084232 -3.54188360400812 0.0185344305394428 -91.2462723701319 
! Gamma         0                0                0                0                
! Port Impedance         50               0                50               0                
12.4                           0.0186879028340666 -91.2843129014135 0.9990796386936  -3.57050315234119 0.9990796386936  -3.57050315234112 0.0186878941063235 -91.2848543369059 
! Gamma         0                0                0                0                
! Port Impedance         50               0                50               0                
12.5                           0.0188413721048693 -91.3227564530417 0.999073864801799 -3.59912219023694 0.999073864801799 -3.59912219023687 0.0188413632501938 -91.3233020922088 
! Gamma         0                0                0                0                
! Port Impedance         50               0                50               0                
12.6                           0.0189948469133786 -91.3610678320587 0.99906807598955 -3.62774071979246 0.999068075989549 -3.62774071979239 0.0189948379314035 -91.361617674117 
! Gamma         0                0                0                0                
! Port Impedance         50               0                50               0                
12.7                           0.0191483272276774 -91.3992490385693 0.999062271845919 -3.65635874261871 0.999062271845918 -3.65635874261863 0.0191483181180481 -91.3998030827893 
! Gamma         0                0                0                0                
! Port Impedance         50               0                50               0                
12.8                           0.0193018130232332 -91.4373020358323 0.999056451968214 -3.68497625986236 0.999056451968214 -3.68497625986228 0.0193018037856069 -91.4378602815373 
! Gamma         0                0                0                0                
! Port Impedance         50               0                50               0                
12.9                           0.019455304282551 -91.4752287512744 0.999050615961879 -3.71359327222665 0.999050615961879 -3.71359327222657 0.0194552949165963 -91.4757911978394 
! Gamma         0                0                0                0                
! Port Impedance         50               0                50               0                
13                             0.019608800994841 -91.5130310774544 0.999044763440375 -3.74220977999139 0.999044763440374 -3.74220977999131 0.0196087915002377 -91.5135977243047 
! Gamma         0                0                0                0                
! Port Impedance         50               0                50               0                
13.1                           0.0197623031557014 -91.5507108729782 0.999038894025066 -3.77082578303217 0.999038894025065 -3.77082578303209 0.0197622935321399 -91.5512817195886 
! Gamma         0                0                0                0                
! Port Impedance         50               0                50               0                
13.2                           0.0199158107668136 -91.5882699633711 0.999033007345102 -3.7994412808388 0.999033007345101 -3.79944128083872 0.0199158010139946 -91.5888450092642 
! Gamma         0                0                0                0                
! Port Impedance         50               0                50               0                
13.3                           0.0200693238356512 -91.6257101419091 0.999027103037298 -3.82805627253294 0.999027103037297 -3.82805627253286 0.0200693139532851 -91.6262893866547 
! Gamma         0                0                0                0                
! Port Impedance         50               0                50               0                
13.4                           0.020222842375201 -91.6630331704125 0.999021180746012 -3.85667075688512 0.999021180746011 -3.85667075688503 0.0202228323630079 -91.663616613626 
! Gamma         0                0                0                0                
! Port Impedance         50               0                50               0                
13.5                           0.0203763664036967 -91.7002407800053 0.999015240123022 -3.88528473233087 0.999015240123021 -3.88528473233079 0.0203763562614057 -91.7008284213469 
! Gamma         0                0                0                0                
! Port Impedance         50               0                50               0                
13.6                           0.0205298959443636 -91.7373346718411 0.999009280827399 -3.91389819698641 0.999009280827398 -3.91389819698632 0.0205298856717126 -91.7379265110143 
! Gamma         0                0                0                0                
! Port Impedance         50               0                50               0                
13.7                           0.0206834310251746 -91.7743165177997 0.999003302525387 -3.94251114866348 0.999003302525386 -3.94251114866339 0.02068342062191 -91.7749125545508 
! Gamma         0                0                0                0                
! Port Impedance         50               0                50               0                
13.8                           0.0208369716786169 -91.8111879611559 0.998997304890274 -3.97112358488368 0.998997304890273 -3.97112358488359 0.020836961144493 -91.8117881952724 
! Gamma         0                0                0                0                
! Port Impedance         50               0                50               0                
13.9                           0.020990517941469 -91.8479506172213 0.998991287602268 -3.99973550289215 0.998991287602267 -3.99973550289206 0.020990507276248 -91.8485550485313 
! Gamma         0                0                0                0                
! Port Impedance         50               0                50               0                
14                             0.021144069854587 -91.8846060739629 0.998985250348371 -4.02834689967071 0.99898525034837 -4.02834689967062 0.0211440590580385 -91.8852147023334 
! Gamma         0                0                0                0                
! Port Impedance         50               0                50               0                
14.1                           0.0212976274627014 -91.9211558925976 0.998979192822253 -4.05695777195037 0.998979192822252 -4.05695777195029 0.0212976165346019 -91.9217687179343 
! Gamma         0                0                0                0                
! Port Impedance         50               0                50               0                
14.2                           0.0214511908142211 -91.957601608167 0.99897311472413 -4.08556811622345 0.998973114724129 -4.08556811622336 0.0214511797543543 -91.9582186304127 
! Gamma         0                0                0                0                
! Port Impedance         50               0                50               0                
14.3                           0.0216047599610484 -91.9939447300909 0.998967015760638 -4.114177928755  0.998967015760637 -4.11417792875491 0.0216047487692041 -91.9945659492251 
! Gamma         0                0                0                0                
! Port Impedance         50               0                50               0                
14.4                           0.0217583349583998 -92.0301867427033 0.998960895644709 -4.1427872055939 0.998960895644708 -4.14278720559381 0.0217583236343744 -92.0308121587406 
! Gamma         0                0                0                0                
! Port Impedance         50               0                50               0                
14.5                           0.0219119158646367 -92.0663291057699 0.99895475409545 -4.17139594258337 0.998954754095449 -4.17139594258328 0.0219119044082323 -92.0669587187594 
! Gamma         0                0                0                0                
! Port Impedance         50               0                50               0                
14.6                           0.0220655027411027 -92.1023732549894 0.998948590838024 -4.20000413537111 0.998948590838023 -4.20000413537102 0.0220654911521271 -92.103007065014 
! Gamma         0                0                0                0                
! Port Impedance         50               0                50               0                
14.7                           0.0222190956519682 -92.1383206024799 0.998942405603525 -4.22861177941894 0.998942405603524 -4.22861177941885 0.0222190839302346 -92.1389586096552 
! Gamma         0                0                0                0                
! Port Impedance         50               0                50               0                
14.8                           0.0223726946640823 -92.1741725372499 0.998936198128862 -4.25721887001204 0.998936198128861 -4.25721887001195 0.0223726828094091 -92.1748147417232 
! Gamma         0                0                0                0                
! Port Impedance         50               0                50               0                
14.9                           0.0225262998468311 -92.2099304256553 0.998929968156641 -4.28582540226784 0.99892996815664 -4.28582540226775 0.0225262878590416 -92.2105768276053 
! Gamma         0                0                0                0                
! Port Impedance         50               0                50               0                
15                             0.0226799112720026 -92.2455956118446 0.998923715435051 -4.31443137114446 0.99892371543505 -4.31443137114437 0.0226798991509249 -92.2462462114798 
! Gamma         0                0                0                0                
! Port Impedance         50               0                50               0                
15.1                           0.0228335290136575 -92.2811694181899 0.998917439717744 -4.34303677144877 0.998917439717743 -4.34303677144868 0.0228335167591239 -92.2818242157483 
! Gamma         0                0                0                0                
! Port Impedance         50               0                50               0                
15.2                           0.022987153148006 -92.3166531457076 0.998911140763729 -4.37164159784422 0.998911140763728 -4.37164159784412 0.0229871407598531 -92.317312141456 
! Gamma         0                0                0                0                
! Port Impedance         50               0                50               0                
15.3                           0.02314078375329 -92.3520480744671 0.998904818337256 -4.40024584485815 0.998904818337255 -4.40024584485806 0.0231407712313583 -92.3527112687002 
! Gamma         0                0                0                0                
! Port Impedance         50               0                50               0                
15.4                           0.0232944209096708 -92.3873554639893 0.998898472207706 -4.42884950688896 0.998898472207705 -4.42884950688887 0.0232944082538046 -92.3880228570287 
! Gamma         0                0                0                0                
! Port Impedance         50               0                50               0                
15.5                           0.0234480646991219 -92.4225765536345 0.998892102149485 -4.45745257821281 0.998892102149485 -4.45745257821272 0.0234480519091692 -92.4232481458284 
! Gamma         0                0                0                0                
! Port Impedance         50               0                50               0                
15.6                           0.0236017152053266 -92.4577125629811 0.99888570794192 -4.48605505299011 0.998885707941919 -4.48605505299002 0.0236017022811386 -92.4583883547035 
! Gamma         0                0                0                0                
! Port Impedance         50               0                50               0                
15.7                           0.0237553725135807 -92.4927646921949 0.998879289369146 -4.51465692527174 0.998879289369145 -4.51465692527165 0.0237553594550117 -92.4934446838448 
! Gamma         0                0                0                0                
! Port Impedance         50               0                50               0                
15.8                           0.0239090367106989 -92.5277341223892 0.998872846220012 -4.54325818900491 0.998872846220011 -4.54325818900482 0.0239090235176061 -92.52841831439  
! Gamma         0                0                0                0                
! Port Impedance         50               0                50               0                
15.9                           0.0240627078849258 -92.562622015977 0.998866378287977 -4.57185883803886 0.998866378287976 -4.57185883803877 0.0240626945571696 -92.5633104087757 
! Gamma         0                0                0                0                
! Port Impedance         50               0                50               0                
16                             0.0242163861258519 -92.5974295170143 0.998859885371008 -4.60045886613021 0.998859885371007 -4.60045886613012 0.0242163726632948 -92.5981221110812 
! Gamma         0                0                0                0                
! Port Impedance         50               0                50               0                
16.1                           0.0243700715243319 -92.6321577515366 0.998853367271487 -4.62905826694817 0.998853367271486 -4.62905826694808 0.024370057926839 -92.6328545473644 
! Gamma         0                0                0                0                
! Port Impedance         50               0                50               0                
16.2                           0.024523764172408 -92.6668078278866 0.99884682379611 -4.65765703407942 0.998846823796109 -4.65765703407933 0.0245237504398466 -92.66750882599  
! Gamma         0                0                0                0                
! Port Impedance         50               0                50               0                
16.3                           0.0246774641632361 -92.7013808370359 0.9988402547558  -4.68625516103286 0.9988402547558  -4.68625516103277 0.0246774502954758 -92.702086037951 
! Gamma         0                0                0                0                
! Port Impedance         50               0                50               0                
16.4                           0.024831171591016 -92.7358778528988 0.998833659965609 -4.71485264124407 0.998833659965609 -4.71485264124399 0.0248311575879279 -92.7365872571826 
! Gamma         0                0                0                0                
! Port Impedance         50               0                50               0                
16.5                           0.0249848865509241 -92.77029993264  0.998827039244631 -4.74344946807964 0.99882703924463 -4.74344946807956 0.0249848724123815 -92.7710135408694 
! Gamma         0                0                0                0                
! Port Impedance         50               0                50               0                
16.6                           0.0251386091390501 -92.8046481169748 0.998820392415909 -4.77204563484125 0.998820392415908 -4.77204563484116 0.0251385948649277 -92.8053659297468 
! Gamma         0                0                0                0                
! Port Impedance         50               0                50               0                
16.7                           0.025292339452336 -92.8389234304644 0.998813719306356 -4.80064113476957 0.998813719306356 -4.80064113476948 0.0252923250425098 -92.8396454483949 
! Gamma         0                0                0                0                
! Port Impedance         50               0                50               0                
16.8                           0.0254460775885182 -92.8731268818037 0.998807019746664 -4.82923596104803 0.998807019746663 -4.82923596104795 0.0254460630428658 -92.8738531055276 
! Gamma         0                0                0                0                
! Port Impedance         50               0                50               0                
16.9                           0.0255998236460724 -92.9072594641042 0.998800293571221 -4.8578301068064 0.99880029357122 -4.85783010680632 0.0255998089644725 -92.9079898942745 
! Gamma         0                0                0                0                
! Port Impedance         50               0                50               0                
17                             0.0257535777241611 -92.9413221551704 0.998793540618031 -4.88642356512413 0.998793540618031 -4.88642356512405 0.0257535629064933 -92.942056792458 
! Gamma         0                0                0                0                
! Port Impedance         50               0                50               0                
17.1                           0.0259073399225834 -92.9753159177711 0.998786760728637 -4.91501632903368 0.998786760728636 -4.9150163290336 0.0259073249687283 -92.9760547628642 
! Gamma         0                0                0                0                
! Port Impedance         50               0                50               0                
17.2                           0.0260611103417274 -93.0092416999054 0.998779953748035 -4.94360839152355 0.998779953748034 -4.94360839152348 0.0260610952515663 -93.0099847535088 
! Gamma         0                0                0                0                
! Port Impedance         50               0                50               0                
17.3                           0.0262148890825247 -93.0431004350624 0.998773119524606 -4.97219974554131 0.998773119524605 -4.97219974554124 0.0262148738559397 -93.0438476978978 
! Gamma         0                0                0                0                
! Port Impedance         50               0                50               0                
17.4                           0.0263686762464074 -93.0768930424774 0.998766257910035 -5.00079038399637 0.998766257910034 -5.00079038399629 0.026368660883281 -93.0776445152823 
! Gamma         0                0                0                0                
! Port Impedance         50               0                50               0                
17.5                           0.0265224719352665 -93.1106204273814 0.998759368759242 -5.02938029976268 0.998759368759241 -5.02938029976261 0.0265224564354818 -93.1113761109091 
! Gamma         0                0                0                0                
! Port Impedance         50               0                50               0                
17.6                           0.0266762762514133 -93.1442834812472 0.998752451930306 -5.05796948568133 0.998752451930305 -5.05796948568126 0.0266762606148534 -93.145043376266 
! Gamma         0                0                0                0                
! Port Impedance         50               0                50               0                
17.7                           0.0268300892975415 -93.1778830820296 0.9987455072844  -5.08655793456297 0.9987455072844  -5.0865579345629 0.02683007352409 -93.178647189323 
! Gamma         0                0                0                0                
! Port Impedance         50               0                50               0                
17.8                           0.0269839111766924 -93.2114200944018 0.998738534685718 -5.11514563919013 0.998738534685718 -5.11514563919006 0.0269838952662326 -93.2121884147676 
! Gamma         0                0                0                0                
! Port Impedance         50               0                50               0                
17.9                           0.0271377419922203 -93.2448953699867 0.998731534001411 -5.1437325923195 0.99873153400141 -5.14373259231943 0.0271377259446359 -93.245667904237 
! Gamma         0                0                0                0                
! Port Impedance         50               0                50               0                
18                             0.0272915818477614 -93.278309747584 0.998724505101519 -5.17231878668399 0.998724505101518 -5.17231878668392 0.0272915656629357 -93.2790864965446 
! Gamma         0                0                0                0                
! Port Impedance         50               0                50               0                
18.1                           0.0274454308472026 -93.3116640533933 0.998717447858908 -5.20090421499479 0.998717447858907 -5.20090421499472 0.0274454145250185 -93.3124450179035 
! Gamma         0                0                0                0                
! Port Impedance         50               0                50               0                
18.2                           0.0275992890946524 -93.3449591012323 0.998710362149208 -5.22948886994327 0.998710362149208 -5.22948886994321 0.027599272634993 -93.3457442821447 
! Gamma         0                0                0                0                
! Port Impedance         50               0                50               0                
18.3                           0.0277531566944142 -93.3781956927516 0.998703247850752 -5.25807274420285 0.998703247850752 -5.25807274420279 0.0277531400971616 -93.3789850909315 
! Gamma         0                0                0                0                
! Port Impedance         50               0                50               0                
18.4                           0.027907033750959 -93.4113746176449 0.998696104844514 -5.2866558304307 0.998696104844514 -5.28665583043064 0.027907017015995 -93.4121682339702 
! Gamma         0                0                0                0                
! Port Impedance         50               0                50               0                
18.5                           0.0280609203689013 -93.4444966538556 0.998688933014052 -5.31523812126942 0.998688933014052 -5.31523812126937 0.0280609034961072 -93.4452944892166 
! Gamma         0                0                0                0                
! Port Impedance         50               0                50               0                
18.6                           0.0282148166529752 -93.4775625677797 0.998681732245452 -5.34381960934865 0.998681732245452 -5.3438196093486 0.0282147996422315 -93.4783646230784 
! Gamma         0                0                0                0                
! Port Impedance         50               0                50               0                
18.7                           0.0283687227080119 -93.510573114464 0.998674502427269 -5.37240028728652 0.998674502427269 -5.37240028728648 0.0283687055591982 -93.5113793906143 
! Gamma         0                0                0                0                
! Port Impedance         50               0                50               0                
18.8                           0.0285226386389187 -93.5435290378019 0.998667243450476 -5.40098014769115 0.998667243450476 -5.4009801476911 0.0285226213519139 -93.5443395357291 
! Gamma         0                0                0                0                
! Port Impedance         50               0                50               0                
18.9                           0.0286765645506583 -93.5764310707249 0.998659955208408 -5.42955918316194 0.998659955208408 -5.4295591831619 0.0286765471253403 -93.5772457913654 
! Gamma         0                0                0                0                
! Port Impedance         50               0                50               0                
19                             0.0288305005482303 -93.6092799353902 0.998652637596711 -5.45813738629093 0.998652637596711 -5.45813738629089 0.0288304829844758 -93.6100988796913 
! Gamma         0                0                0                0                
! Port Impedance         50               0                50               0                
19.1                           0.0289844467366525 -93.6420763433657 0.998645290513291 -5.48671474966399 0.998645290513291 -5.48671474966396 0.0289844290343372 -93.6428995122855 
! Gamma         0                0                0                0                
! Port Impedance         50               0                50               0                
19.2                           0.0291384032209439 -93.6748209958108 0.998637913858264 -5.51529126586201 0.998637913858264 -5.51529126586198 0.0291383853799424 -93.6756483903178 
! Gamma         0                0                0                0                
! Port Impedance         50               0                50               0                
19.3                           0.0292923701061084 -93.7075145836544 0.998630507533909 -5.543866927462  0.998630507533909 -5.54386692746198 0.0292923521262938 -93.7083462047272 
! Gamma         0                0                0                0                
! Port Impedance         50               0                50               0                
19.4                           0.0294463474971193 -93.7401577877693 0.998623071444619 -5.57244172703817 0.998623071444619 -5.57244172703815 0.0294463293783636 -93.7409936363967 
! Gamma         0                0                0                0                
! Port Impedance         50               0                50               0                
19.5                           0.0296003354989049 -93.7727512791437 0.998615605496853 -5.60101565716289 0.998615605496853 -5.60101565716287 0.0296003172410785 -93.7735913563241 
! Gamma         0                0                0                0                
! Port Impedance         50               0                50               0                
19.6                           0.0297543342163344 -93.8052957190492 0.998608109599096 -5.62958871040769 0.998608109599096 -5.62958871040767 0.0297543158193063 -93.8061400257908 
! Gamma         0                0                0                0                
! Port Impedance         50               0                50               0                
19.7                           0.0299083437542048 -93.8377917592062 0.998600583661809 -5.65816087934412 0.998600583661809 -5.65816087934411 0.0299083252178424 -93.8386402965263 
! Gamma         0                0                0                0                
! Port Impedance         50               0                50               0                
19.8                           0.0300623642172289 -93.8702400419454 0.998593027597389 -5.68673215654464 0.998593027597389 -5.68673215654464 0.030062345541398 -93.8710928108706 
! Gamma         0                0                0                0                
! Port Impedance         50               0                50               0                
19.9                           0.0302163957100233 -93.9026412003677 0.998585441320128 -5.71530253458342 0.998585441320128 -5.71530253458341 0.0302163768945879 -93.9034982019336 
! Gamma         0                0                0                0                
! Port Impedance         50               0                50               0                
20                             0.0303704383370975 -93.9349958584997 0.998577824746168 -5.74387200603708 0.998577824746168 -5.74387200603708 0.03037041938192 -93.9358570937509 
! Gamma         0                0                0                0                
! Port Impedance         50               0                50               0                
