! Touchstone file exported from HFSS 2026.1.0
!        File:           C:/ffzhzh/LocalFiles/Ansys_Project_Files/temp_train_TSV_1171_1783191990_43440.aedt
!        Generated:      03:08:21 AM Jul  5, 2026
!        Design:         TSV
!        Project:        temp_train_TSV_1171_1783191990_43440
!
! Variables:
!        h_bsmrdl = 2um
!        h_ox = 20um
!        h_rdl = 5um
!        h_sub = 97.54um
!        h_tmrdl = 5um
!        h_tsv = 97.54um
!        h_via = 3um
!        l_bsmrdl = 300um
!        l_sub = 410.04um
!        l_tmrdl = 200um
!        m_sub = 200um
!        pitch = 37.12um
!        r_tsv = 5.02um
!        s_tmrdl = 10um
!        w_bsmrdl = 18um
!        w_sub = 500um
!        w_tmrdl = 12um
!        x_tsv_center1 = 206um
!        x_tsv_center2 = 524um
!        x_tsv_center3 = 736um
!        x_tsv_center4 = 1054um
!        x_tsv_center5 = 1266um
!        x_tsv_center6 = 1584um
!
# GHz S MA R 50.000000
! Terminal data exported
! Port[1] = TSV1_1_T1
! Port[2] = TSV1_1_T2
0.1                            0.000617380675762309 39.9326989362723 0.999526889487293 -0.0542018474423883 0.999526889487292 -0.0542018474423907 0.000617380746017589 39.9326957436042 
! Gamma         0                0                0                0                
! Port Impedance         50               0                50               0                
0.2                            0.000927135764884389 58.4473368179833 0.999516739625123 -0.108286137805079 0.999516739625121 -0.108286137805084 0.000927135925386013 58.4473205466798 
! Gamma         0                0                0                0                
! Port Impedance         50               0                50               0                
0.3                            0.00128227226820725 66.9103498533306 0.999501200869683 -0.162162344950115 0.999501200869682 -0.162162344950123 0.00128227245626831 66.9103216565592 
! Gamma         0                0                0                0                
! Port Impedance         50               0                50               0                
0.4                            0.00164962374720792 71.4592512806588 0.999481871427547 -0.215781723307701 0.999481871427546 -0.215781723307711 0.0016496239107826 71.4592136002431 
! Gamma         0                0                0                0                
! Port Impedance         50               0                50               0                
0.5                            0.00201946804912796 74.2433109534145 0.999460318182575 -0.269136215132748 0.999460318182574 -0.26913621513276 0.00201946816682206 74.2432655481833 
! Gamma         0                0                0                0                
! Port Impedance         50               0                50               0                
0.6                            0.00238874833716991 76.1175425941112 0.999437809848377 -0.322246860889054 0.999437809848376 -0.322246860889068 0.00238874841755361 76.1174903997491 
! Gamma         0                0                0                0                
! Port Impedance         50               0                50               0                
0.7                            0.00275667610874286 77.4707244933085 0.999415224123311 -0.375149699483  0.99941522412331 -0.375149699483015 0.00275667618050404 77.4706658031614 
! Gamma         0                0                0                0                
! Port Impedance         50               0                50               0                
0.8                            0.00312326104186003 78.4987741226271 0.999393078507443 -0.427884505360952 0.999393078507442 -0.427884505360966 0.00312326114282313 78.4987088250293 
! Gamma         0                0                0                0                
! Port Impedance         50               0                50               0                
0.9                            0.00348874868771538 79.3089476351701 0.999371616024235 -0.48048798226479 0.999371616024234 -0.480487982264803 0.0034887488566932 79.3088754116893 
! Gamma         0                0                0                0                
! Port Impedance         50               0                50               0                
1                              0.00385340534193328 79.9643345432965 0.999350897075549 -0.5329907368443 0.999350897075548 -0.532990736844311 0.00385340561408136 79.9642550023496 
! Gamma         0                0                0                0                
! Port Impedance         50               0                50               0                
1.1                            0.00421744664641583 80.5045126864767 0.999330874588674 -0.585416666759215 0.999330874588673 -0.585416666759223 0.00421744705128519 80.5044254401265 
! Gamma         0                0                0                0                
! Port Impedance         50               0                50               0                
1.2                            0.00458102438291972 80.9557757884376 0.999311447123493 -0.637783577118512 0.999311447123491 -0.637783577118518 0.00458102494415715 80.9556804896709 
! Gamma         0                0                0                0                
! Port Impedance         50               0                50               0                
1.3                            0.00494423423225639 81.3364820817308 0.999292492765433 -0.690104254592294 0.999292492765432 -0.690104254592298 0.00494423496813665 81.3363784379144 
! Gamma         0                0                0                0                
! Port Impedance         50               0                50               0                
1.4                            0.00530712887348929 81.659995090181  0.99927388891996 -0.742387586895692 0.999273888919959 -0.742387586895693 0.00530712979776866 81.6598828637615 
! Gamma         0                0                0                0                
! Port Impedance         50               0                50               0                
1.5                            0.00566973047686578 81.9363799928706 0.999255522756737 -0.794639547485204 0.999255522756736 -0.794639547485202 0.00566973159968218 81.9362589961295 
! Gamma         0                0                0                0                
! Port Impedance         50               0                50               0                
1.6                            0.00603204079901627 82.1734286045369 0.999237295884838 -0.846863991916535 0.999237295884836 -0.84686399191653 0.00603204212770855 82.1732986922111 
! Gamma         0                0                0                0                
! Port Impedance         50               0                50               0                
1.7                            0.00639404872931901 82.3773066927022 0.999219125686699 -0.899063271522924 0.999219125686697 -0.899063271522916 0.00639405026912018 82.3771677544126 
! Gamma         0                0                0                0                
! Port Impedance         50               0                50               0                
1.8                            0.00675573568248638 82.5529799518724 0.999200944848724 -0.951238692342863 0.999200944848722 -0.951238692342853 0.00675573743708622 82.5528319052384 
! Gamma         0                0                0                0                
! Port Impedance         50               0                50               0                
1.9                            0.00711707933536084 82.7045049503658 0.999182700014665 -1.00339085162224 0.999182700014664 -1.00339085162223 0.00711708130735092 82.7043477351175 
! Gamma         0                0                0                0                
! Port Impedance         50               0                50               0                
2                              0.00747805615130924 82.8352344851068 0.999164350094584 -1.0555198811644 0.999164350094582 -1.05551988116439 0.00747805834252929 82.8350680582231 
! Gamma         0                0                0                0                
! Port Impedance         50               0                50               0                
2.1                            0.0078386430413725 82.9479667001057 0.999145864520613 -1.10762562144004 0.999145864520611 -1.10762562144003 0.00783864545317663 82.9477910318863 
! Gamma         0                0                0                0                
! Port Impedance         50               0                50               0                
2.2                            0.00819881842132511 83.0450560270394 0.99912722159762 -1.15970774495989 0.999127221597618 -1.15970774495987 0.00819882105478493 83.044871097973  
! Gamma         0                0                0                0                
! Port Impedance         50               0                50               0                
2.3                            0.00855856285091071 83.1284974386408 0.999108407014837 -1.21176584278909 0.999108407014836 -1.21176584278907 0.00855856570696875 83.1283032369313 
! Gamma         0                0                0                0                
! Port Impedance         50               0                50               0                
2.4                            0.00891785938670064 83.1999915619408 0.999089412539394 -1.26379948442347 0.999089412539392 -1.26379948442345 0.00891786246628526 83.1997880815631 
! Gamma         0                0                0                0                
! Port Impedance         50               0                50               0                
2.5                            0.00927669374037514 83.2609957545719 0.999070234889079 -1.3158082584726 0.999070234889077 -1.31580825847258 0.00927669704448567 83.2607829937513 
! Gamma         0                0                0                0                
! Port Impedance         50               0                50               0                
2.6                            0.00963505430617669 83.3127646866063 0.999050874770456 -1.3677917995415 0.999050874770455 -1.36779179954148 0.00963505783594533 83.3125426466328 
! Gamma         0                0                0                0                
! Port Impedance         50               0                50               0                
2.7                            0.00999293210168783 83.3563829449976 0.999031336064032 -1.41974980520557 0.999031336064031 -1.41974980520555 0.00999293585842357 83.3561516293032 
! Gamma         0                0                0                0                
! Port Impedance         50               0                50               0                
2.8                            0.0103503206524865 83.3927914861704 0.999011625137455 -1.47168204589108 0.999011625137454 -1.47168204589106 0.0103503246377052 83.3925508996146 
! Gamma         0                0                0                0                
! Port Impedance         50               0                50               0                
2.9                            0.0107072158418241 83.422809284729  0.998991750268732 -1.52358836969437 0.998991750268731 -1.52358836969435 0.0107072200572673 83.4225594330471 
! Gamma         0                0                0                0                
! Port Impedance         50               0                50               0                
3                              0.0110636157399645 83.4471511893248 0.998971721163303 -1.57546870361317 0.998971721163302 -1.57546870361315 0.0110636201876103 83.4468920787046 
! Gamma         0                0                0                0                
! Port Impedance         50               0                50               0                
3.1                            0.0114195204233169 83.4664427544713 0.998951548550831 -1.62732305226039 0.99895154855083 -1.62732305226037 0.0114195251053838 83.4661743912304 
! Gamma         0                0                0                0                
! Port Impedance         50               0                50               0                
3.2                            0.0117749317903648 83.481232639969  0.998931243849588 -1.67915149484079 0.998931243849587 -1.67915149484077 0.0117749367093105 83.4809550303114 
! Gamma         0                0                0                0                
! Port Impedance         50               0                50               0                
3.3                            0.0121298533792079 83.4920030381691 0.998910818888104 -1.73095418096107 0.998910818888103 -1.73095418096105 0.0121298585377239 83.4917161880055 
! Gamma         0                0                0                0                
! Port Impedance         50               0                50               0                
3.4                            0.0124842901900044 83.4991784904944 0.99889028567537 -1.78273132569126 0.998890285675369 -1.78273132569125 0.0124842955910081 83.4988824053108 
! Gamma         0                0                0                0                
! Port Impedance         50               0                50               0                
3.5                            0.012838248514517 83.5031333794882 0.998869656212212 -1.83448320418451 0.998869656212211 -1.83448320418449 0.0128382541611406 83.5028280642541 
! Gamma         0                0                0                0                
! Port Impedance         50               0                50               0                
3.6                            0.0131917357741986 83.5041983249235 0.99884894233762 -1.88621014608027 0.998848942337619 -1.88621014608026 0.0131917416697773 83.5038837840309 
! Gamma         0                0                0                0                
! Port Impedance         50               0                50               0                
3.7                            0.0135447603677035 83.5026656677304 0.998828155604782 -1.93791252985605 0.998828155604781 -1.93791252985604 0.0135447665157617 83.5023419049569 
! Gamma         0                0                0                0                
! Port Impedance         50               0                50               0                
3.8                            0.0138973315283119 83.4987941904909 0.998807307182342 -1.98959077724764 0.998807307182341 -1.98959077724763 0.0138973379325488 83.4984612089815 
! Gamma         0                0                0                0                
! Port Impedance         50               0                50               0                
3.9                            0.0142494591914686 83.4928131956667 0.998786407777128 -2.04124534782452 0.998786407777127 -2.04124534782451 0.0142494658557434 83.4924709979309 
! Gamma         0                0                0                0                
! Port Impedance         50               0                50               0                
4                              0.0146011538724261 83.484926040845  0.998765467575086 -2.09287673378179 0.998765467575085 -2.09287673378178 0.014601160800743 83.4845746287649 
! Gamma         0                0                0                0                
! Port Impedance         50               0                50               0                
4.1                            0.0149524265538304 83.4753132128153 0.998744496197677 -2.14448545499078 0.998744496197676 -2.14448545499078 0.0149524337503234 83.4749525876627 
! Gamma         0                0                0                0                
! Port Impedance         50               0                50               0                
4.2                            0.0153032885829745 83.4641350082534 0.998723502671362 -2.19607205433612 0.998723502671361 -2.19607205433611 0.0153032960518928 83.463765170713  
! Gamma         0                0                0                0                
! Port Impedance         50               0                50               0                
4.3                            0.015653751578366 83.4515338774525 0.998702495408132 -2.24763709335566 0.998702495408131 -2.24763709335565 0.0156537593240594 83.4511548276505 
! Gamma         0                0                0                0                
! Port Impedance         50               0                50               0                
4.4                            0.0160038273451978 83.4376364783273 0.998681482195326 -2.29918114819151 0.998681482195325 -2.2991811481915 0.0160038353721024 83.4372482158629 
! Gamma         0                0                0                0                
! Port Impedance         50               0                50               0                
4.5                            0.0163535277992721 83.422555480401  0.998660470193221 -2.35070480585354 0.99866047019322 -2.35070480585354 0.0163535361118971 83.4221580043804 
! Gamma         0                0                0                0                
! Port Impedance         50               0                50               0                
4.6                            0.0167028648989048 83.4063911523091 0.998639465939074 -2.40220866079208 0.998639465939073 -2.40220866079208 0.0167028735018196 83.4059844613806 
! Gamma         0                0                0                0                
! Port Impedance         50               0                50               0                
4.7                            0.0170518505843214 83.3892327612684 0.998618475356487 -2.4536933117725 0.998618475356486 -2.4536933117725 0.0170518594821432 83.3888168536582 
! Gamma         0                0                0                0                
! Port Impedance         50               0                50               0                
4.8                            0.0174004967240551 83.3711598087416 0.998597503769104 -2.50515935904184 0.998597503769103 -2.50515935904184 0.0174005059214376 83.3707346822895 
! Gamma         0                0                0                0                
! Port Impedance         50               0                50               0                
4.9                            0.0177488150678559 83.3522431230199 0.998576555917798 -2.55660740177539 0.998576555917797 -2.5566074017754 0.0177488245694787 83.3518087752148 
! Gamma         0                0                0                0                
! Port Impedance         50               0                50               0                
5                              0.0180968172056311 83.3325458265109 0.998555635980602 -2.60803803578979 0.998555635980601 -2.6080380357898 0.0180968270161892 83.3321022545249 
! Gamma         0                0                0                0                
! Port Impedance         50               0                50               0                
5.1                            0.0184445145319464 83.3121241930575 0.998534747594759 -2.65945185150814 0.998534747594758 -2.65945185150814 0.0184445246561416 83.3116713937795 
! Gamma         0                0                0                0                
! Port Impedance         50               0                50               0                
5.2                            0.0187919182156372 83.2910284085341 0.99851389388035 -2.71084943216221 0.998513893880349 -2.71084943216222 0.0187919286581691 83.2905663786018 
! Gamma         0                0                0                0                
! Port Impedance         50               0                50               0                
5.3                            0.0191390391740918 83.2693032462094 0.998493077465019 -2.7622313522165 0.998493077465018 -2.76223135221651 0.0191390499396504 83.2688319820393 
! Gamma         0                0                0                0                
! Port Impedance         50               0                50               0                
5.4                            0.0194858880517946 83.2469886668675 0.998472300509412 -2.81359817599864 0.998472300509411 -2.81359817599866 0.0194858991450532 83.2465081646844 
! Gamma         0                0                0                0                
! Port Impedance         50               0                50               0                
5.5                            0.019832475202734 83.2241203524057 0.998451564732983 -2.86495045652132 0.998451564732982 -2.86495045652133 0.0198324866283426 83.2236306082696 
! Gamma         0                0                0                0                
! Port Impedance         50               0                50               0                
5.6                            0.0201788106763042 83.2007301805302 0.998430871439887 -2.91628873448066 0.998430871439885 -2.91628873448068 0.0201788224388842 83.2002311903621 
! Gamma         0                0                0                0                
! Port Impedance         50               0                50               0                
5.7                            0.0205249042063527 83.1768466472349 0.998410221544714 -2.96761353741696 0.998410221544713 -2.96761353741698 0.0205249163104915 83.1763384068405 
! Gamma         0                0                0                0                
! Port Impedance         50               0                50               0                
5.8                            0.0208707652030472 83.1524952429347 0.998389615597882 -3.01892537902383 0.99838961559788 -3.01892537902385 0.0208707776532941 83.1519777480267 
! Gamma         0                0                0                0                
! Port Impedance         50               0                50               0                
5.9                            0.0212164027472585 83.1276987874237 0.998369053810498 -3.07022475859258 0.998369053810497 -3.0702247585926 0.0212164155481205 83.1271720336421 
! Gamma         0                0                0                0                
! Port Impedance         50               0                50               0                
6                              0.0215618255871779 83.1024777282204 0.998348536078591 -3.1215121605795 0.99834853607859 -3.12151216057952 0.0215618387431167 83.1019417111517 
! Gamma         0                0                0                0                
! Port Impedance         50               0                50               0                
6.1                            0.0219070421369101 83.0768504063292 0.998328062006582 -3.17278805428389 0.998328062006581 -3.17278805428391 0.0219070556523392 83.0763051215236 
! Gamma         0                0                0                0                
! Port Impedance         50               0                50               0                
6.2                            0.0222520604768011 83.0508332929873 0.99830763092993 -3.22405289362603 0.998307630929929 -3.22405289362605 0.0222520743560832 83.0502787359747 
! Gamma         0                0                0                0                
! Port Impedance         50               0                50               0                
6.3                            0.0225968883552819 83.024441200557  0.998287241936879 -3.27530711701447 0.998287241936877 -3.27530711701449 0.0225969026027274 83.0238773668612 
! Gamma         0                0                0                0                
! Port Impedance         50               0                50               0                
6.4                            0.0229415331920294 82.9976874703706 0.998266893889276 -3.32655114729298 0.998266893889275 -3.32655114729301 0.0229415478118945 82.9971143555225 
! Gamma         0                0                0                0                
! Port Impedance         50               0                50               0                
6.5                            0.0232860020822581 82.9705841400204 0.998246585442425 -3.37778539175815 0.998246585442423 -3.37778539175817 0.0232860170787438 82.9700017395697 
! Gamma         0                0                0                0                
! Port Impedance         50               0                50               0                
6.6                            0.0236303018019809 82.9431420923112 0.998226315063956 -3.42901024223925 0.998226315063955 -3.42901024223928 0.0236303171792325 82.942550401837  
! Gamma         0                0                0                0                
! Port Impedance         50               0                50               0                
6.7                            0.0239744388140859 82.9153711878497 0.998206081051719 -3.48022607523274 0.998206081051718 -3.48022607523276 0.023974454576192 82.91477020297   
! Gamma         0                0                0                0                
! Port Impedance         50               0                50               0                
6.8                            0.0243184192750952 82.8872803830284 0.998185881550692 -3.53143325208419 0.998185881550691 -3.53143325208421 0.0243184354260878 82.8866700994083 
! Gamma         0                0                0                0                
! Port Impedance         50               0                50               0                
6.9                            0.0246622490424842 82.8588778349728 0.998165714568923 -3.58263211921132 0.998165714568922 -3.58263211921135 0.0246622655863387 82.8582582483318 
! Gamma         0                0                0                0                
! Port Impedance         50               0                50               0                
7                              0.0250059336824516 82.8301709948499 0.998145577992528 -3.63382300836213 0.998145577992527 -3.63382300836216 0.0250059506230873 82.8295421009685 
! Gamma         0                0                0                0                
! Port Impedance         50               0                50               0                
7.1                            0.0253494784780445 82.8011666907873 0.998125469599754 -3.68500623690271 0.998125469599752 -3.68500623690274 0.0253494958193246 82.8005284855123 
! Gamma         0                0                0                0                
! Port Impedance         50               0                50               0                
7.2                            0.0256928884375508 82.7718712015168 0.998105387074146 -3.73618210812999 0.998105387074145 -3.73618210813002 0.0256929061832835 82.7712236807664 
! Gamma         0                0                0                0                
! Port Impedance         50               0                50               0                
7.3                            0.0260361683030828 82.7422903217399 0.998085328016852 -3.78735091160489 0.99808532801685 -3.78735091160491 0.026036186457022 82.7416334815073 
! Gamma         0                0                0                0                
! Port Impedance         50               0                50               0                
7.4                            0.0263793225592855 82.7124294201033 0.998065289958078 -3.83851292350191 0.998065289958076 -3.83851292350194 0.0263793411251318 82.7117632564603 
! Gamma         0                0                0                0                
! Port Impedance         50               0                50               0                
7.5                            0.0267223554421098 82.6822934905825 0.998045270367751 -3.88966840697173 0.99804527036775 -3.88966840697175 0.0267223744235115 82.6816179996823 
! Gamma         0                0                0                0                
! Port Impedance         50               0                50               0                
7.6                            0.0270652709475984 82.6518871979825 0.998025266665411 -3.94081761251341 0.998025266665409 -3.94081761251344 0.027065290348153 82.6512023760616 
! Gamma         0                0                0                0                
! Port Impedance         50               0                50               0                
7.7                            0.0274080728406415 82.6212149181933 0.998005276229368 -3.99196077835357 0.998005276229367 -3.99196077835359 0.0274080926638966 82.6205207615735 
! Gamma         0                0                0                0                
! Port Impedance         50               0                50               0                
7.8                            0.0277507646636615 82.5902807737682 0.997985296405171 -4.04309813082986 0.99798529640517 -4.04309813082988 0.0277507849131164 82.5895772788573 
! Gamma         0                0                0                0                
! Port Impedance         50               0                50               0                
7.9                            0.0280933497451953 82.5590886653335 0.99796532451341 -4.09422988477659 0.997965324513409 -4.09422988477662 0.0280933704243026 82.5583758286268 
! Gamma         0                0                0                0                
! Port Impedance         50               0                50               0                
8                              0.0284358312083452 82.5276422992862 0.997945357856899 -4.14535624391059 0.997945357856898 -4.14535624391061 0.0284358523205121 82.5269201173659 
! Gamma         0                0                0                0                
! Port Impedance         50               0                50               0                
8.1                            0.0287782119790757 82.4959452121833 0.997925393727269 -4.1964774012154 0.997925393727267 -4.19647740121543 0.0287782335276655 82.4952136817196 
! Gamma         0                0                0                0                
! Port Impedance         50               0                50               0                
8.2                            0.0291204947943352 82.4640007921907 0.997905429411001 -4.24759353932262 0.997905429411   -4.24759353932264 0.0291205167826691 82.4632599099407 
! Gamma         0                0                0                0                
! Port Impedance         50               0                50               0                
8.3                            0.0294626822099881 82.4318122979137 0.997885462194949 -4.29870483088876 0.997885462194948 -4.29870483088879 0.0294627046413467 82.4310620607213 
! Gamma         0                0                0                0                
! Port Impedance         50               0                50               0                
8.4                            0.0298047766085437 82.3993828749017 0.99786548937136 -4.34981143896686 0.997865489371358 -4.34981143896688 0.0298047994861684 82.3986232796967 
! Gamma         0                0                0                0                
! Port Impedance         50               0                50               0                
8.5                            0.0301467802066714 82.3667155700866 0.997845508242442 -4.40091351737162 0.997845508242441 -4.40091351737164 0.0301468035337664 82.3659466138837 
! Gamma         0                0                0                0                
! Port Impedance         50               0                50               0                
8.6                            0.0304886950624958 82.3338133443878 0.997825516124507 -4.45201121103751 0.997825516124505 -4.45201121103753 0.0304887188422295 82.3330350242854 
! Gamma         0                0                0                0                
! Port Impedance         50               0                50               0                
8.7                            0.0308305230826653 82.3006790836905 0.997805510351702 -4.50310465636901 0.9978055103517  -4.50310465636903 0.0308305473181718 82.2998913968695 
! Gamma         0                0                0                0                
! Port Impedance         50               0                50               0                
8.8                            0.0311722660291908 82.2673156083838 0.997785488279376 -4.55419398158259 0.997785488279375 -4.55419398158261 0.0311722907235718 82.266518552106  
! Gamma         0                0                0                0                
! Port Impedance         50               0                50               0                
8.9                            0.0315139255260531 82.2337256816232 0.9977654472871  -4.60527930703992 0.997765447287098 -4.60527930703995 0.0315139506823793 82.2329192532296 
! Gamma         0                0                0                0                
! Port Impedance         50               0                50               0                
9                              0.0318555030655783 82.1999120164664 0.997745384781352 -4.65636074557204 0.99774538478135 -4.65636074557206 0.0318555286868911 82.1990962133759 
! Gamma         0                0                0                0                
! Port Impedance         50               0                50               0                
9.1                            0.032197000014582 82.1658772820135 0.997725298197918 -4.70743840279415 0.997725298197915 -4.70743840279417 0.0321970261038948 82.1650521017205 
! Gamma         0                0                0                0                
! Port Impedance         50               0                50               0                
9.2                            0.0325384176202841 82.131624108669  0.997705185004001 -4.75851237741099 0.997705185003999 -4.75851237741101 0.0325384441805842 82.130789548742  
! Gamma         0                0                0                0                
! Port Impedance         50               0                50               0                
9.3                            0.0328797570159972 82.0971550926317 0.997685042700083 -4.80958276151258 0.997685042700081 -4.8095827615126 0.0328797840502471 82.0963111507112 
! Gamma         0                0                0                0                
! Port Impedance         50               0                50               0                
9.4                            0.0332210192265922 82.0624727997045 0.997664868821544 -4.86064964086031 0.997664868821542 -4.86064964086032 0.0332210467377309 82.0616194735011 
! Gamma         0                0                0                0                
! Port Impedance         50               0                50               0                
9.5                            0.0335622051737447 82.027579768508  0.99764466094006 -4.91171309516345 0.997644660940058 -4.91171309516346 0.0335622331646894 82.0267170558004 
! Gamma         0                0                0                0                
! Port Impedance         50               0                50               0                
9.6                            0.0339033156809677 81.992478513172  0.997624416664805 -4.962773198346  0.997624416664803 -4.96277319834601 0.0339033441546151 81.9916064118049 
! Gamma         0                0                0                0                
! Port Impedance         50               0                50               0                
9.7                            0.0342443514784353 81.9571715255705 0.997604133643462 -5.01383001880407 0.99760413364346 -5.01383001880409 0.034244380437663 81.9562900334525 
! Gamma         0                0                0                0                
! Port Impedance         50               0                50               0                
9.8                            0.0345853132076027 81.9216612771582 0.997583809563063 -5.0648836196539 0.99758380956306 -5.06488361965391 0.0345853426552704 81.9207703922602 
! Gamma         0                0                0                0                
! Port Impedance         50               0                50               0                
9.9                            0.0349262014256287 81.8859502204619 0.997563442150676 -5.11593405897053 0.997563442150674 -5.11593405897055 0.0349262313645796 81.8850499408144 
! Gamma         0                0                0                0                
! Port Impedance         50               0                50               0                
10                             0.0352670166096061 81.8500407902707 0.997543029173949 -5.16698139001753 0.997543029173947 -5.16698139001754 0.0352670470426682 81.8491311139623 
! Gamma         0                0                0                0                
! Port Impedance         50               0                50               0                
10.1                           0.0356077591606065 81.8139354045682 0.997522568441515 -5.21802566146769 0.997522568441513 -5.2180256614677 0.0356077900905939 81.8130163297434 
! Gamma         0                0                0                0                
! Port Impedance         50               0                50               0                
10.2                           0.0359484294075459 81.7776364652407 0.997502057803286 -5.26906691761518 0.997502057803285 -5.26906691761519 0.0359484608372597 81.7767079900978 
! Gamma         0                0                0                0                
! Port Impedance         50               0                50               0                
10.3                           0.0362890276108756 81.7411463585946 0.997481495150637 -5.32010519857906 0.997481495150635 -5.32010519857907 0.0362890595431052 81.7402084813839 
! Gamma         0                0                0                0                
! Port Impedance         50               0                50               0                
10.4                           0.0366295539661073 81.704467455711  0.997460878416484 -5.37114054049866 0.997460878416482 -5.37114054049866 0.0366295864036315 81.7035201747327 
! Gamma         0                0                0                0                
! Port Impedance         50               0                50               0                
10.5                           0.0369700086071759 81.6676021126624 0.997440205575284 -5.42217297572091 0.997440205575282 -5.42217297572091 0.036970041552764 81.6666454262647 
! Gamma         0                0                0                0                
! Port Impedance         50               0                50               0                
10.6                           0.0373103916096481 81.6305526706125 0.997419474642942 -5.47320253297984 0.99741947464294 -5.47320253297985 0.0373104250660609 81.6295865771899 
! Gamma         0                0                0                0                
! Port Impedance         50               0                50               0                
10.7                           0.0376507029937817 81.5933214558206 0.997398683676654 -5.52422923756861 0.997398683676652 -5.52422923756861 0.0376507369637725 81.5923459538117 
! Gamma         0                0                0                0                
! Port Impedance         50               0                50               0                
10.8                           0.0379909427274414 81.5559107795639 0.997377830774679 -5.57525311150416 0.997377830774677 -5.57525311150416 0.0379909772137569 81.5549258674501 
! Gamma         0                0                0                0                
! Port Impedance         50               0                50               0                
10.9                           0.0383311107288777 81.5183229379972 0.997356914076055 -5.62627417368487 0.997356914076052 -5.62627417368487 0.038331145734259 81.5173286143003 
! Gamma         0                0                0                0                
! Port Impedance         50               0                50               0                
11                             0.0386712068693746 81.480560211958  0.997335931760257 -5.67729244004139 0.997335931760254 -5.6772924400414 0.0386712423965581 81.4795564752389 
! Gamma         0                0                0                0                
! Port Impedance         50               0                50               0                
11.1                           0.0390112309757699 81.4426248667317 0.997314882046817 -5.72830792368086 0.997314882046815 -5.72830792368086 0.039011267027488 81.4416117155888 
! Gamma         0                0                0                0                
! Port Impedance         50               0                50               0                
11.2                           0.0393511828328559 81.4045191517863 0.997293763194897 -5.77932063502482 0.997293763194895 -5.77932063502482 0.0393512194118381 81.4034965848532 
! Gamma         0                0                0                0                
! Port Impedance         50               0                50               0                
11.3                           0.0396910621856641 81.3662453004824 0.997272573502823 -5.83033058194105 0.997272573502821 -5.83033058194105 0.0396910992946374 81.3652133164271 
! Gamma         0                0                0                0                
! Port Impedance         50               0                50               0                
11.4                           0.0400308687416392 81.3278055297696 0.99725131130759 -5.8813377698695 0.997251311307588 -5.8813377698695 0.0400309063833292 81.3267641272925 
! Gamma         0                0                0                0                
! Port Impedance         50               0                50               0                
11.5                           0.0403706021727079 81.289202039873  0.997229974984343 -5.93234220194257 0.997229974984341 -5.93234220194257 0.0403706403498394 81.2881512177052 
! Gamma         0                0                0                0                
! Port Impedance         50               0                50               0                
11.6                           0.0407102621172465 81.2504370139756 0.997208562945827 -5.98334387910003 0.997208562945825 -5.98334387910003 0.0407103008325441 81.249376770878  
! Gamma         0                0                0                0                
! Port Impedance         50               0                50               0                
11.7                           0.0410498481819521 81.2115126179022 0.997187073641817 -6.03434280019867 0.997187073641815 -6.03434280019867 0.041049887438141 81.2104429526634 
! Gamma         0                0                0                0                
! Port Impedance         50               0                50               0                
11.8                           0.041389359943622 81.1724309998071 0.997165505558539 -6.08533896211698 0.997165505558537 -6.08533896211697 0.0413893997434286 81.1713519112425 
! Gamma         0                0                0                0                
! Port Impedance         50               0                50               0                
11.9                           0.0417287969508457 81.1331942898705 0.997143857218066 -6.13633235985504 0.997143857218064 -6.13633235985504 0.041728837296998 81.1321057768209 
! Gamma         0                0                0                0                
! Port Impedance         50               0                50               0                
12                             0.0420681587256122 81.0938046000048 0.997122127177706 -6.18732298662986 0.997122127177704 -6.18732298662985 0.0420681996208407 81.0927066613346 
! Gamma         0                0                0                0                
! Port Impedance         50               0                50               0                
12.1                           0.0424074447648386 81.0542640235736 0.997100314029384 -6.23831083396623 0.997100314029382 -6.23831083396622 0.0424074862118766 81.0531566581702 
! Gamma         0                0                0                0                
! Port Impedance         50               0                50               0                
12.2                           0.0427466545418222 81.0145746351257 0.997078416399015 -6.28929589178341 0.997078416399013 -6.2892958917834 0.0427466965434066 81.0134578418979 
! Gamma         0                0                0                0                
! Port Impedance         50               0                50               0                
12.3                           0.04308578750762 80.9747384901444 0.997056432945867 -6.34027814847785 0.997056432945865 -6.34027814847784 0.0430858300664914 80.9736122680214 
! Gamma         0                0                0                0                
! Port Impedance         50               0                50               0                
12.4                           0.0434248430923594 80.9347576248141 0.99703436236193 -6.39125759100191 0.997034362361928 -6.3912575910019 0.0434248862112629 80.933621972744  
! Gamma         0                0                0                0                
! Port Impedance         50               0                50               0                
12.5                           0.0437638207064833 80.8946340558045 0.997012203371272 -6.44223420493902 0.99701220337127 -6.44223420493901 0.0437638643881688 80.8934889727537 
! Gamma         0                0                0                0                
! Port Impedance         50               0                50               0                
12.6                           0.0441027197419323 80.8543697800731 0.99698995472941 -6.49320797457524 0.996989954729408 -6.49320797457523 0.0441027639891549 80.8532152650247 
! Gamma         0                0                0                0                
! Port Impedance         50               0                50               0                
12.7                           0.0444415395732673 80.8139667746861 0.996967615222663 -6.54417888296747 0.996967615222661 -6.54417888296745 0.0444415843887879 80.8128028266392 
! Gamma         0                0                0                0                
! Port Impedance         50               0                50               0                
12.8                           0.0447802795587362 80.7734269966588 0.996945183667527 -6.59514691200841 0.996945183667525 -6.5951469120084 0.0447803249453216 80.7722536146275 
! Gamma         0                0                0                0                
! Port Impedance         50               0                50               0                
12.9                           0.0451189390412855 80.7327523828136 0.99692265891004 -6.6461120424885 0.996922658910038 -6.64611204248849 0.0451189850017091 80.7315695658261 
! Gamma         0                0                0                0                
! Port Impedance         50               0                50               0                
13                             0.0454575173495215 80.6919448496581 0.996900039825155 -6.69707425415485 0.996900039825153 -6.69707425415484 0.0454575638865633 80.6907525967553 
! Gamma         0                0                0                0                
! Port Impedance         50               0                50               0                
13.1                           0.0457960137986225 80.6510062932802 0.996877325316122 -6.7480335257674 0.99687732531612 -6.74803352576739 0.0457960609150696 80.6498046035155 
! Gamma         0                0                0                0                
! Port Impedance         50               0                50               0                
13.2                           0.046134427691204 80.6099385892624 0.996854514313873 -6.7989898351524 0.996854514313871 -6.79898983515238 0.046134475389851 80.6087274617003 
! Gamma         0                0                0                0                
! Port Impedance         50               0                50               0                
13.3                           0.0464727583181407 80.5687435926131 0.996831605776413 -6.84994315925329 0.996831605776412 -6.84994315925327 0.0464728066017897 80.5675230263287 
! Gamma         0                0                0                0                
! Port Impedance         50               0                50               0                
13.4                           0.046811004959346 80.5274231377154 0.996808598688221 -6.90089347417919 0.996808598688219 -6.90089347417917 0.0468110538308071 80.5261931317932 
! Gamma         0                0                0                0                
! Port Impedance         50               0                50               0                
13.5                           0.0471491668845115 80.4859790382924 0.996785492059656 -6.95184075525106 0.996785492059654 -6.95184075525104 0.047149216346603 80.4847395918261 
! Gamma         0                0                0                0                
! Port Impedance         50               0                50               0                
13.6                           0.047487243353809 80.4444130873888 0.996762284926374 -7.00278497704555 0.996762284926372 -7.00278497704553 0.0474872934093577 80.4431641994801 
! Gamma         0                0                0                0                
! Port Impedance         50               0                50               0                
13.7                           0.0478252336185564 80.4027270573679 0.996738976348755 -7.05372611343687 0.996738976348753 -7.05372611343684 0.0478252842703976 80.401468727126  
! Gamma         0                0                0                0                
! Port Impedance         50               0                50               0                
13.8                           0.048163136921849 80.3609226999236 0.996715565411332 -7.10466413763648 0.99671556541133 -7.10466413763646 0.0481631881728269 80.3596549264644 
! Gamma         0                0                0                0                
! Port Impedance         50               0                50               0                
13.9                           0.0485009524991584 80.3190017461063 0.996692051222239 -7.15559902223102 0.996692051222237 -7.155599022231  0.0485010043521264 80.3177245285519 
! Gamma         0                0                0                0                
! Port Impedance         50               0                50               0                
14                             0.0488386795789011 80.2769659063632 0.996668432912661 -7.20653073921826 0.996668432912659 -7.20653073921824 0.0488387320367217 80.2756792438411 
! Gamma         0                0                0                0                
! Port Impedance         50               0                50               0                
14.1                           0.0491763173829768 80.2348168705904 0.996644709636298 -7.25745926004137 0.996644709636296 -7.25745926004134 0.0491763704485217 80.233520762233  
! Gamma         0                0                0                0                
! Port Impedance         50               0                50               0                
14.2                           0.0495138651272792 80.1925563081986 0.996620880568837 -7.30838455562148 0.996620880568836 -7.30838455562146 0.04951391880343 80.1912507531426 
! Gamma         0                0                0                0                
! Port Impedance         50               0                50               0                
14.3                           0.0498513220221807 80.1501858681893 0.996596944907436 -7.35930659638874 0.996596944907435 -7.35930659638871 0.0498513763118284 80.1488708655751 
! Gamma         0                0                0                0                
! Port Impedance         50               0                50               0                
14.4                           0.0501886872729912 80.107707179243  0.996572901870215 -7.41022535231171 0.996572901870213 -7.41022535231169 0.0501887421790368 80.1063827282142 
! Gamma         0                0                0                0                
! Port Impedance         50               0                50               0                
14.5                           0.0505259600803935 80.065121849817  0.996548750695759 -7.46114079292547 0.996548750695757 -7.46114079292544 0.0505260156057478 80.06378794952   
! Gamma         0                0                0                0                
! Port Impedance         50               0                50               0                
14.6                           0.0508631396408557 80.0224314682536 0.996524490642631 -7.5120528873582 0.99652449064263 -7.51205288735817 0.0508631957884396 80.0210881178368 
! Gamma         0                0                0                0                
! Port Impedance         50               0                50               0                
14.7                           0.0512002251470226 79.9796376028972 0.9965001209889  -7.56296160435657 0.996500120988898 -7.56296160435654 0.0512002819197669 79.9782848015108 
! Gamma         0                0                0                0                
! Port Impedance         50               0                50               0                
14.8                           0.0515372157880854 79.9367418022197 0.996475641031665 -7.61386691230983 0.996475641031664 -7.61386691230981 0.0515372731889314 79.9353795490152 
! Gamma         0                0                0                0                
! Port Impedance         50               0                50               0                
14.9                           0.0518741107501336 79.8937455949545 0.996451050086609 -7.6647687792727 0.996451050086607 -7.66476877927267 0.0518741687820327 79.8923738890841 
! Gamma         0                0                0                0                
! Port Impedance         50               0                50               0                
15                             0.0522109092164871 79.8506504902375 0.996426347487544 -7.71566717298713 0.996426347487543 -7.7156671729871 0.052210967882401 79.8492693308541 
! Gamma         0                0                0                0                
! Port Impedance         50               0                50               0                
15.1                           0.052547610368011 79.8074579777556 0.996401532585981 -7.76656206090299 0.99640153258598 -7.76656206090296 0.052547669670912 79.8060673640117 
! Gamma         0                0                0                0                
! Port Impedance         50               0                50               0                
15.2                           0.0528842133834146 79.7641695279004 0.996376604750699 -7.81745341019774 0.996376604750697 -7.81745341019771 0.0528842733262854 79.7627694589483 
! Gamma         0                0                0                0                
! Port Impedance         50               0                50               0                
15.3                           0.0532207174395339 79.7207865919294 0.996351563367329 -7.86834118779512 0.996351563367327 -7.8683411877951 0.0532207780253674 79.7193770669208 
! Gamma         0                0                0                0                
! Port Impedance         50               0                50               0                
15.4                           0.0535571217115984 79.6773106021313 0.99632640783795 -7.91922536038287 0.996326407837948 -7.91922536038284 0.0535571829433983 79.6758916202167 
! Gamma         0                0                0                0                
! Port Impedance         50               0                50               0                
15.5                           0.0538934253734854 79.6337429719972 0.996301137580687 -7.9701058944296 0.996301137580685 -7.97010589442956 0.0538934872542658 79.6323145323256 
! Gamma         0                0                0                0                
! Port Impedance         50               0                50               0                
15.6                           0.0542296275979592 79.5900850963956 0.996275752029326 -8.02098275620078 0.996275752029324 -8.02098275620075 0.0542296901307448 79.5886471981144 
! Gamma         0                0                0                0                
! Port Impedance         50               0                50               0                
15.7                           0.0545657275568983 79.546338351752  0.996250250632932 -8.07185591177402 0.996250250632931 -8.07185591177399 0.0545657907447243 79.5448909940065 
! Gamma         0                0                0                0                
! Port Impedance         50               0                50               0                
15.8                           0.0549017244215101 79.5025040962322 0.996224632855483 -8.12272532705342 0.996224632855481 -8.12272532705339 0.0549017882674223 79.5010472781652 
! Gamma         0                0                0                0                
! Port Impedance         50               0                50               0                
15.9                           0.055237617362534 79.4585836699283 0.996198898175505 -8.17359096778334 0.996198898175503 -8.17359096778331 0.0552376818695888 79.4571173906803 
! Gamma         0                0                0                0                
! Port Impedance         50               0                50               0                
16                             0.055573405550434 79.4145783950488 0.996173046085723 -8.22445279956139 0.996173046085721 -8.22445279956136 0.0555734707216981 79.4131026537571 
! Gamma         0                0                0                0                
! Port Impedance         50               0                50               0                
16.1                           0.0559090881555798 79.3704895761102 0.996147076092714 -8.2753107878508 0.996147076092712 -8.27531078785077 0.0559091539941306 79.369004371909  
! Gamma         0                0                0                0                
! Port Impedance         50               0                50               0                
16.2                           0.0562446643484194 79.3263185001312 0.996120987716576 -8.32616489799212 0.996120987716575 -8.32616489799209 0.0562447308573447 79.3248238321515 
! Gamma         0                0                0                0                
! Port Impedance         50               0                50               0                
16.3                           0.056580133299641 79.2820664368297 0.9960947804906  -8.37701509521438 0.996094780490599 -8.37701509521434 0.0565802004820391 79.2805623041986 
! Gamma         0                0                0                0                
! Port Impedance         50               0                50               0                
16.4                           0.0569154941803272 79.23773463882   0.996068453960948 -8.42786134464561 0.996068453960947 -8.42786134464558 0.0569155620393068 79.2362210406611 
! Gamma         0                0                0                0                
! Port Impedance         50               0                50               0                
16.5                           0.0572507461620995 79.1933243418127 0.996042007686348 -8.47870361132289 0.996042007686347 -8.47870361132286 0.0572508147007798 79.1918012772453 
! Gamma         0                0                0                0                
! Port Impedance         50               0                50               0                
16.6                           0.057585888417256 79.1488367648152 0.996015441237786 -8.52954186020179 0.996015441237785 -8.52954186020175 0.0575859576387661 79.1473042329544 
! Gamma         0                0                0                0                
! Port Impedance         50               0                50               0                
16.7                           0.0579209201189002 79.1042731103328 0.995988754198214 -8.58037605616542 0.995988754198213 -8.58037605616539 0.05792099002638 79.1027311102892 
! Gamma         0                0                0                0                
! Port Impedance         50               0                50               0                
16.8                           0.0582558404410639 79.0596345645709 0.995961946162262 -8.63120616403295 0.995961946162261 -8.63120616403292 0.0582559110376633 79.0580830954506 
! Gamma         0                0                0                0                
! Port Impedance         50               0                50               0                
16.9                           0.0585906485588224 79.0149222976377 0.995935016735956 -8.68203214856769 0.995935016735955 -8.68203214856766 0.0585907198477013 79.0133613585419 
! Gamma         0                0                0                0                
! Port Impedance         50               0                50               0                
17                             0.058925343648403 78.9701374637466 0.995907965536449 -8.73285397448475 0.995907965536447 -8.73285397448472 0.0589254156327315 78.9685670537715 
! Gamma         0                0                0                0                
! Port Impedance         50               0                50               0                
17.1                           0.0592599248872882 78.9252812014191 0.995880792191747 -8.78367160645832 0.995880792191746 -8.78367160645829 0.0592599975702465 78.9237013196559 
! Gamma         0                0                0                0                
! Port Impedance         50               0                50               0                
17.2                           0.0595943914543124 78.8803546336873 0.995853496340458 -8.83448500912852 0.995853496340456 -8.8344850091285 0.0595944648390906 78.8787652792219 
! Gamma         0                0                0                0                
! Port Impedance         50               0                50               0                
17.3                           0.059928742529753 78.8353588682963 0.995826077631533 -8.88529414710795 0.995826077631532 -8.88529414710792 0.0599288166195511 78.833760040209  
! Gamma         0                0                0                0                
! Port Impedance         50               0                50               0                
17.4                           0.0602629772954167 78.7902949979056 0.995798535724027 -8.9360989849878 0.995798535724026 -8.93609898498777 0.0602630520934444 78.7886866952714 
! Gamma         0                0                0                0                
! Port Impedance         50               0                50               0                
17.5                           0.0605970949347204 78.7451641002905 0.995770870286849 -8.98689948734372 0.995770870286848 -8.9868994873437 0.060597170444197 78.7435463221787 
! Gamma         0                0                0                0                
! Port Impedance         50               0                50               0                
17.6                           0.0609310946327674 78.6999672385425 0.995743080998537 -9.03769561874132 0.995743080998537 -9.03769561874129 0.0609311708569219 78.6983399840164 
! Gamma         0                0                0                0                
! Port Impedance         50               0                50               0                
17.7                           0.061264975576419 78.6547054612683 0.995715167547028 -9.0884873437414 0.995715167547027 -9.08848734374138 0.0612650525184902 78.6530687293855 
! Gamma         0                0                0                0                
! Port Impedance         50               0                50               0                
17.8                           0.0615987369543627 78.6093798027887 0.995687129629434 -9.13927462690488 0.995687129629433 -9.13927462690485 0.0615988146175983 78.6077335926007 
! Gamma         0                0                0                0                
! Port Impedance         50               0                50               0                
17.9                           0.0619323779571749 78.5639912833355 0.995658966951827 -9.19005743279743 0.995658966951826 -9.19005743279741 0.0619324563448323 78.5623355938876 
! Gamma         0                0                0                0                
! Port Impedance         50               0                50               0                
18                             0.0622658977773807 78.5185409092474 0.995630679229032 -9.24083572599393 0.995630679229031 -9.24083572599391 0.0622659768927264 78.5168757395788 
! Gamma         0                0                0                0                
! Port Impedance         50               0                50               0                
18.1                           0.0625992956095103 78.4730296731651 0.995602266184418 -9.29160947108258 0.995602266184417 -9.29160947108256 0.0625993754558198 78.4713550223087 
! Gamma         0                0                0                0                
! Port Impedance         50               0                50               0                
18.2                           0.0629325706501509 78.4274585542242 0.995573727549699 -9.34237863266884 0.995573727549699 -9.34237863266883 0.0629326512307089 78.4257744212065 
! Gamma         0                0                0                0                
! Port Impedance         50               0                50               0                
18.3                           0.0632657220979965 78.3818285182468 0.995545063064743 -9.39314317537915 0.995545063064742 -9.39314317537913 0.0632658034160964 78.3801349020877 
! Gamma         0                0                0                0                
! Port Impedance         50               0                50               0                
18.4                           0.0635987491538937 78.3361405179319 0.995516272477377 -9.44390306386437 0.995516272477376 -9.44390306386435 0.0635988312128379 78.334437417645  
! Gamma         0                0                0                0                
! Port Impedance         50               0                50               0                
18.5                           0.0639316510208852 78.2903954930438 0.995487355543207 -9.49465826280314 0.995487355543207 -9.49465826280313 0.0639317338239845 78.2886829076359 
! Gamma         0                0                0                0                
! Port Impedance         50               0                50               0                
18.6                           0.0642644269042499 78.2445943705987 0.99545831202544 -9.54540873690494 0.99545831202544 -9.54540873690493 0.0642645104548238 78.2428722990701 
! Gamma         0                0                0                0                
! Port Impedance         50               0                50               0                
18.7                           0.064597076011541 78.1987380650499 0.995429141694703 -9.596154450913  0.995429141694702 -9.59615445091299 0.0645971603129175 78.1970065063938 
! Gamma         0                0                0                0                
! Port Impedance         50               0                50               0                
18.8                           0.0649295975526213 78.1528274784706 0.995399844328876 -9.64689536960707 0.995399844328875 -9.64689536960706 0.0649296826081366 78.1510864316738 
! Gamma         0                0                0                0                
! Port Impedance         50               0                50               0                
18.9                           0.0652619907396958 78.1068635007356 0.995370419712927 -9.697631457806  0.995370419712927 -9.69763145780599 0.0652620765526942 78.1051129647779 
! Gamma         0                0                0                0                
! Port Impedance         50               0                50               0                
19                             0.0655942547873427 78.0608470097005 0.995340867638751 -9.74836268037015 0.995340867638751 -9.74836268037014 0.0655943413611768 78.0590869835548 
! Gamma         0                0                0                0                
! Port Impedance         50               0                50               0                
19.1                           0.065926388912542 78.0147788713791 0.995311187905007 -9.79908900220366 0.995311187905007 -9.79908900220365 0.0659264762505721 78.0130093540113 
! Gamma         0                0                0                0                
! Port Impedance         50               0                50               0                
19.2                           0.0662583923347018 77.9686599401187 0.995281380316973 -9.84981038825663 0.995281380316972 -9.84981038825662 0.0662584804402961 77.9668809304878 
! Gamma         0                0                0                0                
! Port Impedance         50               0                50               0                
19.3                           0.066590264275683 77.9224910587741 0.995251444686387 -9.90052680352709 0.995251444686387 -9.90052680352708 0.0665903531522173 77.920702555832  
! Gamma         0                0                0                0                
! Port Impedance         50               0                50               0                
19.4                           0.0669220039598224 77.8762730588782 0.995221380831313 -9.95123821306287 0.995221380831312 -9.95123821306287 0.06692209361068 77.8744750615699 
! Gamma         0                0                0                0                
! Port Impedance         50               0                50               0                
19.5                           0.0672536106139534 77.8300067608122 0.995191188575986 -10.0019445819634 0.995191188575986 -10.0019445819634 0.0672537010425252 77.8281992680754 
! Gamma         0                0                0                0                
! Port Impedance         50               0                50               0                
19.6                           0.0675850834674261 77.7836929739722 0.995160867750687 -10.0526458753812 0.995160867750687 -10.0526458753812 0.0675851746771099 77.7818759847376 
! Gamma         0                0                0                0                
! Port Impedance         50               0                50               0                
19.7                           0.0679164217521246 77.737332496935  0.9951304181916  -10.1033420585238 0.9951304181916  -10.1033420585238 0.0679165137463257 77.7355060101261 
! Gamma         0                0                0                0                
! Port Impedance         50               0                50               0                
19.8                           0.0682476247024843 77.6909261176207 0.995099839740681 -10.1540330966546 0.995099839740681 -10.1540330966546 0.0682477174846147 77.6890901321539 
! Gamma         0                0                0                0                
! Port Impedance         50               0                50               0                
19.9                           0.0685786915555064 77.6444746134543 0.995069132245537 -10.2047189550947 0.995069132245537 -10.2047189550947 0.0685787851289851 77.6426291282386 
! Gamma         0                0                0                0                
! Port Impedance         50               0                50               0                
20                             0.0689096215507722 77.597978751524  0.995038295559294 -10.2553995992237 0.995038295559294 -10.2553995992237 0.0689097159190247 77.5961237654615 
! Gamma         0                0                0                0                
! Port Impedance         50               0                50               0                
