! Touchstone file exported from HFSS 2026.1.0
!        File:           C:/ffzhzh/LocalFiles/Ansys_Project_Files/temp_train_TSV_1288_1783194453_55132.aedt
!        Generated:      03:48:45 AM Jul  5, 2026
!        Design:         TSV
!        Project:        temp_train_TSV_1288_1783194453_55132
!
! Variables:
!        h_bsmrdl = 2um
!        h_ox = 20um
!        h_rdl = 5um
!        h_sub = 64.98um
!        h_tmrdl = 5um
!        h_tsv = 64.98um
!        h_via = 3um
!        l_bsmrdl = 300um
!        l_sub = 425.6um
!        l_tmrdl = 200um
!        m_sub = 200um
!        pitch = 27.75um
!        r_tsv = 12.8um
!        s_tmrdl = 10um
!        w_bsmrdl = 18um
!        w_sub = 500um
!        w_tmrdl = 12um
!        x_tsv_center1 = 206um
!        x_tsv_center2 = 524um
!        x_tsv_center3 = 736um
!        x_tsv_center4 = 1054um
!        x_tsv_center5 = 1266um
!        x_tsv_center6 = 1584um
!
# GHz S MA R 50.000000
! Terminal data exported
! Port[1] = TSV1_1_T1
! Port[2] = TSV1_1_T2
0.1                            0.000684740870569057 -82.0107106449186 0.999903940108101 -0.0557080635383288 0.999903940108098 -0.0557080635382868 0.000684740921819138 -82.0107078560055 
! Gamma         0                0                0                0                
! Port Impedance         50               0                50               0                
0.2                            0.00136749205026561 -85.1877163189724 0.999881914558228 -0.11105605138027 0.999881914558225 -0.111056051380187 0.00136749203398008 -85.1877145276734 
! Gamma         0                0                0                0                
! Port Impedance         50               0                50               0                
0.3                            0.00206256015160208 -86.057101269044 0.999850458103384 -0.165820805262137 0.999850458103381 -0.16582080526202 0.0020625599537369 -86.0570957511244 
! Gamma         0                0                0                0                
! Port Impedance         50               0                50               0                
0.4                            0.00276912875240697 -86.4546031846566 0.999814667560017 -0.219956287605805 0.999814667560016 -0.21995628760566 0.00276912833748561 -86.454591274431 
! Gamma         0                0                0                0                
! Port Impedance         50               0                50               0                
0.5                            0.00348528709064483 -86.7265942356057 0.999778455054109 -0.273542075750253 0.999778455054108 -0.273542075750089 0.00348528651589498 -86.7265750167856 
! Gamma         0                0                0                0                
! Port Impedance         50               0                50               0                
0.6                            0.00420853740377756 -86.9638424165406 0.999744086364493 -0.326707771388801 0.999744086364493 -0.326707771388628 0.00420853678195027 -86.9638161765217 
! Gamma         0                0                0                0                
! Port Impedance         50               0                50               0                
0.7                            0.00493658917972126 -87.1893700820442 0.99971249348177 -0.379580429412312 0.99971249348177 -0.379580429412137 0.00493658863709094 -87.1893376754726 
! Gamma         0                0                0                0                
! Port Impedance         50               0                50               0                
0.8                            0.00566767714765745 -87.4068267948025 0.999683785256676 -0.432262059357082 0.999683785256677 -0.432262059356912 0.00566767679790763 -87.406789203698 
! Gamma         0                0                0                0                
! Port Impedance         50               0                50               0                
0.9                            0.0064005687941189 -87.6151525766743 0.999657661223623 -0.484826187519882 0.999657661223624 -0.484826187519722 0.00640056872806395 -87.6151106902888 
! Gamma         0                0                0                0                
! Port Impedance         50               0                50               0                
1                              0.00713445560911685 -87.8129253879001 0.999633668845316 -0.537322396231912 0.999633668845317 -0.537322396231765 0.00713445589393147 -87.8128799265688 
! Gamma         0                0                0                0                
! Port Impedance         50               0                50               0                
1.1                            0.00786883076271841 -87.9993866071577 0.999611338438814 -0.589782588524277 0.999611338438816 -0.589782588524145 0.00786883144528741 -87.9993381183878 
! Gamma         0                0                0                0                
! Port Impedance         50               0                50               0                
1.2                            0.00860338943976482 -88.1744673680163 0.99959024319011 -0.642226479731012 0.999590243190112 -0.642226479730895 0.00860339055108482 -88.1744162508562 
! Gamma         0                0                0                0                
! Port Impedance         50               0                50               0                
1.3                            0.00933795729766499 -88.3385840681999 0.999570019276952 -0.69466571466076 0.999570019276954 -0.694665714660659 0.00933795885693474 -88.3385306041516 
! Gamma         0                0                0                0                
! Port Impedance         50               0                50               0                
1.4                            0.0100724422229063 -88.492435179451 0.999550367048706 -0.747106732134465 0.999550367048709 -0.747106732134378 0.0100724442408644 -88.4923795609619 
! Gamma         0                0                0                0                
! Port Impedance         50               0                50               0                
1.5                            0.0108068028710007 -88.6368522027371 0.999531044429237 -0.799552680061494 0.999531044429239 -0.799552680061422 0.0108068053524809 -88.6367945565136 
! Gamma         0                0                0                0                
! Port Impedance         50               0                50               0                
1.6                            0.011541028533909 -88.7727034312948 0.999511858003869 -0.852004667334531 0.999511858003872 -0.852004667334473 0.0115410314797303 -88.7726438363076 
! Gamma         0                0                0                0                
! Port Impedance         50               0                50               0                
1.7                            0.0122751264024698 -88.9008369827983 0.999492654225093 -0.904462571366752 0.999492654225095 -0.904462571366707 0.0122751298108081 -88.9007754837643 
! Gamma         0                0                0                0                
! Port Impedance         50               0                50               0                
1.8                            0.0130091135741305 -89.0220500317732 0.999473311669657 -0.956925554374028 0.999473311669659 -0.956925554373996 0.0130091174415043 -89.0219866490801 
! Gamma         0                0                0                0                
! Port Impedance         50               0                50               0                
1.9                            0.0137430120795716 -89.1370744722519 0.999453734581078 -1.00939239094315 0.99945373458108 -1.00939239094313 0.0137430164015459 -89.1370092091955 
! Gamma         0                0                0                0                
! Port Impedance         50               0                50               0                
2                              0.0144768458221487 -89.2465724030633 0.999433847634532 -1.0618616740313 0.999433847634534 -1.06186167403129 0.0144768505938365 -89.2465052511004 
! Gamma         0                0                0                0                
! Port Impedance         50               0                50               0                
2.1                            0.0152106387269849 -89.3511371967386 0.999413591755613 -1.11433194287047 0.999413591755616 -1.11433194287047 0.0152106439434049 -89.3510681392899 
! Gamma         0                0                0                0                
! Port Impedance         50               0                50               0                
2.2                            0.0159444136538842 -89.4512975247498 0.999392920804962 -1.16680176078516 0.999392920804964 -1.16680176078517 0.0159444193102135 -89.451226539951 
! Gamma         0                0                0                0                
! Port Impedance         50               0                50               0                
2.3                            0.0166781917913736 -89.5475227565683 0.999371798956302 -1.21926976094331 0.999371798956304 -1.21926976094332 0.0166781978831273 -89.5474498192581 
! Gamma         0                0                0                0                
! Port Impedance         50               0                50               0                
2.4                            0.0174119923523868 -89.6402288079839 0.999350198622216 -1.2717346716403 0.999350198622218 -1.27173467164032 0.0174119988755434 -89.6401538911393 
! Gamma         0                0                0                0                
! Port Impedance         50               0                50               0                
2.5                            0.0181458324574323 -89.7297839201352 0.999328098809665 -1.32419532859356 0.999328098809667 -1.32419532859358 0.0181458394085201 -89.7297069959059 
! Gamma         0                0                0                0                
! Port Impedance         50               0                50               0                
2.6                            0.0188797271325535 -89.8165140968385 0.999305483811887 -1.37665067907407 0.999305483811889 -1.3766506790741 0.0188797345087088 -89.8164351372879 
! Gamma         0                0                0                0                
! Port Impedance         50               0                50               0                
2.7                            0.0196136893757887 -89.9007080741549 0.999282342163675 -1.42909978099314 0.999282342163676 -1.42909978099317 0.0196136971747923 -89.9006270517888 
! Gamma         0                0                0                0                
! Port Impedance         50               0                50               0                
2.8                            0.0203477302626939 -89.9826217809763 0.999258665803367 -1.48154179895743 0.999258665803369 -1.48154179895746 0.0203477384829919 -89.9825386691145 
! Gamma         0                0                0                0                
! Port Impedance         50               0                50               0                
2.9                            0.0210818590722939 -90.0624822967287 0.999234449397658 -1.53397599858993 0.99923444939766 -1.53397599858997 0.0210818677130063 -90.0623970697616 
! Gamma         0                0                0                0                
! Port Impedance         50               0                50               0                
3                              0.0218160834217549 -90.1404913370294 0.999209689795206 -1.58640173994848 0.999209689795208 -1.58640173994853 0.0218160924826748 -90.1404039705901 
! Gamma         0                0                0                0                
! Port Impedance         50               0                50               0                
3.1                            0.0225504094025268 -90.2168283094895 0.999184385582672 -1.6388184705708 0.999184385582673 -1.63881847057085 0.0225504188841125 -90.2167387805625 
! Gamma         0                0                0                0                
! Port Impedance         50               0                50               0                
3.2                            0.0232848417135606 -90.2916529854713 0.999158536722625 -1.69122571847764 0.999158536722626 -1.69122571847769 0.0232848516169218 -90.2915612724554 
! Gamma         0                0                0                0                
! Port Impedance         50               0                50               0                
3.3                            0.0240193837890383 -90.3651078329351 0.999132144257278 -1.74362308533705 0.99913214425728 -1.7436230853371 0.0240193941159175 -90.365013915671 
! Gamma         0                0                0                0                
! Port Impedance         50               0                50               0                
3.4                            0.0247540379192174 -90.4373200525854 0.999105210065439 -1.79601023990953 0.99910521006544 -1.79601023990958 0.0247540486719684 -90.4372239123582 
! Gamma         0                0                0                0                
! Port Impedance         50               0                50               0                
3.5                            0.0254888053637326 -90.5084033556018 0.999077736662719 -1.84838691184005 0.99907773666272 -1.8483869118401 0.025488816545296 -90.5083049751243 
! Gamma         0                0                0                0                
! Port Impedance         50               0                50               0                
3.6                            0.0262236864571533 -90.5784595169941 0.999049727037121 -1.90075288582834 0.999049727037122 -1.90075288582839 0.0262236980710289 -90.5783588803764 
! Gamma         0                0                0                0                
! Port Impedance         50               0                50               0                
3.7                            0.0269586807068756 -90.6475797344658 0.999021184513691 -1.95310799618726 0.999021184513692 -1.9531079961873 0.0269586927570944 -90.6474768271741 
! Gamma         0                0                0                0                
! Port Impedance         50               0                50               0                
3.8                            0.0276937868835963 -90.715845818796 0.99899211264316 -2.00545212178547 0.998992112643161 -2.00545212178551 0.0276937993746906 -90.7157406276045 
! Gamma         0                0                0                0                
! Port Impedance         50               0                50               0                
3.9                            0.028429003104704 -90.7833312382544 0.998962515110511 -2.05778518136279 0.998962515110512 -2.05778518136282 0.0284290160416765 -90.7832237511921 
! Gamma         0                0                0                0                
! Port Impedance         50               0                50               0                
4                              0.0291643269109703 -90.8501020364664 0.998932395660119 -2.11010712920162 0.99893239566012 -2.11010712920166 0.029164340299263 -90.8499922427605 
! Gamma         0                0                0                0                
! Port Impedance         50               0                50               0                
4.1                            0.0298997553369417 -90.9162176404426 0.998901758034754 -2.16241795113613 0.998901758034755 -2.16241795113616 0.0298997691824044 -90.9161055304594 
! Gamma         0                0                0                0                
! Port Impedance         50               0                50               0                
4.2                            0.0306352849754312 -90.9817315731437 0.998870605926205 -2.21471766087924 0.998870605926206 -2.21471766087927 0.0306352992842903 -90.9816171383287 
! Gamma         0                0                0                0                
! Port Impedance         50               0                50               0                
4.3                            0.0313709120365004 -91.0466920829369 0.998838942935672 -2.26700629664801 0.998838942935672 -2.26700629664803 0.0313709268153274 -91.0465753157544 
! Gamma         0                0                0                0                
! Port Impedance         50               0                50               0                
4.4                            0.0321066324013049 -91.1111427005716 0.998806772542373 -2.31928391806802 0.998806772542373 -2.31928391806804 0.0321066476569859 -91.1110235944452 
! Gamma         0                0                0                0                
! Port Impedance         50               0                50               0                
4.5                            0.03284244167116 -91.1751227328262 0.998774098079091 -2.37155060333837 0.998774098079091 -2.37155060333839 0.0328424574108655 -91.1750012820788 
! Gamma         0                0                0                0                
! Port Impedance         50               0                50               0                
4.6                            0.0335783352121621 -91.2386677007113 0.99874092271355 -2.42380644663956 0.998740922713551 -2.42380644663957 0.0335783514433178 -91.2385439005077 
! Gamma         0                0                0                0                
! Port Impedance         50               0                50               0                
4.7                            0.0343143081956839 -91.3018097290431 0.998707249434724 -2.47605155576766 0.998707249434725 -2.47605155576767 0.034314324925942 -91.3016835753333 
! Gamma         0                0                0                0                
! Port Impedance         50               0                50               0                
4.8                            0.0350503556350414 -91.3645778932761 0.998673081043283 -2.528286049979  0.998673081043284 -2.52828604997901 0.0350503728722534 -91.3644493827407 
! Gamma         0                0                0                0                
! Port Impedance         50               0                50               0                
4.9                            0.0357864724186129 -91.426998528702 0.998638420145517 -2.58051005803052 0.998638420145517 -2.58051005803052 0.0357864901708033 -91.4268676586988 
! Gamma         0                0                0                0                
! Port Impedance         50               0                50               0                
5                              0.0365226533396751 -91.4890955064461 0.998603269150183 -2.63272371640192 0.998603269150184 -2.63272371640192 0.0365226716150158 -91.4889622749597 
! Gamma         0                0                0                0                
! Port Impedance         50               0                50               0                
5.1                            0.037258893123202 -91.5508904801209 0.998567630267769 -2.68492716768646 0.99856763026777 -2.68492716768646 0.0372589119299888 -91.5507548857137 
! Gamma         0                0                0                0                
! Port Impedance         50               0                50               0                
5.2                            0.0379951864498607 -91.6124031065009 0.998531505511776 -2.73712055913804 0.998531505511777 -2.73712055913803 0.0379952057964906 -91.6122651482663 
! Gamma         0                0                0                0                
! Port Impedance         50               0                50               0                
5.3                            0.0387315279774224 -91.6736512431571 0.99849489670165 -2.78930404136312 0.998494896701651 -2.78930404136311 0.0387315478723716 -91.6735109206754 
! Gamma         0                0                0                0                
! Port Impedance         50               0                50               0                
5.4                            0.039467912359792 -91.7346511256273 0.998457805467066 -2.84147776714651 0.998457805467067 -2.8414777671465 0.0394679328115962 -91.7345084389234 
! Gamma         0                0                0                0                
! Port Impedance         50               0                50               0                
5.5                            0.0402043342638502 -91.7954175263823 0.998420233253292 -2.89364189040078 0.998420233253293 -2.89364189040077 0.0402043552810858 -91.7952724758856 
! Gamma         0                0                0                0                
! Port Impedance         50               0                50               0                
5.6                            0.0409407883842872 -91.8559638975726 0.998382181327414 -2.94579656522987 0.998382181327415 -2.94579656522985 0.0409408099755534 -91.8558164840794 
! Gamma         0                0                0                0                
! Port Impedance         50               0                50               0                
5.7                            0.0416772694565966 -91.9163024993093 0.998343650785218 -2.99794194509764 0.998343650785219 -2.99794194509761 0.0416772916304991 -91.9161527239469 
! Gamma         0                0                0                0                
! Port Impedance         50               0                50               0                
5.8                            0.0424137722683866 -91.9764445150229 0.998304642558571 -3.05007818209321 0.998304642558572 -3.05007818209319 0.0424137950335227 -91.9762923792165 
! Gamma         0                0                0                0                
! Port Impedance         50               0                50               0                
5.9                            0.0431502916691569 -92.036400155268 0.998265157423155 -3.10220542628496 0.998265157423156 -3.10220542628493 0.0431503150341015 -92.0362456607088 
! Gamma         0                0                0                0                
! Port Impedance         50               0                50               0                
6                              0.0438868225786771 -92.0961787511845 0.998225196006433 -3.15432382515583 0.998225196006435 -3.1543238251558 0.0438868465519699 -92.0960218998006 
! Gamma         0                0                0                0                
! Port Impedance         50               0                50               0                
6.1                            0.0446233599940945 -92.1557888386913 0.998184758795745 -3.20643352311312 0.998184758795747 -3.20643352311309 0.0446233845842287 -92.1556296326198 
! Gamma         0                0                0                0                
! Port Impedance         50               0                50               0                
6.2                            0.0453598989958913 -92.2152382343663 0.99814384614644 -3.25853466106617 0.998143846146441 -3.25853466106613 0.0453599242113027 -92.2150766759281 
! Gamma         0                0                0                0                
! Port Impedance         50               0                50               0                
6.3                            0.0460964347527997 -92.2745341038652 0.998102458289986 -3.31062737606596 0.998102458289987 -3.31062737606592 0.0460964606018575 -92.2743701955408 
! Gamma         0                0                0                0                
! Port Impedance         50               0                50               0                
6.4                            0.046832962525778 -92.3336830236361 0.998060595341982 -3.36271180100104 0.998060595341984 -3.362711801001  0.0468329890167764 -92.3335167680436 
! Gamma         0                0                0                0                
! Port Impedance         50               0                50               0                
6.5                            0.0475694776711428 -92.392691036607 0.998018257310035 -3.41478806434452 0.998018257310036 -3.41478806434448 0.0475695048122932 -92.3925224364813 
! Gamma         0                0                0                0                
! Port Impedance         50               0                50               0                
6.6                            0.0483059756429421 -92.4515637024514 0.997975444101441 -3.46685628994726 0.997975444101443 -3.46685628994722 0.0483060034423668 -92.4513927606257 
! Gamma         0                0                0                0                
! Port Impedance         50               0                50               0                
6.7                            0.0490424519946527 -92.5103061429731 0.997932155530672 -3.51891659687287 0.997932155530673 -3.51891659687282 0.0490424804603789 -92.5101328623611 
! Gamma         0                0                0                0                
! Port Impedance         50               0                50               0                
6.8                            0.0497789023802741 -92.568923083095 0.997888391326598 -3.57096909927017 0.997888391326599 -3.57096909927013 0.0497789315202288 -92.5687474666748 
! Gamma         0                0                0                0                
! Port Impedance         50               0                50               0                
6.9                            0.0505153225548861 -92.6274188878866 0.997844151139468 -3.62301390627952 0.997844151139469 -3.62301390627947 0.0505153523768924 -92.627240938686 
! Gamma         0                0                0                0                
! Port Impedance         50               0                50               0                
7                              0.051251708374735 -92.6857975960199 0.997799434547602 -3.67505112196918 0.997799434547604 -3.67505112196913 0.0512517388865078 -92.6856173171032 
! Gamma         0                0                0                0                
! Port Impedance         50               0                50               0                
7.1                            0.0519880557969018 -92.7440629500049 0.997754241063807 -3.72708084529872 0.997754241063809 -3.72708084529867 0.0519880870060456 -92.7438803444601 
! Gamma         0                0                0                0                
! Port Impedance         50               0                50               0                
7.2                            0.0527243608786078 -92.8022184235187 0.997708570141495 -3.77910317010627 0.997708570141497 -3.77910317010622 0.0527243927926139 -92.8020334944464 
! Gamma         0                0                0                0                
! Port Impedance         50               0                50               0                
7.3                            0.0534606197762016 -92.8602672461111 0.997662421180505 -3.83111818511694 0.997662421180507 -3.83111818511689 0.0534606524024465 -92.8600799966146 
! Gamma         0                0                0                0                
! Port Impedance         50               0                50               0                
7.4                            0.0541968287438733 -92.9182124255434 0.997615793532636 -3.88312597396992 0.997615793532639 -3.88312597396987 0.0541968620896175 -92.9180228587192 
! Gamma         0                0                0                0                
! Port Impedance         50               0                50               0                
7.5                            0.0549329841321329 -92.976056767988 0.997568686506883 -3.93512661526188 0.997568686506886 -3.93512661526183 0.0549330182045202 -92.9758648869175 
! Gamma         0                0                0                0                
! Port Impedance         50               0                50               0                
7.6                            0.0556690823860894 -93.0338028962962 0.997521099374382 -3.98712018260458 0.997521099374384 -3.98712018260453 0.0556691171921465 -93.0336087040383 
! Gamma         0                0                0                0                
! Port Impedance         50               0                50               0                
7.7                            0.0564051200435617 -93.0914532665215 0.997473031373073 -4.0391067446949 0.997473031373075 -4.03910674469485 0.0564051555901982 -93.0912567661061 
! Gamma         0                0                0                0                
! Port Impedance         50               0                50               0                
7.8                            0.0571410937330504 -93.1490101828654 0.997424481712089 -4.09108636539531 0.997424481712092 -4.09108636539526 0.0571411300270595 -93.1488113772872 
! Gamma         0                0                0                0                
! Port Impedance         50               0                50               0                
7.9                            0.0578770001715961 -93.2064758111982 0.99737544957587 -4.14305910382345 0.997375449575873 -4.1430591038234 0.0578770372196548 -93.2062747034115 
! Gamma         0                0                0                0                
! Port Impedance         50               0                50               0                
8                              0.0586128361625471 -93.2638521912916 0.997325934128019 -4.19502501444922 0.997325934128022 -4.19502501444917 0.0586128739712178 -93.2636487842057 
! Gamma         0                0                0                0                
! Port Impedance         50               0                50               0                
8.1                            0.0593485985932577 -93.321141247886 0.997275934514911 -4.24698414719818 0.997275934514914 -4.24698414719813 0.0593486371689893 -93.3209355443612 
! Gamma         0                0                0                0                
! Port Impedance         50               0                50               0                
8.2                            0.0600842844327349 -93.3783448007057 0.99722544986905 -4.29893654756007 0.997225449869053 -4.29893654756002 0.0600843237818642 -93.3781368035497 
! Gamma         0                0                0                0                
! Port Impedance         50               0                50               0                
8.3                            0.0608198907292496 -93.4354645735214 0.997174479312208 -4.3508822567014 0.997174479312211 -4.35088225670136 0.0608199308580032 -93.4352542854862 
! Gamma         0                0                0                0                
! Port Impedance         50               0                50               0                
8.4                            0.0615554146079277 -93.4925022023517 0.997123021958329 -4.40282131158122 0.997123021958332 -4.40282131158117 0.061555455522424 -93.4922896261313 
! Gamma         0                0                0                0                
! Port Impedance         50               0                50               0                
8.5                            0.0622908532683331 -93.5494592428867 0.997071076916234 -4.45475374506913 0.997071076916237 -4.45475374506908 0.0622908949745841 -93.5492443811146 
! Gamma         0                0                0                0                
! Port Impedance         50               0                50               0                
8.6                            0.0630262039820532 -93.6063371772065 0.997018643292114 -4.50667958606498 0.997018643292117 -4.50667958606493 0.0630262464859671 -93.606120032454 
! Gamma         0                0                0                0                
! Port Impedance         50               0                50               0                
8.7                            0.0637614640902981 -93.6631374198636 0.99696572019184 -4.55859885961936 0.996965720191843 -4.55859885961932 0.0637615073976813 -93.6629179946388 
! Gamma         0                0                0                0                
! Port Impedance         50               0                50               0                
8.8                            0.0644966310015203 -93.7198613233898 0.99691230672309 -4.61051158705451 0.996912306723093 -4.61051158705447 0.0644966751180802 -93.7196396201358 
! Gamma         0                0                0                0                
! Port Impedance         50               0                50               0                
8.9                            0.0652317021890638 -93.7765101832808 0.996858401997304 -4.66241778608499 0.996858401997307 -4.66241778608496 0.0652317471204111 -93.7762862043754 
! Gamma         0                0                0                0                
! Port Impedance         50               0                50               0                
9                              0.0659666751888471 -93.8330852425118 0.996804005131476 -4.71431747093778 0.996804005131479 -4.71431747093775 0.0659667209404985 -93.8328589902667 
! Gamma         0                0                0                0                
! Port Impedance         50               0                50               0                
9.1                            0.0667015475970872 -93.8895876956253 0.996749115249798 -4.76621065247127 0.996749115249802 -4.76621065247124 0.0667015941744679 -93.8893591722858 
! Gamma         0                0                0                0                
! Port Impedance         50               0                50               0                
9.2                            0.0674363170680669 -93.946018692435 0.996693731485158 -4.81809733829299 0.996693731485161 -4.81809733829296 0.0674363644765138 -93.94578790018  
! Gamma         0                0                0                0                
! Port Impedance         50               0                50               0                
9.3                            0.0681709813119519 -94.0023793413804 0.996637852980499 -4.86997753287559 0.996637852980503 -4.86997753287556 0.0681710295567157 -94.0021462823224 
! Gamma         0                0                0                0                
! Port Impedance         50               0                50               0                
9.4                            0.0689055380926576 -94.0586707125673 0.996581478890063 -4.92185123767101 0.996581478890067 -4.92185123767099 0.0689055871789059 -94.0584353887526 
! Gamma         0                0                0                0                
! Port Impedance         50               0                50               0                
9.5                            0.0696399852257704 -94.1148938405226 0.996524608380504 -4.97371845122246 0.996524608380507 -4.97371845122244 0.0696400351585908 -94.1146562539318 
! Gamma         0                0                0                0                
! Port Impedance         50               0                50               0                
9.6                            0.0703743205765243 -94.1710497266923 0.996467240631897 -5.02557916927413 0.996467240631901 -5.0255791692741 0.0703743713609263 -94.1708098792409 
! Gamma         0                0                0                0                
! Port Impedance         50               0                50               0                
9.7                            0.071108542057834 -94.2271393417062 0.996409374838645 -5.0774333848785 0.996409374838648 -5.07743338487848 0.0711085936987528 -94.2268972352451 
! Gamma         0                0                0                0                
! Port Impedance         50               0                50               0                
9.8                            0.0718426476283862 -94.2831636274325 0.996351010210279 -5.12928108850106 0.996351010210283 -5.12928108850105 0.0718427001306846 -94.2829192637489 
! Gamma         0                0                0                0                
! Port Impedance         50               0                50               0                
9.9                            0.072576635290789 -94.3391234988415 0.996292145972184 -5.18112226812242 0.996292145972188 -5.1811222681224 0.0725766886592608 -94.3388768796599 
! Gamma         0                0                0                0                
! Port Impedance         50               0                50               0                
10                             0.0733105030897805 -94.3950198456986 0.996232781366225 -5.23295690933763 0.996232781366229 -5.23295690933762 0.0733105573291526 -94.3947709726813 
! Gamma         0                0                0                0                
! Port Impedance         50               0                50               0                
10.1                           0.0740442491104948 -94.4508535341002 0.996172915651308 -5.28478499545286 0.996172915651311 -5.28478499545285 0.0740443042254304 -94.450602408849 
! Gamma         0                0                0                0                
! Port Impedance         50               0                50               0                
10.2                           0.0747778714767877 -94.5066254078708 0.996112548103857 -5.33660650757915 0.996112548103861 -5.33660650757914 0.0747779274718888 -94.5063720319275 
! Gamma         0                0                0                0                
! Port Impedance         50               0                50               0                
10.3                           0.0755113683496197 -94.562336289832 0.996051678018235 -5.38842142472346 0.996051678018239 -5.38842142472346 0.0755114252294297 -94.5620806646798 
! Gamma         0                0                0                0                
! Port Impedance         50               0                50               0                
10.4                           0.0762447379254958 -94.6179869829575 0.995990304707095 -5.44022972387682 0.9959903047071  -5.44022972387682 0.0762447956945019 -94.6177291100222 
! Gamma         0                0                0                0                
! Port Impedance         50               0                50               0                
10.5                           0.0769779784349622 -94.6735782714245 0.995928427501678 -5.49203138009971 0.995928427501682 -5.49203138009971 0.0769780370975984 -94.6733181520755 
! Gamma         0                0                0                0                
! Port Impedance         50               0                50               0                
10.6                           0.0777110881411582 -94.7291109215709 0.995866045752052 -5.54382636660461 0.995866045752057 -5.54382636660462 0.0777111477018073 -94.7288485571229 
! Gamma         0                0                0                0                
! Port Impedance         50               0                50               0                
10.7                           0.0784440653384223 -94.7845856827691 0.995803158827314 -5.59561465483587 0.995803158827318 -5.59561465483588 0.0784441258014185 -94.7843210744831 
! Gamma         0                0                0                0                
! Port Impedance         50               0                50               0                
10.8                           0.0791769083509515 -94.8400032882229 0.995739766115729 -5.64739621454672 0.995739766115733 -5.64739621454674 0.0791769697205829 -94.8397364373072 
! Gamma         0                0                0                0                
! Port Impedance         50               0                50               0                
10.9                           0.0799096155315127 -94.8953644556951 0.995675867024849 -5.69917101387373 0.995675867024853 -5.69917101387374 0.0799096778120234 -94.8950953633071 
! Gamma         0                0                0                0                
! Port Impedance         50               0                50               0                
11                             0.0806421852602039 -94.9506698881737 0.995611460981575 -5.75093901940849 0.995611460981579 -5.75093901940851 0.0806422484557967 -94.950398555421 
! Gamma         0                0                0                0                
! Port Impedance         50               0                50               0                
11.1                           0.081374615943266 -95.0059202744817 0.995546547432197 -5.80270019626683 0.995546547432201 -5.80270019626685 0.0813746800581042 -95.0056467024232 
! Gamma         0                0                0                0                
! Port Impedance         50               0                50               0                
11.2                           0.0821069060119411 -95.0611162898358 0.995481125842394 -5.85445450815542 0.995481125842399 -5.85445450815544 0.0821069710501509 -95.0608404794835 
! Gamma         0                0                0                0                
! Port Impedance         50               0                50               0                
11.3                           0.0828390539213781 -95.1162585963602 0.995415195697213 -5.9062019174359 0.995415195697217 -5.90620191743593 0.0828391198870506 -95.11598054868  
! Gamma         0                0                0                0                
! Port Impedance         50               0                50               0                
11.4                           0.0835710581495827 -95.1713478435581 0.995348756501013 -5.95794238518666 0.995348756501017 -5.95794238518669 0.0835711250467762 -95.1710675594715 
! Gamma         0                0                0                0                
! Port Impedance         50               0                50               0                
11.5                           0.0843029171964119 -95.2263846687471 0.995281807777391 -6.00967587126218 0.995281807777396 -6.00967587126221 0.0843029850291536 -95.2261021491321 
! Gamma         0                0                0                0                
! Port Impedance         50               0                50               0                
11.6                           0.0850346295826094 -95.2813696974599 0.995214349069089 -6.06140233435015 0.995214349069094 -6.06140233435018 0.0850346983548977 -95.2810849431525 
! Gamma         0                0                0                0                
! Port Impedance         50               0                50               0                
11.7                           0.0857661938488829 -95.3363035438154 0.99514637993787 -6.11312173202631 0.995146379937874 -6.11312173202635 0.085766263564689 -95.3360165556109 
! Gamma         0                0                0                0                
! Port Impedance         50               0                50               0                
11.8                           0.0864976085550204 -95.3911868108623 0.995077899964387 -6.16483402080724 0.995077899964392 -6.16483402080728 0.0864976792182902 -95.3908975895164 
! Gamma         0                0                0                0                
! Port Impedance         50               0                50               0                
11.9                           0.0872288722790438 -95.446020090898 0.995008908748035 -6.21653915620091 0.99500890874804 -6.21653915620095 0.0872289438936999 -95.4457286371282 
! Gamma         0                0                0                0                
! Port Impedance         50               0                50               0                
12                             0.0879599836164002 -95.5008039657648 0.994939405906784 -6.26823709275531 0.994939405906788 -6.26823709275536 0.0879600561863434 -95.5005102802514 
! Gamma         0                0                0                0                
! Port Impedance         50               0                50               0                
12.1                           0.0886909411791875 -95.5555390071271 0.994869391077   -6.31992778410514 0.994869391077004 -6.31992778410519 0.0886910147082988 -95.5552430905144 
! Gamma         0                0                0                0                
! Port Impedance         50               0                50               0                
12.2                           0.0894217435954145 -95.6102257767291 0.994798863913263 -6.37161118301652 0.994798863913268 -6.37161118301657 0.0894218180875565 -95.6099276296267 
! Gamma         0                0                0                0                
! Port Impedance         50               0                50               0                
12.3                           0.0901523895082933 -95.6648648266372 0.994727824088166 -6.42328724142993 0.994727824088171 -6.42328724142998 0.0901524649673118 -95.6645644496211 
! Gamma         0                0                0                0                
! Port Impedance         50               0                50               0                
12.4                           0.0908828775755633 -95.7194566994673 0.994656271292107 -6.47495591050138 0.994656271292112 -6.47495591050143 0.0908829540052888 -95.7191540930809 
! Gamma         0                0                0                0                
! Port Impedance         50               0                50               0                
12.5                           0.0916132064688453 -95.7740019285984 0.994584205233077 -6.52661714064189 0.994584205233081 -6.52661714064195 0.0916132838730947 -95.7736970933538 
! Gamma         0                0                0                0                
! Port Impedance         50               0                50               0                
12.6                           0.0923433748730242 -95.828501038375 0.99451162563644 -6.57827088155529 0.994511625636444 -6.57827088155535 0.0923434532556022 -95.8281939747537 
! Gamma         0                0                0                0                
! Port Impedance         50               0                50               0                
12.7                           0.0930733814856603 -95.8829545442976 0.994438532244708 -6.62991708227448 0.994438532244712 -6.62991708227454 0.0930734608503607 -95.882645252752 
! Gamma         0                0                0                0                
! Port Impedance         50               0                50               0                
12.8                           0.0938032250164264 -95.9373629532041 0.99436492481731 -6.68155569119616 0.994364924817315 -6.68155569119622 0.0938033053670333 -95.9370514341581 
! Gamma         0                0                0                0                
! Port Impedance         50               0                50               0                
12.9                           0.0945329041865709 -95.9917267634421 0.994290803130358 -6.73318665611407 0.994290803130363 -6.73318665611414 0.0945329855268605 -95.9914130172925 
! Gamma         0                0                0                0                
! Port Impedance         50               0                50               0                
13                             0.0952624177284059 -96.0460464650332 0.994216166976412 -6.78480992425089 0.994216166976417 -6.78480992425096 0.0952625000621473 -96.0457304921501 
! Gamma         0                0                0                0                
! Port Impedance         50               0                50               0                
13.1                           0.0959917643848175 -96.1003225398296 0.994141016164239 -6.83642544228868 0.994141016164244 -6.83642544228875 0.0959918477157741 -96.1000043405581 
! Gamma         0                0                0                0                
! Port Impedance         50               0                50               0                
13.2                           0.0967209429088  -96.1545554616649 0.994065350518574 -6.88803315639811 0.994065350518579 -6.88803315639819 0.0967210272407307 -96.1542350363253 
! Gamma         0                0                0                0                
! Port Impedance         50               0                50               0                
13.3                           0.0974499520630113 -96.2087456964982 0.993989169879877 -6.93963301226642 0.993989169879882 -6.9396330122665 0.0974500373996715 -96.2084230453872 
! Gamma         0                0                0                0                
! Port Impedance         50               0                50               0                
13.4                           0.098178790619348 -96.2628937025527 0.993912474104094 -6.99122495512415 0.993912474104098 -6.99122495512423 0.0981788769644911 -96.2625688259445 
! Gamma         0                0                0                0                
! Port Impedance         50               0                50               0                
13.5                           0.0989074573585421 -96.3169999304504 0.993835263062408 -7.04280892977075 0.993835263062412 -7.04280892977083 0.09890754471592 -96.316672828597 
! Gamma         0                0                0                0                
! Port Impedance         50               0                50               0                
13.6                           0.0996359510697745 -96.3710648233404 0.993757536641005 -7.09438488059906 0.99375753664101 -7.09438488059915 0.0996360394431391 -96.3707354964729 
! Gamma         0                0                0                0                
! Port Impedance         50               0                50               0                
13.7                           0.100364270550309 -96.4250888170253 0.993679294740829 -7.14595275161875 0.993679294740834 -7.14595275161884 0.100364359943413 -96.4247572653544 
! Gamma         0                0                0                0                
! Port Impedance         50               0                50               0                
13.8                           0.10109241460514 -96.4790723400818 0.993600537277342 -7.19751248647872 0.993600537277346 -7.19751248647881 0.101092505021738 -96.4787385637987 
! Gamma         0                0                0                0                
! Port Impedance         50               0                50               0                
13.9                           0.101820382046663 -96.5330158139793 0.993521264180284 -7.24906402848857 0.993521264180288 -7.24906402848866 0.101820473490512 -96.5326798132565 
! Gamma         0                0                0                0                
! Port Impedance         50               0                50               0                
14                             0.102548171694354 -96.5869196531946 0.99344147539344 -7.30060732063906 0.993441475393445 -7.30060732063915 0.102548264169214 -96.5865814281865 
! Gamma         0                0                0                0                
! Port Impedance         50               0                50               0                
14.1                           0.103275782374465 -96.6407842653235 0.993361170874403 -7.35214230562175 0.993361170874407 -7.35214230562184 0.103275875884102 -96.6404438161673 
! Gamma         0                0                0                0                
! Port Impedance         50               0                50               0                
14.2                           0.104003212919744 -96.6946100511909 0.993280350594339 -7.40366892584771 0.993280350594344 -7.40366892584781 0.104003307467928 -96.6942673780068 
! Gamma         0                0                0                0                
! Port Impedance         50               0                50               0                
14.3                           0.104730462169151 -96.7483974049564 0.993199014537762 -7.4551871234655 0.993199014537766 -7.4551871234656 0.104730557759659 -96.748052507849 
! Gamma         0                0                0                0                
! Port Impedance         50               0                50               0                
14.4                           0.105457528967605 -96.8021467142198 0.9931171627023  -7.50669684037826 0.993117162702305 -7.50669684037836 0.10545762560422 -96.801799593278 
! Gamma         0                0                0                0                
! Port Impedance         50               0                50               0                
14.5                           0.106184412165731 -96.8558583601224 0.993034795098475 -7.55819801826011 0.99303479509848 -7.55819801826021 0.106184509852243 -96.8555090154207 
! Gamma         0                0                0                0                
! Port Impedance         50               0                50               0                
14.6                           0.106911110619626 -96.909532717448 0.992951911749479 -7.60969059857179 0.992951911749484 -7.60969059857189 0.106911209359835 -96.9091811490465 
! Gamma         0                0                0                0                
! Port Impedance         50               0                50               0                
14.7                           0.107637623190633 -96.9631701547208 0.992868512690954 -7.66117452257566 0.992868512690958 -7.66117452257576 0.107637722988347 -96.9628163626661 
! Gamma         0                0                0                0                
! Port Impedance         50               0                50               0                
14.8                           0.108363948745128 -97.016771034302 0.992784597970777 -7.71264973134999 0.992784597970781 -7.71264973135009 0.108364049604166 -97.0164150186278 
! Gamma         0                0                0                0                
! Port Impedance         50               0                50               0                
14.9                           0.109090086154319 -97.0703357124848 0.992700167648848 -7.76411616580261 0.992700167648852 -7.76411616580272 0.109090188078507 -97.0699774732122 
! Gamma         0                0                0                0                
! Port Impedance         50               0                50               0                
15                             0.109816034294047 -97.1238645395874 0.992615221796877 -7.81557376668402 0.992615221796881 -7.81557376668413 0.109816137287226 -97.1235040767257 
! Gamma         0                0                0                0                
! Port Impedance         50               0                50               0                
15.1                           0.11054179204461 -97.1773578600449 0.992529760498184 -7.86702247459984 0.992529760498187 -7.86702247459994 0.110541896110628 -97.176995173592 
! Gamma         0                0                0                0                
! Port Impedance         50               0                50               0                
15.2                           0.11126735829058 -97.2308160124998 0.992443783847487 -7.91846223002274 0.992443783847491 -7.91846223002285 0.111267463433301 -97.2304511024427 
! Gamma         0                0                0                0                
! Port Impedance         50               0                50               0                
15.3                           0.111992731920647 -97.2842393298905 0.992357291950713 -7.96989297330386 0.992357291950717 -7.96989297330396 0.111992838143945 -97.2838721962055 
! Gamma         0                0                0                0                
! Port Impedance         50               0                50               0                
15.4                           0.112717911827451 -97.3376281395389 0.992270284924793 -8.02131464468368 0.992270284924797 -8.02131464468379 0.112718019135216 -97.3372587821927 
! Gamma         0                0                0                0                
! Port Impedance         50               0                50               0                
15.5                           0.113442896907443 -97.390982763237 0.992182762897475 -8.07272718430246 0.992182762897479 -8.07272718430257 0.113443005303575 -97.3906111821864 
! Gamma         0                0                0                0                
! Port Impedance         50               0                50               0                
15.6                           0.114167686060734 -97.4443035173316 0.992094726007131 -8.12413053221013 0.992094726007135 -8.12413053221024 0.11416779554915 -97.4439297125245 
! Gamma         0                0                0                0                
! Port Impedance         50               0                50               0                
15.7                           0.114892278190967 -97.4975907128081 0.992006174402576 -8.17552462837582 0.99200617440258 -8.17552462837593 0.114892388775596 -97.4972146841837 
! Gamma         0                0                0                0                
! Port Impedance         50               0                50               0                
15.8                           0.115616672205184 -97.5508446553736 0.99191710824288 -8.22690941269694 0.991917108242884 -8.22690941269704 0.115616783889973 -97.5504664028627 
! Gamma         0                0                0                0                
! Port Impedance         50               0                50               0                
15.9                           0.116340867013711 -97.6040656455375 0.991827527697194 -8.27828482500781 0.991827527697198 -8.27828482500791 0.11634097980262 -97.6036851690631 
! Gamma         0                0                0                0                
! Port Impedance         50               0                50               0                
16                             0.117064861530037 -97.6572539786929 0.991737432944572 -8.32965080508798 0.991737432944575 -8.32965080508808 0.117064975427043 -97.6568712781703 
! Gamma         0                0                0                0                
! Port Impedance         50               0                50               0                
16.1                           0.117788654670706 -97.7104099451951 0.9916468241738  -8.38100729267011 0.991646824173803 -8.38100729267021 0.117788769679802 -97.7100250205325 
! Gamma         0                0                0                0                
! Port Impedance         50               0                50               0                
16.2                           0.118512245355219 -97.7635338304401 0.991555701583227 -8.43235422744753 0.991555701583231 -8.43235422744764 0.118512361480414 -97.7631466815389 
! Gamma         0                0                0                0                
! Port Impedance         50               0                50               0                
16.3                           0.119235632505929 -97.8166259149419 0.991464065380602 -8.48369154908146 0.991464065380606 -8.48369154908157 0.11923574975125 -97.816236541697 
! Gamma         0                0                0                0                
! Port Impedance         50               0                50               0                
16.4                           0.119958815047954 -97.8696864744081 0.991371915782908 -8.53501919720789 0.991371915782911 -8.535019197208  0.119958933417445 -97.8692948767081 
! Gamma         0                0                0                0                
! Port Impedance         50               0                50               0                
16.5                           0.120681791909087 -97.9227157798156 0.991279253016207 -8.58633711144417 0.99127925301621 -8.58633711144427 0.120681911406809 -97.9223219575434 
! Gamma         0                0                0                0                
! Port Impedance         50               0                50               0                
16.6                           0.121404562019711 -97.9757140974841 0.991186077315481 -8.63764523139527 0.991186077315484 -8.63764523139537 0.121404682649744 -97.975318050517 
! Gamma         0                0                0                0                
! Port Impedance         50               0                50               0                
16.7                           0.122127124312726 -98.0286816891497 0.991092388924486 -8.68894349665982 0.991092388924489 -8.68894349665993 0.122127246079167 -98.0282834173596 
! Gamma         0                0                0                0                
! Port Impedance         50               0                50               0                
16.8                           0.122849477723468 -98.0816188120365 0.990998188095597 -8.74023184683583 0.9909981880956  -8.74023184683592 0.122849600630436 -98.0812183152903 
! Gamma         0                0                0                0                
! Port Impedance         50               0                50               0                
16.9                           0.123571621189647 -98.1345257189279 0.990903475089663 -8.79151022152611 0.990903475089666 -8.79151022152621 0.123571745241275 -98.1341229970881 
! Gamma         0                0                0                0                
! Port Impedance         50               0                50               0                
17                             0.124293553651273 -98.187402658237 0.990808250175868 -8.84277856034359 0.99080825017587 -8.84277856034369 0.124293678851716 -98.1869977111612 
! Gamma         0                0                0                0                
! Port Impedance         50               0                50               0                
17.1                           0.125015274050596 -98.2402498740753 0.990712513631588 -8.89403680291624 0.99071251363159 -8.89403680291634 0.125015400404029 -98.2398427016171 
! Gamma         0                0                0                0                
! Port Impedance         50               0                50               0                
17.2                           0.125736781332053 -98.2930676063213 0.990616265742253 -8.94528488889186 0.990616265742256 -8.94528488889196 0.125736908842668 -98.2926582083303 
! Gamma         0                0                0                0                
! Port Impedance         50               0                50               0                
17.3                           0.126458074442201 -98.3458560906876 0.990519506801219 -8.99652275794263 0.990519506801222 -8.99652275794273 0.126458203114214 -98.3454444670096 
! Gamma         0                0                0                0                
! Port Impedance         50               0                50               0                
17.4                           0.127179152329677 -98.3986155587873 0.99042223710963 -9.04775034976945 0.990422237109632 -9.04775034976954 0.127179282167319 -98.3982017092647 
! Gamma         0                0                0                0                
! Port Impedance         50               0                50               0                
17.5                           0.127900013945139 -98.4513462381997 0.990324456976292 -9.09896760410609 0.990324456976295 -9.09896760410618 0.127900144952665 -98.4509301626714 
! Gamma         0                0                0                0                
! Port Impedance         50               0                50               0                
17.6                           0.128620658241224 -98.5040483525343 0.990226166717552 -9.15017446072315 0.990226166717554 -9.15017446072324 0.12862079042291 -98.5036300508363 
! Gamma         0                0                0                0                
! Port Impedance         50               0                50               0                
17.7                           0.129341084172506 -98.556722121495 0.990127366657168 -9.20137085943186 0.99012736665717 -9.20137085943194 0.129341217532646 -98.5563015934602 
! Gamma         0                0                0                0                
! Port Impedance         50               0                50               0                
17.8                           0.13006129069545 -98.6093677609422 0.990028057126195 -9.25255674008765 0.990028057126197 -9.25255674008774 0.130061425238361 -98.608945006401 
! Gamma         0                0                0                0                
! Port Impedance         50               0                50               0                
17.9                           0.13078127676838 -98.6619854829554 0.989928238462863 -9.30373204259365 0.989928238462865 -9.30373204259374 0.130781412498399 -98.6615605017355 
! Gamma         0                0                0                0                
! Port Impedance         50               0                50               0                
18                             0.131501041351436 -98.7145754958932 0.989827911012467 -9.35489670690393 0.989827911012469 -9.35489670690401 0.131501178272922 -98.7141482878202 
! Gamma         0                0                0                0                
! Port Impedance         50               0                50               0                
18.1                           0.132220583406547 -98.7671380044543 0.989727075127248 -9.40605067302668 0.98972707512725 -9.40605067302676 0.13222072152388 -98.7667085693512 
! Gamma         0                0                0                0                
! Port Impedance         50               0                50               0                
18.2                           0.132939901897394 -98.8196732097359 0.98962573116629 -9.45719388102717 0.989625731166291 -9.45719388102725 0.132940041214976 -98.8192415474241 
! Gamma         0                0                0                0                
! Port Impedance         50               0                50               0                
18.3                           0.133658995789384 -98.8721813092924 0.989523879495407 -9.50832627103068 0.989523879495408 -9.50832627103075 0.13365913631164 -98.8717474195913 
! Gamma         0                0                0                0                
! Port Impedance         50               0                50               0                
18.4                           0.134377864049622 -98.9246624971931 0.989421520487041 -9.55944778322514 0.989421520487042 -9.5594477832252 0.134378005780996 -98.9242263799202 
! Gamma         0                0                0                0                
! Port Impedance         50               0                50               0                
18.5                           0.135096505646884 -98.9771169640781 0.989318654520157 -9.61055835786382 0.989318654520159 -9.61055835786388 0.135096648591845 -98.9766786190497 
! Gamma         0                0                0                0                
! Port Impedance         50               0                50               0                
18.6                           0.135814919551594 -99.0295448972148 0.989215281980145 -9.66165793526778 0.989215281980147 -9.66165793526785 0.135815063714631 -99.0291043242457 
! Gamma         0                0                0                0                
! Port Impedance         50               0                50               0                
18.7                           0.136533104735802 -99.0819464805526 0.989111403258717 -9.71274645582827 0.989111403258719 -9.71274645582833 0.136533250121428 -99.0815036794561 
! Gamma         0                0                0                0                
! Port Impedance         50               0                50               0                
18.8                           0.137251060173165 -99.1343218947767 0.989007018753816 -9.76382386000897 0.989007018753818 -9.76382386000902 0.137251206785913 -99.1338768653651 
! Gamma         0                0                0                0                
! Port Impedance         50               0                50               0                
18.9                           0.137968784838923 -99.1866713173618 0.988902128869517 -9.81489008834817 0.988902128869519 -9.81489008834822 0.137968932683352 -99.1862240594465 
! Gamma         0                0                0                0                
! Port Impedance         50               0                50               0                
19                             0.138686277709889 -99.2389949226245 0.988796734015938 -9.86594508146086 0.988796734015939 -9.8659450814609 0.138686426790578 -99.2385454360158 
! Gamma         0                0                0                0                
! Port Impedance         50               0                50               0                
19.1                           0.139403537764426 -99.2912928817748 0.988690834609147 -9.91698878004065 0.988690834609148 -9.9169887800407 0.139403688085978 -99.2908411662823 
! Gamma         0                0                0                0                
! Port Impedance         50               0                50               0                
19.2                           0.140120563982437 -99.3435653629673 0.988584431071077 -9.96802112486172 0.988584431071078 -9.96802112486175 0.140120715549478 -99.3431114183999 
! Gamma         0                0                0                0                
! Port Impedance         50               0                50               0                
19.3                           0.14083735534535 -99.395812531351 0.988477523829437 -10.0190420567806 0.988477523829437 -10.0190420567806 0.140837508162528 -99.3953563575171 
! Gamma         0                0                0                0                
! Port Impedance         50               0                50               0                
19.4                           0.141553910836104 -99.4480345491188 0.988370113317627 -10.0700515167377 0.988370113317627 -10.0700515167377 0.14155406490809 -99.4475761458263 
! Gamma         0                0                0                0                
! Port Impedance         50               0                50               0                
19.5                           0.142270229439141 -99.5002315755561 0.988262199974658 -10.1210494457594 0.988262199974659 -10.1210494457594 0.14227038477063 -99.4997709426124 
! Gamma         0                0                0                0                
! Port Impedance         50               0                50               0                
19.6                           0.142986310140392 -99.5524037670884 0.98815378424507 -10.1720357849591 0.98815378424507 -10.1720357849591 0.142986466736103 -99.5519409043009 
! Gamma         0                0                0                0                
! Port Impedance         50               0                50               0                
19.7                           0.143702151927274 -99.6045512773285 0.98804486657885 -10.223010475539 0.988044866578851 -10.223010475539 0.143702309791947 -99.6040861845042 
! Gamma         0                0                0                0                
! Port Impedance         50               0                50               0                
19.8                           0.144417753788676 -99.656674257123 0.98793544743136 -10.2739734587915 0.98793544743136 -10.2739734587915 0.144417912927075 -99.6562069340689 
! Gamma         0                0                0                0                
! Port Impedance         50               0                50               0                
19.9                           0.145133114714953 -99.7087728545975 0.987825527263254 -10.3249246761005 0.987825527263254 -10.3249246761005 0.145133275131866 -99.7083033011205 
! Gamma         0                0                0                0                
! Port Impedance         50               0                50               0                
20                             0.145848233697925 -99.7608472152016 0.987715106540411 -10.3758640689426 0.987715106540411 -10.3758640689426 0.145848395398163 -99.7603754311088 
! Gamma         -0               -0               -0               -0               
! Port Impedance         50               0                50               0                
