! Touchstone file exported from HFSS 2026.1.0
!        File:           C:/ffzhzh/LocalFiles/Ansys_Project_Files/temp_train_TSV_703_1783181797_22436.aedt
!        Generated:      12:18:09 AM Jul  5, 2026
!        Design:         TSV
!        Project:        temp_train_TSV_703_1783181797_22436
!
! Variables:
!        h_bsmrdl = 2um
!        h_ox = 20um
!        h_rdl = 5um
!        h_sub = 89.24um
!        h_tmrdl = 5um
!        h_tsv = 89.24um
!        h_via = 3um
!        l_bsmrdl = 300um
!        l_sub = 415.96um
!        l_tmrdl = 200um
!        m_sub = 200um
!        pitch = 43.45um
!        r_tsv = 7.98um
!        s_tmrdl = 10um
!        w_bsmrdl = 18um
!        w_sub = 500um
!        w_tmrdl = 12um
!        x_tsv_center1 = 206um
!        x_tsv_center2 = 524um
!        x_tsv_center3 = 736um
!        x_tsv_center4 = 1054um
!        x_tsv_center5 = 1266um
!        x_tsv_center6 = 1584um
!
# GHz S MA R 50.000000
! Terminal data exported
! Port[1] = TSV1_1_T1
! Port[2] = TSV1_1_T2
0.1                            0.000302156939155359 49.4048430729632 0.999803550236092 -0.0482265200824036 0.999803550236091 -0.0482265200824027 0.000302156960272706 49.4048333792528 
! Gamma         0                0                0                0                
! Port Impedance         50               0                50               0                
0.2                            0.000501898777151842 65.4581327046308 0.999792421550195 -0.0963280954880363 0.999792421550194 -0.0963280954880341 0.000501898841401701 65.4580911936789 
! Gamma         0                0                0                0                
! Port Impedance         50               0                50               0                
0.3                            0.00071634766936078 71.5470348967113 0.999775227470994 -0.144203605807178 0.999775227470993 -0.144203605807174 0.000716347680279468 71.5469669637842 
! Gamma         0                0                0                0                
! Port Impedance         50               0                50               0                
0.4                            0.000931309658456084 74.4497209676024 0.999753615557394 -0.191790585309242 0.999753615557393 -0.191790585309236 0.000931309528240312 74.4496323898639 
! Gamma         0                0                0                0                
! Port Impedance         50               0                50               0                
0.5                            0.0011430283789909 76.0566206942656 0.999729309827925 -0.23906745109584 0.999729309827924 -0.23906745109583 0.00114302805215979 76.0565160592515 
! Gamma         0                0                0                0                
! Port Impedance         50               0                50               0                
0.6                            0.00135049361594875 77.0583447519299 0.99970382819682 -0.286045777686264 0.999703828196819 -0.286045777686251 0.00135049307995823 77.058227232856  
! Gamma         0                0                0                0                
! Port Impedance         50               0                50               0                
0.7                            0.00155375354921278 77.7531995859365 0.99967833696506 -0.332758249617725 0.999678336965059 -0.332758249617709 0.00155375283160286 77.7530709507866 
! Gamma         0                0                0                0                
! Port Impedance         50               0                50               0                
0.8                            0.00175329964066849 78.2826666019283 0.999653626513618 -0.379247180137216 0.999653626513617 -0.379247180137197 0.00175329879814168 78.2825274281733 
! Gamma         0                0                0                0                
! Port Impedance         50               0                50               0                
0.9                            0.00194977054596679 78.7172604152786 0.999630161026457 -0.425556085335  0.999630161026456 -0.425556085334978 0.00194976965139875 78.71711040638   
! Gamma         0                0                0                0                
! Port Impedance         50               0                50               0                
1                              0.002143801569919 79.0930222769701 0.999608157031244 -0.471724702637199 0.999608157031243 -0.471724702637176 0.00214380070114386 79.0928605811204 
! Gamma         0                0                0                0                
! Port Impedance         50               0                50               0                
1.1                            0.00233595504328557 79.4286337220911 0.999587661500401 -0.517786749105913 0.9995876615004  -0.517786749105888 0.00233595427514138 79.428459196431  
! Gamma         0                0                0                0                
! Port Impedance         50               0                50               0                
1.2                            0.00252669640395691 79.7339175740073 0.999568616012051 -0.563769450583942 0.99956861601205 -0.563769450583916 0.00252669580355457 79.7337289764968 
! Gamma         0                0                0                0                
! Port Impedance         50               0                50               0                
1.3                            0.00271639427727649 80.0141863929731 0.999550903782085 -0.609694025426637 0.999550903782085 -0.609694025426609 0.00271639390179349 80.0139825070812 
! Gamma         0                0                0                0                
! Port Impedance         50               0                50               0                
1.4                            0.0029053314824575 80.2724893909467 0.99953438142404 -0.655576571400809 0.999534381424039 -0.655576571400781 0.00290533137863918 80.2722690975919 
! Gamma         0                0                0                0                
! Port Impedance         50               0                50               0                
1.5                            0.0030937196428514 80.5107687162356 0.999518898943605 -0.701429036841905 0.999518898943604 -0.701429036841876 0.00309371984753033 80.5105310285485 
! Gamma         0                0                0                0                
! Port Impedance         50               0                50               0                
1.6                            0.00328171368889387 80.730444479912  0.999504311433431 -0.747260118016579 0.99950431143343 -0.74726011801655 0.00328171423003109 80.7301885539402 
! Gamma         0                0                0                0                
! Port Impedance         50               0                50               0                
1.7                            0.00346942464125287 80.9327012876272 0.999490485267468 -0.793076020918558 0.999490485267468 -0.793076020918529 0.00346942553917989 80.9324264187258 
! Gamma         0                0                0                0                
! Port Impedance         50               0                50               0                
1.8                            0.00365693018457826 81.1186207962436 0.999477300833212 -0.838881076810116 0.999477300833212 -0.838881076810086 0.00365693145325089 81.118326407808  
! Gamma         0                0                0                0                
! Port Impedance         50               0                50               0                
1.9                            0.00384428308529641 81.2892368243901 0.999464653193058 -0.884678224370445 0.999464653193058 -0.884678224370415 0.00384428473346013 81.2889224531921 
! Gamma         0                0                0                0                
! Port Impedance         50               0                50               0                
2                              0.00403151772998655 81.4455531961462 0.999452451581132 -0.930469379726333 0.999452451581132 -0.930469379726304 0.00403151976220918 81.445218476836  
! Gamma         0                0                0                0                
! Port Impedance         50               0                50               0                
2.1                            0.00421865512048553 81.5885450462473 0.999440618304022 -0.976255716539676 0.999440618304022 -0.976255716539647 0.00421865753804505 81.5881896964544 
! Gamma         0                0                0                0                
! Port Impedance         50               0                50               0                
2.2                            0.00440570664595084 81.7191539617526 0.999429087389049 -1.02203787598196 0.999429087389048 -1.02203787598193 0.00440570944758358 81.718777768504  
! Gamma         0                0                0                0                
! Port Impedance         50               0                50               0                
2.3                            0.00459267690707659 81.8382818881086 0.999417803179208 -1.06781612304666 0.999417803179208 -1.06781612304663 0.0045926800895993 81.8378846958481 
! Gamma         0                0                0                0                
! Port Impedance         50               0                50               0                
2.4                            0.00477956581628941 81.9467859190767 0.999406718983659 -1.11359046227542 0.999406718983658 -1.11359046227539 0.00477956937511166 81.9463676193251 
! Gamma         0                0                0                0                
! Port Impedance         50               0                50               0                
2.5                            0.00496637015011902 82.0454746897968 0.999395795837703 -1.15936072302247 0.999395795837702 -1.15936072302244 0.0049663740796622 82.0450352123578 
! Gamma         0                0                0                0                
! Port Impedance         50               0                50               0                
2.6                            0.00515308468963815 82.1351064337156 0.999385001393854 -1.20512662196756 0.999385001393854 -1.20512662196754 0.00515308898367633 82.1346457392752 
! Gamma         0                0                0                0                
! Port Impedance         50               0                50               0                
2.7                            0.00533970305242698 82.2163884877209 0.999374308947207 -1.25088780868768 0.999374308947207 -1.25088780868765 0.00533970770436293 82.215906561664  
! Gamma         0                0                0                0                
! Port Impedance         50               0                50               0                
2.8                            0.00552621829417121 82.2899779433636 0.999363696588545 -1.29664389863729 0.999363696588545 -1.29664389863726 0.00552622329725881 82.2894747906356 
! Gamma         0                0                0                0                
! Port Impedance         50               0                50               0                
2.9                            0.00571262333856574 82.3564831442359 0.99935314647394 -1.34239449678093 0.99935314647394 -1.34239449678091 0.00571262868608826 82.3559587850894 
! Gamma         0                0                0                0                
! Port Impedance         50               0                50               0                
3                              0.00589891127946622 82.4164657682216 0.999342644197904 -1.38813921429226 0.999342644197904 -1.38813921429224 0.00589891696487822 82.415920234707  
! Gamma         0                0                0                0                
! Port Impedance         50               0                50               0                
3.1                            0.00608507558815177 82.4704432825951 0.999332178257048 -1.43387768011499 0.999332178257048 -1.43387768011497 0.00608508160519111 82.4698766156727 
! Gamma         0                0                0                0                
! Port Impedance         50               0                50               0                
3.2                            0.00627111025026677 82.5188916078065 0.99932173959205 -1.47960954872133 0.99932173959205 -1.47960954872131 0.00627111659304191 82.5183038549756 
! Gamma         0                0                0                0                
! Port Impedance         50               0                50               0                
3.3                            0.00645700985081332 82.5622478674129 0.999311321196883 -1.52533450506209 0.999311321196883 -1.52533450506207 0.0064570165138701 82.5616390807703 
! Gamma         0                0                0                0                
! Port Impedance         50               0                50               0                
3.4                            0.00664276962094207 82.6009131356744 0.999300917785571 -1.57105226744958 0.999300917785571 -1.57105226744956 0.00664277659931371 82.6002833703296 
! Gamma         0                0                0                0                
! Port Impedance         50               0                50               0                
3.5                            0.00682838545683884 82.6352551211403 0.999290525508044 -1.61676258892613 0.999290525508044 -1.61676258892611 0.00682839274608172 82.6346044339263 
! Gamma         0                0                0                0                
! Port Impedance         50               0                50               0                
3.6                            0.00701385391842633 82.6656107450703 0.999280141707826 -1.66246525753184 0.999280141707825 -1.66246525753182 0.00701386151464415 82.6649391934989 
! Gamma         0                0                0                0                
! Port Impedance         50               0                50               0                
3.7                            0.00719917221367237 82.6922885888864 0.999269764715382 -1.70816009578057 0.999269764715382 -1.70816009578055 0.00719918011353059 82.6915962303077 
! Gamma         0                0                0                0                
! Port Impedance         50               0                50               0                
3.8                            0.00738433817285107 82.7155711961172 0.999259393671864 -1.75384695957591 0.999259393671864 -1.75384695957589 0.00738434637358316 82.7148580870474 
! Gamma         0                0                0                0                
! Port Impedance         50               0                50               0                
3.9                            0.00756935021601724 82.7357172223872 0.999249028378797 -1.79952573674078 0.999249028378797 -1.79952573674077 0.00756935871542429 82.734983417977  
! Gamma         0                0                0                0                
! Port Impedance         50               0                50               0                
4                              0.00775420731613805 82.7529634326935 0.999238669169922 -1.84519634529065 0.999238669169922 -1.84519634529063 0.00775421611258269 82.752208986313  
! Gamma         0                0                0                0                
! Port Impedance         50               0                50               0                
4.1                            0.00793890895970824 82.7675265490998 0.999228316802018 -1.89085873154773 0.999228316802018 -1.89085873154772 0.007938918052104 82.76675151202   
! Gamma         0                0                0                0                
! Port Impedance         50               0                50               0                
4.2                            0.00812345510620918 82.7796049545347 0.999217972361966 -1.93651286816896 0.999217972361966 -1.93651286816894 0.00812346449400606 82.77880937569   
! Gamma         0                0                0                0                
! Port Impedance         50               0                50               0                
4.3                            0.00830784614741762 82.7893802599691 0.999207637187767 -1.98215875214162 0.999207637187767 -1.98215875214161 0.00830785583058458 82.7885641857864 
! Gamma         0                0                0                0                
! Port Impedance         50               0                50               0                
4.4                            0.00849208286730142 82.7970187431381 0.999197312801551 -2.02779640278682 0.999197312801551 -2.02779640278681 0.00849209284630644 82.7961822174214 
! Gamma         0                0                0                0                
! Port Impedance         50               0                50               0                
4.5                            0.00867616640303424 82.8026726673709 0.999187000852902 -2.07342585979981 0.999187000852902 -2.07342585979979 0.00867617667882241 82.801815731232  
! Gamma         0                0                0                0                
! Port Impedance         50               0                50               0                
4.6                            0.00886009820750505 82.8064814891458 0.999176703071075 -2.11904718134842 0.999176703071075 -2.11904718134841 0.00886010878147528 82.8056041809726 
! Gamma         0                0                0                0                
! Port Impedance         50               0                50               0                
4.7                            0.00904388001357927 82.8085729628117 0.999166421224887 -2.16466044224439 0.999166421224887 -2.16466044224438 0.00904389088755982 82.8076753182678 
! Gamma         0                0                0                0                
! Port Impedance         50               0                50               0                
4.8                            0.00922751380027684 82.8090641505911 0.999156157089215 -2.21026573219769 0.999156157089215 -2.21026573219768 0.00922752497650021 82.8081462026411 
! Gamma         0                0                0                0                
! Port Impedance         50               0                50               0                
4.9                            0.00941100176096349 82.8080623455596 0.99914591241722 -2.25586315416035 0.99914591241722 -2.25586315416035 0.00941101324204086 82.8071241245147 
! Gamma         0                0                0                0                
! Port Impedance         50               0                50               0                
5                              0.00959434627359855 82.805665914826  0.999135688917495 -2.30145282276362 0.999135688917495 -2.30145282276361 0.00959435806249403 82.8047074484061 
! Gamma         0                0                0                0                
! Port Impedance         50               0                50               0                
5.1                            0.00977754987304257 82.8019650696457 0.999125488235475 -2.34703486284987 0.999125488235475 -2.34703486284986 0.00977756197304756 82.8009863830549 
! Gamma         0                0                0                0                
! Port Impedance         50               0                50               0                
5.2                            0.00996061522539821 82.7970425687044 0.999115311938521 -2.39260940809946 0.999115311938521 -2.39260940809946 0.00996062764010593 82.7960436847172 
! Gamma         0                0                0                0                
! Port Impedance         50               0                50               0                
5.3                            0.0101435451043354 82.790974360328  0.99910516150417 -2.43817659975127 0.99910516150417 -2.43817659975127 0.0101435578376159 82.7899552993821 
! Gamma         0                0                0                0                
! Port Impedance         50               0                50               0                
5.4                            0.0103263423693355 82.7838301689087 0.999095038311104 -2.48373658541478 0.999095038311104 -2.48373658541478 0.010326355425311 82.7827909492043 
! Gamma         0                0                0                0                
! Port Impedance         50               0                50               0                
5.5                            0.0105090099457774 82.7756740304    0.999084943632463 -2.52928951797104 0.999084943632463 -2.52928951797104 0.0105090233287989 82.774614668003  
! Gamma         0                0                0                0                
! Port Impedance         50               0                50               0                
5.6                            0.0106915508067818 82.7665647813255 0.999074878631158 -2.57483555455916 0.999074878631158 -2.57483555455916 0.0106915645214053 82.7654852902728 
! Gamma         0                0                0                0                
! Port Impedance         50               0                50               0                
5.7                            0.0108739679567221 82.7565565053607 0.999064844356894 -2.6203748556448 0.999064844356894 -2.6203748556448 0.010873982007687 82.7554568977667 
! Gamma         0                0                0                0                
! Port Impedance         50               0                50               0                
5.8                            0.0110562644163111 82.7456989411972 0.999054841744647 -2.66590758416685 0.999054841744647 -2.66590758416685 0.0110562788085183 82.7445792273608 
! Gamma         0                0                0                0                
! Port Impedance         50               0                50               0                
5.9                            0.0112384432091689 82.7340378550754 0.999044871614371 -2.71143390475835 0.999044871614371 -2.71143390475835 0.0112384579476607 82.7328980435858 
! Gamma         0                0                0                0                
! Port Impedance         50               0                50               0                
6                              0.011420507349779 82.7216153810708 0.999034934671738 -2.75695398303763 0.999034934671738 -2.75695398303763 0.0114205224397194 82.7204554789119 
! Gamma         0                0                0                0                
! Port Impedance         50               0                50               0                
6.1                            0.0116024598327407 82.7084703319501 0.999025031509747 -2.80246798496571 0.999025031509747 -2.80246798496571 0.0116024752793968 82.7072903446032 
! Gamma         0                0                0                0                
! Port Impedance         50               0                50               0                
6.2                            0.0117843036232277 82.694638483163  0.999015162611038 -2.84797607626589 0.999015162611038 -2.8479760762659 0.0117843194319523 82.6934384147067 
! Gamma         0                0                0                0                
! Port Impedance         50               0                50               0                
6.3                            0.0119660416485673 82.6801528323096 0.9990053283508  -2.89347842190179 0.9990053283508  -2.89347842190179 0.0119660578247822 82.6789326855164 
! Gamma         0                0                0                0                
! Port Impedance         50               0                50               0                
6.4                            0.0121476767908543 82.6650438362153 0.998995529000148 -2.93897518560983 0.998995529000148 -2.93897518560983 0.0121476933400348 82.6638036126458 
! Gamma         0                0                0                0                
! Port Impedance         50               0                50               0                
6.5                            0.0123292118805218 82.6493396275593 0.998985764729866 -2.98446652948265 0.998985764729866 -2.98446652948266 0.0123292288081822 82.6480793276524 
! Gamma         0                0                0                0                
! Port Impedance         50               0                50               0                
6.6                            0.0125106496907916 82.6330662128282 0.998976035614446 -3.02995261359984 0.998976035614446 -3.02995261359985 0.0125106670024712 82.6317858359877 
! Gamma         0                0                0                0                
! Port Impedance         50               0                50               0                
6.7                            0.0126919929329305 82.6162476532141 0.998966341636336 -3.07543359570248 0.998966341636336 -3.07543359570249 0.0126920106341815 82.6149471978919 
! Gamma         0                0                0                0                
! Port Impedance         50               0                50               0                
6.8                            0.0128732442522472 82.5989062299306 0.998956682690335 -3.1209096309084 0.998956682690335 -3.12090963090841 0.0128732623486221 82.5975856937056 
! Gamma         0                0                0                0                
! Port Impedance         50               0                50               0                
6.9                            0.0130544062247612 82.5810625952937 0.998947058588089 -3.16638087146493 0.998947058588089 -3.16638087146494 0.0130544247218026 82.5797219749475 
! Gamma         0                0                0                0                
! Port Impedance         50               0                50               0                
7                              0.0132354813544873 82.5627359107966 0.99893746906263 -3.21184746653621 0.99893746906263 -3.21184746653622 0.0132355002577173 82.561375202385  
! Gamma         0                0                0                0                
! Port Impedance         50               0                50               0                
7.1                            0.0134164720712749 82.5439439732989 0.998927913772916 -3.25730956202227 0.998927913772916 -3.25730956202228 0.0134164913861865 82.5425631722195 
! Gamma         0                0                0                0                
! Port Impedance         50               0                50               0                
7.2                            0.0135973807291533 82.5247033303537 0.998918392308359 -3.30276730040731 0.99891839230836 -3.30276730040732 0.013597400461201 82.5233024314104 
! Gamma         0                0                0                0                
! Port Impedance         50               0                50               0                
7.3                            0.0137782096051289 82.5050293856093 0.998908904193286 -3.34822082063453 0.998908904193286 -3.34822082063454 0.0137782297597219 82.5036083830724 
! Gamma         0                0                0                0                
! Port Impedance         50               0                50               0                
7.4                            0.0139589608983937 82.4849364951371 0.998899448891322 -3.39367025800538 0.998899448891322 -3.39367025800539 0.0139589814808883 82.4834953828003 
! Gamma         0                0                0                0                
! Port Impedance         50               0                50               0                
7.5                            0.0141396367298973 82.4644380554675 0.998890025809681 -3.43911574410086 0.998890025809681 -3.43911574410087 0.0141396577455909 82.4629768267012 
! Gamma         0                0                0                0                
! Port Impedance         50               0                50               0                
7.6                            0.0143202391422477 82.4435465840448 0.998880634303336 -3.48455740672296 0.998880634303335 -3.48455740672297 0.0143202605963729 82.4420652318465 
! Gamma         0                0                0                0                
! Port Impedance         50               0                50               0                
7.7                            0.014500770099901 82.4222737927548 0.998871273679062 -3.52999536985423 0.998871273679062 -3.52999536985424 0.0145007919976208 82.4207723097957 
! Gamma         0                0                0                0                
! Port Impedance         50               0                50               0                
7.8                            0.0146812314896091 82.4006306551171 0.998861943199351 -3.57542975363379 0.998861943199351 -3.5754297536338 0.0146812538360121 82.3991090337859 
! Gamma         0                0                0                0                
! Port Impedance         50               0                50               0                
7.9                            0.0148616251210929 82.3786274676887 0.998852642086168 -3.62086067434803 0.998852642086168 -3.62086067434804 0.0148616479211897 82.3770857001324 
! Gamma         0                0                0                0                
! Port Impedance         50               0                50               0                
8                              0.0150419527279146 82.3562739061749 0.998843369524567 -3.66628824443456 0.998843369524567 -3.66628824443458 0.0150419759866339 82.3547119843366 
! Gamma         0                0                0                0                
! Port Impedance         50               0                50               0                
8.1                            0.0152222159685211 82.3335790767021 0.998834124666153 -3.71171257249793 0.998834124666153 -3.71171257249795 0.0152222396907071 82.3319969923565 
! Gamma         0                0                0                0                
! Port Impedance         50               0                50               0                
8.2                            0.0154024164274372 82.310551562669  0.998824906632382 -3.75713376333583 0.998824906632382 -3.75713376333585 0.015402440617847 82.3089493074547 
! Gamma         0                0                0                0                
! Port Impedance         50               0                50               0                
8.3                            0.0155825556165858 82.2871994675546 0.998815714517715 -3.80255191797453 0.998815714517715 -3.80255191797454 0.0155825802798872 82.2855770330043 
! Gamma         0                0                0                0                
! Port Impedance         50               0                50               0                
8.4                            0.015762634976716 82.2635304540321 0.998806547392606 -3.84796713371249 0.998806547392606 -3.84796713371251 0.0157626601174856 82.2618878316007 
! Gamma         0                0                0                0                
! Port Impedance         50               0                50               0                
8.5                            0.0159426558789212 82.2395517797061 0.998797404306342 -3.89337950417114 0.998797404306342 -3.89337950417116 0.0159426815016434 82.2378889607959 
! Gamma         0                0                0                0                
! Port Impedance         50               0                50               0                
8.6                            0.0161226196262323 82.215270329762  0.99878828428973 -3.93878911935173 0.99878828428973 -3.93878911935175 0.0161226457352977 82.2135873057467 
! Gamma         0                0                0                0                
! Port Impedance         50               0                50               0                
8.7                            0.0163025274552693 82.1906926467959 0.998779186357638 -3.98419606569763 0.998779186357638 -3.98419606569765 0.0163025540549746 82.1889894090417 
! Gamma         0                0                0                0                
! Port Impedance         50               0                50               0                
8.8                            0.0164823805379409 82.1658249580661 0.998770109511383 -4.02960042616108 0.998770109511383 -4.0296004261611 0.0164824076324879 82.1641014979517 
! Gamma         0                0                0                0                
! Port Impedance         50               0                50               0                
8.9                            0.0166621799831789 82.1406732003887 0.998761052740985 -4.07500228027383 0.998761052740985 -4.07500228027385 0.0166622075766746 82.1389295093233 
! Gamma         0                0                0                0                
! Port Impedance         50               0                50               0                
9                              0.016841926838697 82.1152430428813 0.998752015027282 -4.1204017042209 0.998752015027282 -4.12040170422092 0.0168419549351533 82.1134791123207 
! Gamma         0                0                0                0                
! Port Impedance         50               0                50               0                
9.1                            0.0170216220927655 82.0895399077394 0.998742995343908 -4.16579877091697 0.998742995343908 -4.16579877091699 0.0170216506960996 82.0877557292009 
! Gamma         0                0                0                0                
! Port Impedance         50               0                50               0                
9.2                            0.0172012666759926 82.0635689892162 0.998733992659153 -4.21119355008476 0.998733992659153 -4.21119355008478 0.0172012957900275 82.061764554292  
! Gamma         0                0                0                0                
! Port Impedance         50               0                50               0                
9.3                            0.0173808614631062 82.0373352709613 0.998725005937691 -4.25658610833504 0.998725005937691 -4.25658610833506 0.017380891091571 82.0355105713305 
! Gamma         0                0                0                0                
! Port Impedance         50               0                50               0                
9.4                            0.0175604072747279 82.0108435418594 0.998716034142195 -4.30197650924774 0.998716034142196 -4.30197650924776 0.017560437421259 82.0089985692989 
! Gamma         0                0                0                0                
! Port Impedance         50               0                50               0                
9.5                            0.0177399048791362 81.9840984105002 0.998707076234838 -4.34736481345375 0.998707076234838 -4.34736481345377 0.0177399355472778 81.982233156894  
! Gamma         0                0                0                0                
! Port Impedance         50               0                50               0                
9.6                            0.0179193549940109 81.9571043183967 0.998698131178685 -4.39275107871719 0.998698131178685 -4.39275107871721 0.017919386187216 81.9552187757447 
! Gamma         0                0                0                0                
! Port Impedance         50               0                50               0                
9.7                            0.0180987582881566 81.9298655520621 0.998689197938985 -4.43813536001771 0.998689197938985 -4.43813536001773 0.0180987900097885 81.9279597124873 
! Gamma         0                0                0                0                
! Port Impedance         50               0                50               0                
9.8                            0.0182781153832009 81.9023862540433 0.998680275484365 -4.48351770963257 0.998680275484365 -4.4835177096326 0.0182781476365341 81.9004601097988 
! Gamma         0                0                0                0                
! Port Impedance         50               0                50               0                
9.9                            0.0184574268552639 81.8746704330026 0.99867136278793 -4.52889817721834 0.99867136278793 -4.52889817721836 0.0184574596434856 81.8727239764769 
! Gamma         0                0                0                0                
! Port Impedance         50               0                50               0                
10                             0.0186366932365967 81.8467219729294 0.998662458828274 -4.5742768098918 0.998662458828274 -4.57427680989182 0.0186367265628081 81.8447551966515 
! Gamma         0                0                0                0                
! Port Impedance         50               0                50               0                
10.1                           0.0188159150171861 81.8185446415595 0.998653562590408 -4.61965365231017 0.998653562590408 -4.61965365231019 0.0188159488844039 81.8165575382029 
! Gamma         0                0                0                0                
! Port Impedance         50               0                50               0                
10.2                           0.0189950926463241 81.7901420980694 0.998644673066616 -4.66502874675013 0.998644673066616 -4.66502874675015 0.0189951270574821 81.7881346604558 
! Gamma         0                0                0                0                
! Port Impedance         50               0                50               0                
10.3                           0.0191742265341413 81.7615179001101 0.998635789257221 -4.7104021331858 0.998635789257221 -4.71040213318583 0.0191742614920917 81.7594901212119 
! Gamma         0                0                0                0                
! Port Impedance         50               0                50               0                
10.4                           0.019353317053101 81.7326755102376 0.998626910171298 -4.7557738493654 0.998626910171298 -4.75577384936542 0.0193533525606165 81.7306273831804 
! Gamma         0                0                0                0                
! Port Impedance         50               0                50               0                
10.5                           0.0195323645394559 81.703618301794  0.998618034827309 -4.80114393088644 0.998618034827309 -4.80114393088647 0.0195324005992309 81.7015498198582 
! Gamma         0                0                0                0                
! Port Impedance         50               0                50               0                
10.6                           0.019711369294664 81.6743495642856 0.998609162253682 -4.84651241126956 0.998609162253682 -4.84651241126958 0.0197114059093164 81.6722607209078 
! Gamma         0                0                0                0                
! Port Impedance         50               0                50               0                
10.7                           0.0198903315867656 81.6448725083044 0.998600291489326 -4.89187932203068 0.998600291489326 -4.8918793220307 0.0198903687588386 81.642763297078  
! Gamma         0                0                0                0                
! Port Impedance         50               0                50               0                
10.8                           0.0200692516517193 81.6151902700317 0.998591421584098 -4.93724469275162 0.998591421584098 -4.93724469275164 0.0200692893836831 81.6130606847072 
! Gamma         0                0                0                0                
! Port Impedance         50               0                50               0                
10.9                           0.0202481296946987 81.5853059153608 0.99858255159921 -4.98260855114901 0.99858255159921 -4.98260855114904 0.0202481679889521 81.583155949846  
! Gamma         0                0                0                0                
! Port Impedance         50               0                50               0                
11                             0.0204269658913482 81.5552224436733 0.998573680607597 -5.02797092314153 0.998573680607597 -5.02797092314156 0.0204270047502204 81.5530520920329 
! Gamma         0                0                0                0                
! Port Impedance         50               0                50               0                
11.1                           0.0206057603889998 81.5249427912986 0.998564807694234 -5.07333183291539 0.998564807694234 -5.07333183291541 0.020605799814752 81.5227520477535 
! Gamma         0                0                0                0                
! Port Impedance         50               0                50               0                
11.2                           0.0207845133078496 81.4944698346853 0.99855593195641 -5.11869130298807 0.99855593195641 -5.1186913029881 0.0207845533026769 81.4922586936117 
! Gamma         0                0                0                0                
! Port Impedance         50               0                50               0                
11.3                           0.0209632247420961 81.4638063933102 0.99854705250397 -5.16404935427034 0.998547052503969 -5.16404935427037 0.0209632653081291 81.4615748492385 
! Gamma         0                0                0                0                
! Port Impedance         50               0                50               0                
11.4                           0.0211418947610399 81.4329552323473 0.998538168459508 -5.20940600612647 0.998538168459508 -5.20940600612649 0.0211419359003464 81.4307032799605 
! Gamma         0                0                0                0                
! Port Impedance         50               0                50               0                
11.5                           0.0213205234101452 81.4019190651192 0.998529278958543 -5.25476127643271 0.998529278958543 -5.25476127643273 0.021320565124732 81.3996466992517 
! Gamma         0                0                0                0                
! Port Impedance         50               0                50               0                
11.6                           0.021499110712065 81.3707005553499 0.998520383149645 -5.30011518163403 0.998520383149645 -5.30011518163406 0.0214991530038795 81.3684077709852 
! Gamma         0                0                0                0                
! Port Impedance         50               0                50               0                
11.7                           0.0216776566676295 81.3393023192365 0.998511480194548 -5.34546773679914 0.998511480194548 -5.34546773679916 0.021677699538561 81.3369891115058 
! Gamma         0                0                0                0                
! Port Impedance         50               0                50               0                
11.8                           0.0218561612567987 81.3077269273564 0.998502569268223 -5.39081895567373 0.998502569268223 -5.39081895567375 0.0218562047086807 81.3053932915361 
! Gamma         0                0                0                0                
! Port Impedance         50               0                50               0                
11.9                           0.0220346244395815 81.2759769064245 0.998493649558934 -5.4361688507321 0.998493649558934 -5.43616885073213 0.0220346684741927 81.2736228379342 
! Gamma         0                0                0                0                
! Port Impedance         50               0                50               0                
12                             0.0222130461569194 81.2440547409135 0.998484720268269 -5.48151743322709 0.998484720268269 -5.48151743322711 0.0222130907759857 81.2416802353138 
! Gamma         0                0                0                0                
! Port Impedance         50               0                50               0                
12.1                           0.0223914263315388 81.2119628745512 0.998475780611146 -5.52686471323834 0.998475780611146 -5.52686471323837 0.0223914715367346 81.2095679275411 
! Gamma         0                0                0                0                
! Port Impedance         50               0                50               0                
12.2                           0.02256976486877 81.1797037117032 0.998466829815805 -5.57221069971901 0.998466829815804 -5.57221069971904 0.0225698106617198 81.1772883191177 
! Gamma         0                0                0                0                
! Port Impedance         50               0                50               0                
12.3                           0.0227480616573361 81.1472796186536 0.998457867123776 -5.61755540054084 0.998457867123776 -5.61755540054087 0.022748108039616 81.1448437764614 
! Gamma         0                0                0                0                
! Port Impedance         50               0                50               0                
12.4                           0.0229263165701106 81.1146929247925 0.998448891789838 -5.66289882253773 0.998448891789838 -5.66289882253776 0.02292636354325 81.112236629093  
! Gamma         0                0                0                0                
! Port Impedance         50               0                50               0                
12.5                           0.0231045294648472 81.0819459237173 0.998439903081953 -5.7082409715478 0.998439903081953 -5.70824097154782 0.0231045770303297 81.0794691707383 
! Gamma         0                0                0                0                
! Port Impedance         50               0                50               0                
12.6                           0.0232827001848795 81.0490408742575 0.998430900281195 -5.75358185245392 0.998430900281195 -5.75358185245395 0.0232827483441446 81.0465436603524 
! Gamma         0                0                0                0                
! Port Impedance         50               0                50               0                
12.7                           0.0234608285597941 81.0159800014286 0.998421882681663 -5.79892146922292 0.998421882681663 -5.79892146922294 0.023460877314239 81.0134623230737 
! Gamma         0                0                0                0                
! Port Impedance         50               0                50               0                
12.8                           0.0236389144060776 80.9827654973223 0.99841284959038 -5.84425982494325 0.99841284959038 -5.84425982494327 0.0236389637570579 80.9802273511143 
! Gamma         0                0                0                0                
! Port Impedance         50               0                50               0                
12.9                           0.0238169575277366 80.9493995219381 0.998403800327186 -5.88959692186143 0.998403800327185 -5.88959692186145 0.023817007476568 80.9468409045911 
! Gamma         0                0                0                0                
! Port Impedance         50               0                50               0                
13                             0.023994957716894 80.9158842039624 0.998394734224617 -5.93493276141705 0.998394734224617 -5.93493276141707 0.0239950082648534 80.9133051123054 
! Gamma         0                0                0                0                
! Port Impedance         50               0                50               0                
13.1                           0.0241729147543605 80.882221641499  0.998385650627784 -5.98026734427656 0.998385650627784 -5.98026734427659 0.0241729659026875 80.8796220724729 
! Gamma         0                0                0                0                
! Port Impedance         50               0                50               0                
13.2                           0.0243508284101837 80.848413902756  0.998376548894233 -6.0256006703658 0.998376548894233 -6.02560067036583 0.0243508801600815 80.8457938534114 
! Gamma         0                0                0                0                
! Port Impedance         50               0                50               0                
13.3                           0.024528698444174 80.8144630266931 0.998367428393807 -6.07093273890127 0.998367428393807 -6.0709327389013 0.0245287507968109 80.8118224941872 
! Gamma         0                0                0                0                
! Port Impedance         50               0                50               0                
13.4                           0.0247065246064097 80.7803710236323 0.998358288508497 -6.11626354842032 0.998358288508497 -6.11626354842034 0.0247065775629201 80.7777100052264 
! Gamma         0                0                0                0                
! Port Impedance         50               0                50               0                
13.5                           0.024884306637721 80.7461398758361 0.998349128632295 -6.16159309681007 0.998349128632294 -6.1615930968101 0.0248843601992065 80.7434583688927 
! Gamma         0                0                0                0                
! Port Impedance         50               0                50               0                
13.6                           0.0250620442701542 80.711771538055  0.998339948171029 -6.20692138133538 0.998339948171029 -6.20692138133541 0.025062098437685 80.7090695400356 
! Gamma         0                0                0                0                
! Port Impedance         50               0                50               0                
13.7                           0.0252397372274163 80.6772679380487 0.998330746542212 -6.25224839866565 0.998330746542212 -6.25224839866567 0.0252397920020318 80.674545446511  
! Gamma         0                0                0                0                
! Port Impedance         50               0                50               0                
13.8                           0.0254173852253015 80.6426309770819 0.998321523174871 -6.29757414490058 0.998321523174871 -6.29757414490061 0.025417440608012 80.6398879896771 
! Gamma         0                0                0                0                
! Port Impedance         50               0                50               0                
13.9                           0.0255949879721  80.6078625303973 0.998312277509384 -6.34289861559505 0.998312277509384 -6.34289861559508 0.0255950439638871 80.6050990448677 
! Gamma         0                0                0                0                
! Port Impedance         50               0                50               0                
14                             0.0257725451689888 80.5729644476683 0.99830300899731 -6.3882218057829 0.998303008997309 -6.38822180578292 0.0257726017708067 80.570180461845  
! Gamma         0                0                0                0                
! Port Impedance         50               0                50               0                
14.1                           0.0259500565104072 80.5379385534333 0.998293717101215 -6.43354370999986 0.998293717101215 -6.43354370999989 0.0259501137231837 80.5351340652334 
! Gamma         0                0                0                0                
! Port Impedance         50               0                50               0                
14.2                           0.0261275216844157 80.5027866475119 0.998284401294507 -6.47886432230559 0.998284401294507 -6.47886432230562 0.0261275795090529 80.4999616549361 
! Gamma         0                0                0                0                
! Port Impedance         50               0                50               0                
14.3                           0.0263049403730398 80.4675105054062 0.998275061061256 -6.52418363630479 0.998275061061255 -6.52418363630481 0.0263049988104152 80.4646650065369 
! Gamma         0                0                0                0                
! Port Impedance         50               0                50               0                
14.4                           0.0264823122525993 80.4321118786876 0.99826569589602 -6.56950164516754 0.99826569589602 -6.56950164516756 0.0264823713035667 80.4292458716861 
! Gamma         0                0                0                0                
! Port Impedance         50               0                50               0                
14.5                           0.0266596369940239 80.3965924953708 0.998256305303676 -6.61481834164879 0.998256305303676 -6.61481834164882 0.0266596966594143 80.393705978475  
! Gamma         0                0                0                0                
! Port Impedance         50               0                50               0                
14.6                           0.0268369142631546 80.3609540602749 0.998246888799238 -6.66013371810713 0.998246888799238 -6.66013371810716 0.0268369745437768 80.3580470317973 
! Gamma         0                0                0                0                
! Port Impedance         50               0                50               0                
14.7                           0.0270141437210329 80.3251982553746 0.998237445907688 -6.70544776652275 0.998237445907688 -6.70544776652278 0.0270142046176744 80.3222707137001 
! Gamma         0                0                0                0                
! Port Impedance         50               0                50               0                
14.8                           0.0271913250241769 80.2893267401408 0.9982279761638  -6.7507604785147 0.9982279761638  -6.75076047851472 0.027191386537605 80.2863786837245 
! Gamma         0                0                0                0                
! Port Impedance         50               0                50               0                
14.9                           0.0273684578248463 80.2533411518721 0.998218479111964 -6.79607184535747 0.998218479111964 -6.7960718453575 0.0273685199558085 80.250372579237  
! Gamma         0                0                0                0                
! Port Impedance         50               0                50               0                
15                             0.0275455417712953 80.2172431060174 0.998208954306019 -6.84138185799692 0.998208954306019 -6.84138185799694 0.02754560452052 80.2142540157525 
! Gamma         0                0                0                0                
! Port Impedance         50               0                50               0                
15.1                           0.0277225765080149 80.1810341964908 0.998199401309075 -6.88669050706548 0.998199401309075 -6.88669050706551 0.0277226398762124 80.1780245872491 
! Gamma         0                0                0                0                
! Port Impedance         50               0                50               0                
15.2                           0.0278995616759645 80.1447159959796 0.998189819693349 -6.93199778289688 0.998189819693349 -6.9319977828969 0.0278996256638275 80.1416858664761 
! Gamma         0                0                0                0                
! Port Impedance         50               0                50               0                
15.3                           0.0280764969127936 80.1082900562449 0.998180209039991 -6.9773036755401 0.99818020903999 -6.97730367554012 0.028076561520998 80.1052394052546 
! Gamma         0                0                0                0                
! Port Impedance         50               0                50               0                
15.4                           0.028253381853054 80.0717579084163 0.998170568938918 -7.02260817477294 0.998170568938918 -7.02260817477296 0.0282534470822593 80.0686867347724 
! Gamma         0                0                0                0                
! Port Impedance         50               0                50               0                
15.5                           0.0284302161284021 80.0351210632805 0.99816089898865 -7.06791127011485 0.998160898988649 -7.06791127011487 0.0284302819792525 80.0320293658727 
! Gamma         0                0                0                0                
! Port Impedance         50               0                50               0                
15.6                           0.0286069993677932 79.9983810115647 0.998151198796143 -7.11321295083941 0.998151198796143 -7.11321295083943 0.0286070658409176 79.9952687893369 
! Gamma         0                0                0                0                
! Port Impedance         50               0                50               0                
15.7                           0.0287837311976666 79.9615392242145 0.99814146797663 -7.15851320598615 0.99814146797663 -7.15851320598617 0.0287837982936798 79.9584064761637 
! Gamma         0                0                0                0                
! Port Impedance         50               0                50               0                
15.8                           0.028960411242123 79.9245971526674 0.99813170615346 -7.20381202437198 0.99813170615346 -7.203812024372  0.0289604789616258 79.9214438778416 
! Gamma         0                0                0                0                
! Port Impedance         50               0                50               0                
15.9                           0.0291370391230937 79.8875562291213 0.998121912957936 -7.24910939460211 0.998121912957935 -7.24910939460213 0.0291371074666737 79.884382426618  
! Gamma         0                0                0                0                
! Port Impedance         50               0                50               0                
16                             0.029313614460503 79.8504178667992 0.998112088029164 -7.2944053050805 0.998112088029163 -7.29440530508052 0.0293136834287351 79.8472235357635 
! Gamma         0                0                0                0                
! Port Impedance         50               0                50               0                
16.1                           0.0294901368724226 79.8131834602092 0.998102231013896 -7.33969974401994 0.998102231013896 -7.33969974401996 0.0294902064658695 79.8099685998325 
! Gamma         0                0                0                0                
! Port Impedance         50               0                50               0                
16.2                           0.0296666059752198 79.7758543854011 0.99809234156638 -7.38499269945162 0.99809234156638 -7.38499269945164 0.0296666761944324 79.7726189949197 
! Gamma         0                0                0                0                
! Port Impedance         50               0                50               0                
16.3                           0.0298430213836988 79.7384320002193 0.99808241934821 -7.43028415923439 0.99808241934821 -7.43028415923441 0.0298430922292169 79.7351760789124 
! Gamma         0                0                0                0                
! Port Impedance         50               0                50               0                
16.4                           0.0300193827112357 79.7009176445518 0.998072464028177 -7.47557411106356 0.998072464028177 -7.47557411106358 0.0300194541835882 79.6976411917405 
! Gamma         0                0                0                0                
! Port Impedance         50               0                50               0                
16.5                           0.0301956895699079 79.6633126405758 0.998062475282127 -7.52086254247941 0.998062475282126 -7.52086254247943 0.0301957616696137 79.6600156556214 
! Gamma         0                0                0                0                
! Port Impedance         50               0                50               0                
16.6                           0.0303719415706172 79.6256182930007 0.998052452792815 -7.56614944087525 0.998052452792815 -7.56614944087527 0.0303720142981851 79.6223007753035 
! Gamma         0                0                0                0                
! Port Impedance         50               0                50               0                
16.7                           0.0305481383232078 79.5878358893067 0.99804239624977 -7.61143479350523 0.998042396249769 -7.61143479350524 0.0305482116791372 79.5844978383047 
! Gamma         0                0                0                0                
! Port Impedance         50               0                50               0                
16.8                           0.0307242794365787 79.5499666999818 0.99803230534915 -7.65671858749173 0.99803230534915 -7.65671858749174 0.03072435342136 79.5466081151491 
! Gamma         0                0                0                0                
! Port Impedance         50               0                50               0                
16.9                           0.0309003645187911 79.5120119787541 0.998022179793613 -7.70200080983254 0.998022179793613 -7.70200080983256 0.0309004391329062 79.5086328595999 
! Gamma         0                0                0                0                
! Port Impedance         50               0                50               0                
17                             0.0310763931771714 79.4739729628232 0.998012019292182 -7.74728144740766 0.998012019292182 -7.74728144740768 0.0310764684210938 79.4705733088904 
! Gamma         0                0                0                0                
! Port Impedance         50               0                50               0                
17.1                           0.0312523650184089 79.4358508730864 0.998001823560111 -7.79256048698582 0.99800182356011 -7.79256048698584 0.0312524408926043 79.4324306839507 
! Gamma         0                0                0                0                
! Port Impedance         50               0                50               0                
17.2                           0.0314282796486497 79.3976469143646 0.99799159231876 -7.83783791523079 0.99799159231876 -7.83783791523081 0.0314283561535761 79.3942061896329 
! Gamma         0                0                0                0                
! Port Impedance         50               0                50               0                
17.3                           0.0316041366735855 79.3593622756233 0.997981325295469 -7.88311371870729 0.997981325295469 -7.88311371870731 0.0316042138096941 79.3559010149328 
! Gamma         0                0                0                0                
! Port Impedance         50               0                50               0                
17.4                           0.0317799356985397 79.3209981301923 0.997971022223434 -7.92838788388679 0.997971022223434 -7.92838788388681 0.0317800134662747 79.3175163332095 
! Gamma         0                0                0                0                
! Port Impedance         50               0                50               0                
17.5                           0.0319556763285483 79.2825556359822 0.997960682841583 -7.97366039715297 0.997960682841583 -7.97366039715299 0.0319557547283472 79.2790533024016 
! Gamma         0                0                0                0                
! Port Impedance         50               0                50               0                
17.6                           0.0321313581684375 79.2440359356983 0.997950306894461 -8.01893124480699 0.997950306894461 -8.018931244807  0.0321314372007318 79.2405130652415 
! Gamma         0                0                0                0                
! Port Impedance         50               0                50               0                
17.7                           0.0323069808228984 79.2054401570523 0.997939894132111 -8.06420041307249 0.997939894132111 -8.06420041307251 0.0323070604881136 79.201896749467  
! Gamma         0                0                0                0                
! Port Impedance         50               0                50               0                
17.8                           0.0324825438965571 79.166769412971  0.99792944430996 -8.10946788810044 0.99792944430996 -8.10946788810045 0.0324826241951133 79.16320546803   
! Gamma         0                0                0                0                
! Port Impedance         50               0                50               0                
17.9                           0.0326580469940427 79.1280248018025 0.997918957188707 -8.15473365597368 0.997918957188706 -8.1547336559737 0.0326581279263545 79.1244403193029 
! Gamma         0                0                0                0                
! Port Impedance         50               0                50               0                
18                             0.0328334897200517 79.0892074075208 0.997908432534211 -8.19999770271141 0.997908432534211 -8.19999770271143 0.0328335712865285 79.0856023872826 
! Gamma         0                0                0                0                
! Port Impedance         50               0                50               0                
18.1                           0.0330088716794089 79.0503182999265 0.997897870117389 -8.24526001427332 0.997897870117389 -8.24526001427333 0.0330089538804554 79.0466927417922 
! Gamma         0                0                0                0                
! Port Impedance         50               0                50               0                
18.2                           0.0331841924771264 79.0113585348461 0.997887269714103 -8.29052057656365 0.997887269714103 -8.29052057656366 0.033184275313143 79.0077124386796 
! Gamma         0                0                0                0                
! Port Impedance         50               0                50               0                
18.3                           0.0333594517184596 78.9723291543286 0.997876631105063 -8.33577937543505 0.997876631105062 -8.33577937543506 0.0333595351898419 78.9686625200146 
! Gamma         0                0                0                0                
! Port Impedance         50               0                50               0                
18.4                           0.0335346490089598 78.9332311868401 0.99786595407572 -8.38103639669225 0.997865954075719 -8.38103639669227 0.0335347331160998 78.9295440142829 
! Gamma         0                0                0                0                
! Port Impedance         50               0                50               0                
18.5                           0.0337097839545258 78.8940656474547 0.997855238416172 -8.42629162609559 0.997855238416171 -8.4262916260956 0.0337098686978113 78.8903579365778 
! Gamma         0                0                0                0                
! Port Impedance         50               0                50               0                
18.6                           0.0338848561614513 78.854833538045  0.997844483921063 -8.47154504936436 0.997844483921063 -8.47154504936437 0.0338849415412666 78.85110528879   
! Gamma         0                0                0                0                
! Port Impedance         50               0                50               0                
18.7                           0.034059865236472 78.8155358474684 0.997833690389492 -8.51679665218006 0.997833690389492 -8.51679665218007 0.034059951253198 78.8117870597946 
! Gamma         0                0                0                0                
! Port Impedance         50               0                50               0                
18.8                           0.0342348107868087 78.7761735517525 0.997822857624915 -8.56204642018942 0.997822857624914 -8.56204642018943 0.034234897440823 78.7724042256356 
! Gamma         0                0                0                0                
! Port Impedance         50               0                50               0                
18.9                           0.0344096924202097 78.736747614277  0.997811985435056 -8.6072943390074 0.997811985435055 -8.6072943390074 0.0344097797118868 78.7329577497093 
! Gamma         0                0                0                0                
! Port Impedance         50               0                50               0                
19                             0.0345845097449901 78.6972589859545 0.997801073631819 -8.65254039421991 0.997801073631819 -8.65254039421992 0.0345845976747018 78.6934485829432 
! Gamma         0                0                0                0                
! Port Impedance         50               0                50               0                
19.1                           0.0347592623700702 78.6577086054076 0.997790122031201 -8.6977845713866 0.997790122031201 -8.69778457138661 0.0347593509381855 78.6538776639751 
! Gamma         0                0                0                0                
! Port Impedance         50               0                50               0                
19.2                           0.0349339499050114 78.6180973991455 0.997779130453203 -8.74302685604331 0.997779130453203 -8.74302685604332 0.034934039111897 78.614245919328  
! Gamma         0                0                0                0                
! Port Impedance         50               0                50               0                
19.3                           0.0351085719600507 78.5784262817363 0.99776809872175 -8.78826723370459 0.99776809872175 -8.78826723370459 0.0351086618060707 78.5745542635837 
! Gamma         0                0                0                0                
! Port Impedance         50               0                50               0                
19.4                           0.0352831281461332 78.5386961559789 0.997757026664607 -8.83350568986598 0.997757026664606 -8.83350568986598 0.0352832186316496 78.5348035995539 
! Gamma         0                0                0                0                
! Port Impedance         50               0                50               0                
19.5                           0.0354576180749434 78.4989079130716 0.9977459141133  -8.87874221000627 0.9977459141133  -8.87874221000627 0.0354577092003162 78.4949948184492 
! Gamma         0                0                0                0                
! Port Impedance         50               0                50               0                
19.6                           0.0356320413589345 78.4590624327787 0.997734760903039 -8.92397677958962 0.997734760903039 -8.92397677958963 0.0356321331245219 78.4551288000458 
! Gamma         0                0                0                0                
! Port Impedance         50               0                50               0                
19.7                           0.035806397611357 78.4191605835951 0.997723566872639 -8.96920938406758 0.997723566872639 -8.96920938406758 0.0358064900175154 78.4152064128497 
! Gamma         0                0                0                0                
! Port Impedance         50               0                50               0                
19.8                           0.0359806864462851 78.3792032229086 0.997712331864445 -9.01444000888101 0.997712331864445 -9.01444000888101 0.0359807794933693 78.3752285142594 
! Gamma         0                0                0                0                
! Port Impedance         50               0                50               0                
19.9                           0.0361549074786423 78.3391911971598 0.997701055724262 -9.05966863946195 0.997701055724261 -9.05966863946195 0.0361550011670057 78.3351959507257 
! Gamma         0                0                0                0                
! Port Impedance         50               0                50               0                
20                             0.0363290603242254 78.2991253420003 0.997689738301278 -9.10489526123534 0.997689738301278 -9.10489526123535 0.0363291546542199 78.2951095579101 
! Gamma         -0               -0               -0               -0               
! Port Impedance         50               0                50               0                
