! Touchstone file exported from HFSS 2026.1.0
!        File:           C:/ffzhzh/LocalFiles/Ansys_Project_Files/temp_train_TSV_811_1783184311_51560.aedt
!        Generated:      01:01:50 AM Jul  5, 2026
!        Design:         TSV
!        Project:        temp_train_TSV_811_1783184311_51560
!
! Variables:
!        h_bsmrdl = 2um
!        h_ox = 20um
!        h_rdl = 5um
!        h_sub = 85.68um
!        h_tmrdl = 5um
!        h_tsv = 85.68um
!        h_via = 3um
!        l_bsmrdl = 300um
!        l_sub = 404.12um
!        l_tmrdl = 200um
!        m_sub = 200um
!        pitch = 18.7um
!        r_tsv = 2.06um
!        s_tmrdl = 10um
!        w_bsmrdl = 18um
!        w_sub = 500um
!        w_tmrdl = 12um
!        x_tsv_center1 = 206um
!        x_tsv_center2 = 524um
!        x_tsv_center3 = 736um
!        x_tsv_center4 = 1054um
!        x_tsv_center5 = 1266um
!        x_tsv_center6 = 1584um
!
# GHz S MA R 50.000000
! Terminal data exported
! Port[1] = TSV1_1_T1
! Port[2] = TSV1_1_T2
0.1                            0.00233893528786842 9.3819157447006  0.997692586228864 -0.0462596927838852 0.997692586228862 -0.046259692783887 0.00233893523906196 9.38191066710984 
! Gamma         0                0                0                0                
! Port Impedance         50               0                50               0                
0.2                            0.00243471667696183 18.2323937889074 0.997688458604265 -0.0924736149443504 0.997688458604263 -0.0924736149443497 0.00243471649443108 18.2323847890757 
! Gamma         0                0                0                0                
! Port Impedance         50               0                50               0                
0.3                            0.00258530999926537 26.1843109340434 0.99768210777749 -0.138606097689771 0.997682107777488 -0.138606097689761 0.00258530962087603 26.1842997585041 
! Gamma         0                0                0                0                
! Port Impedance         50               0                50               0                
0.4                            0.00278054646999395 33.0898972930339 0.997674155337361 -0.184637311698376 0.997674155337358 -0.184637311698349 0.00278054586108409 33.089885631111  
! Gamma         0                0                0                0                
! Port Impedance         50               0                50               0                
0.5                            0.00301057515946056 38.9715713017106 0.997665221903901 -0.230563234672888 0.997665221903899 -0.230563234672839 0.00301057430838049 38.9715604222929 
! Gamma         0                0                0                0                
! Port Impedance         50               0                50               0                
0.6                            0.00326715500173175 43.9411803561836 0.997655821576909 -0.276391583365717 0.997655821576906 -0.276391583365646 0.00326715391237492 43.9411710436427 
! Gamma         0                0                0                0                
! Port Impedance         50               0                50               0                
0.7                            0.00354393140208295 48.1381066255724 0.997646319849321 -0.322136540730795 0.997646319849318 -0.322136540730701 0.00354393008693563 48.1380992703136 
! Gamma         0                0                0                0                
! Port Impedance         50               0                50               0                
0.8                            0.0038361984955118 51.6961699346409 0.997636939624101 -0.367814325966551 0.997636939624099 -0.367814325966436 0.00383619697055334 51.6961646597229 
! Gamma         0                0                0                0                
! Port Impedance         50               0                50               0                
0.9                            0.00414051883195131 54.7308584654229 0.997627790942643 -0.413440354344748 0.997627790942641 -0.413440354344616 0.00414051711345531 54.7308552348612 
! Gamma         0                0                0                0                
! Port Impedance         50               0                50               0                
1                              0.00445437386640235 57.3370628730571 0.99761890562714 -0.459027846772171 0.997618905627139 -0.459027846772026 0.00445437196921153 57.3370615684079 
! Gamma         0                0                0                0                
! Port Impedance         50               0                50               0                
1.1                            0.00477589492652785 59.5910793331382 0.997610267089954 -0.504587425126831 0.997610267089953 -0.504587425126675 0.00477589286331045 59.5910798018946 
! Gamma         0                0                0                0                
! Port Impedance         50               0                50               0                
1.2                            0.00510367158878048 61.5538043950503 0.997601832304433 -0.550127247984656 0.997601832304432 -0.550127247984494 0.00510366936986811 61.5538064786224 
! Gamma         0                0                0                0                
! Port Impedance         50               0                50               0                
1.3                            0.00543661959424473 63.2738572436089 0.997593546415711 -0.595653376728752 0.99759354641571 -0.595653376728585 0.00543661722777451 63.2738607920173 
! Gamma         0                0                0                0                
! Port Impedance         50               0                50               0                
1.4                            0.00577389055983703 64.7902219851722 0.997585351680602 -0.641170194419821 0.997585351680601 -0.641170194419653 0.00577388805202592 64.7902268637038 
! Gamma         0                0                0                0                
! Port Impedance         50               0                50               0                
1.5                            0.00611480989351765 66.1343542329524 0.997577192491963 -0.686680792246355 0.997577192491962 -0.686680792246186 0.00611480724897183 66.1343603242519 
! Gamma         0                0                0                0                
! Port Impedance         50               0                50               0                
1.6                            0.00645883350131455 67.3318174152365 0.997569017893655 -0.732187292256288 0.997569017893655 -0.732187292256121 0.00645883072332436 67.3318246189888 
! Gamma         0                0                0                0                
! Port Impedance         50               0                50               0                
1.7                            0.00680551704861195 68.4035412309801 0.997560782581808 -0.777691102294307 0.997560782581808 -0.777691102294141 0.00680551413941115 68.4035494624483 
! Gamma         0                0                0                0                
! Port Impedance         50               0                50               0                
1.8                            0.00715449370768655 69.3667879976812 0.997552447046844 -0.823193110690899 0.997552447046845 -0.823193110690736 0.00715449066866984 69.3667971858129 
! Gamma         0                0                0                0                
! Port Impedance         50               0                50               0                
1.9                            0.00750545773862931 70.2358968580438 0.997543977264347 -0.868693831783176 0.997543977264347 -0.868693831783017 0.00750545457052973 70.2359069435232 
! Gamma         0                0                0                0                
! Port Impedance         50               0                50               0                
2                              0.00785815215717805 71.0228599425351 0.997535344178248 -0.914193513174717 0.997535344178249 -0.914193513174562 0.00785814886020897 71.0228708759646 
! Gamma         0                0                0                0                
! Port Impedance         50               0                50               0                
2.1                            0.00821235932218237 71.7377713248591 0.997526523115273 -0.959692214063327 0.997526523115274 -0.959692214063176 0.00821235589614975 71.737783065147  
! Gamma         0                0                0                0                
! Port Impedance         50               0                50               0                
2.2                            0.00856789364828701 72.3891793061118 0.997517493205586 -1.00518986207855 0.997517493205587 -1.0051898620784 0.00856789009267757 72.3891918190856 
! Gamma         0                0                0                0                
! Port Impedance         50               0                50               0                
2.3                            0.00892459589268278 72.9843648180405 0.997508236846672 -1.05068629433536 0.997508236846673 -1.05068629433522 0.00892459220673274 72.9843780752754 
! Gamma         0                0                0                0                
! Port Impedance         50               0                50               0                
2.4                            0.00928232862617307 73.529562994624  0.997498739225774 -1.09618128697679 0.997498739225776 -1.09618128697666 0.00928232480892164 73.5295769724653 
! Gamma         0                0                0                0                
! Port Impedance         50               0                50               0                
2.5                            0.00964097260788738 74.0301407255251 0.997488987904281 -1.14167457635805 0.997488987904283 -1.14167457635792 0.00964096865821838 74.0301554042773 
! Gamma         0                0                0                0                
! Port Impedance         50               0                50               0                
2.6                            0.010000423858106 74.4907398783694 0.997478972461269 -1.18716587417707 0.997478972461271 -1.18716587417694 0.0100004197747801 74.490755241627  
! Gamma         0                0                0                0                
! Port Impedance         50               0                50               0                
2.7                            0.0103605912763722 74.9153935608273 0.997468684190624 -1.23265487822805 0.997468684190625 -1.23265487822793 0.0103605870580518 74.9154095949235 
! Gamma         0                0                0                0                
! Port Impedance         50               0                50               0                
2.8                            0.0107213946897003 75.3076210691317 0.997458115845134 -1.27814127999341 0.997458115845136 -1.2781412799933 0.0107213903349692 75.3076377626842 
! Gamma         0                0                0                0                
! Port Impedance         50               0                50               0                
2.9                            0.0110827632429915 75.6705058780671 0.997447261420989 -1.32362476995441 0.99744726142099 -1.3236247699543 0.0110827587503696 75.6705232216043 
! Gamma         0                0                0                0                
! Port Impedance         50               0                50               0                
3                              0.0114446340638672 76.0067600537668 0.997436115976567 -1.36910504125748 0.997436115976569 -1.36910504125738 0.0114446294318226 76.006778039419  
! Gamma         0                0                0                0                
! Port Impedance         50               0                50               0                
3.1                            0.0118069511491281 76.3187777317406 0.997424675480121 -1.41458179219768 0.997424675480123 -1.41458179219758 0.0118069463760859 76.3187963529855 
! Gamma         0                0                0                0                
! Port Impedance         50               0                50               0                
3.2                            0.0121696644313617 76.6086797381237 0.997412936681653 -1.46005472785321 0.997412936681655 -1.46005472785311 0.0121696595157112 76.608698989575  
! Gamma         0                0                0                0                
! Port Impedance         50               0                50               0                
3.3                            0.0125327289928605 76.8783509981748 0.997400897005008 -1.50552356111333 0.99740089700501 -1.50552356111324 0.0125327239329606 76.8783708754073 
! Gamma         0                0                0                0                
! Port Impedance         50               0                50               0                
3.4                            0.0128961044006622 77.1294720403009 0.997388554456834 -1.55098801327525 0.997388554456836 -1.55098801327516 0.0128960991948458 77.1294925397049 
! Gamma         0                0                0                0                
! Port Impedance         50               0                50               0                
3.5                            0.0132597541416934 77.3635456425222 0.99737590754959 -1.59644781433711 0.997375907549591 -1.59644781433703 0.013259748788271 77.3635667611815 
! Gamma         0                0                0                0                
! Port Impedance         50               0                50               0                
3.6                            0.0136236451410423 77.5819194636351 0.997362955236277 -1.6419027030796 0.997362955236279 -1.64190270307952 0.0136236396383043 77.5819411992258 
! Gamma         0                0                0                0                
! Port Impedance         50               0                50               0                
3.7                            0.0139877473495772 77.7858053401673 0.997349696854967 -1.68735242700272 0.997349696854969 -1.68735242700264 0.0139877416957964 77.7858276908719 
! Gamma         0                0                0                0                
! Port Impedance         50               0                50               0                
3.8                            0.0143520333896633 77.9762958026073 0.997336132081491 -1.73279674216598 0.997336132081493 -1.73279674216591 0.0143520275830962 77.9763187670432 
! Gamma         0                0                0                0                
! Port Impedance         50               0                50               0                
3.9                            0.0147164782497463 78.1543782628176 0.997322260888999 -1.77823541296667 0.997322260889001 -1.7782354129666 0.0147164722886348 78.1544018399764 
! Gamma         0                0                0                0                
! Port Impedance         50               0                50               0                
4                              0.0150810590202031 78.3209472432818 0.997308083513251 -1.82366821188096 0.997308083513253 -1.8236682118809 0.0150810529027756 78.3209714324779 
! Gamma         0                0                0                0                
! Port Impedance         50               0                50               0                
4.1                            0.0154457546641645 78.4768149535128 0.997293600422747 -1.8690949191854 0.997293600422749 -1.86909491918534 0.0154457483886366 78.4768397543396 
! Gamma         0                0                0                0                
! Port Impedance         50               0                50               0                
4.2                            0.0158105458180815 78.6227204661929 0.997278812292926 -1.91451532267115 0.997278812292928 -1.91451532267109 0.0158105393826571 78.622745878486  
! Gamma         0                0                0                0                
! Port Impedance         50               0                50               0                
4.3                            0.0161754146176728 78.7593377028147 0.997263719983808 -1.95992921735937 0.99726371998381 -1.95992921735932 0.0161754080205446 78.7593637266199 
! Gamma         0                0                0                0                
! Port Impedance         50               0                50               0                
4.4                            0.0165403445456003 78.8872824037191 0.997248324520543 -2.00533640522361 0.997248324520545 -2.00533640522356 0.0165403377849505 78.8873090392655 
! Gamma         0                0                0                0                
! Port Impedance         50               0                50               0                
4.5                            0.0169053202978025 79.0071182288929 0.997232627076435 -2.05073669492265 0.997232627076437 -2.05073669492261 0.0169053133718034 79.0071454765691 
! Gamma         0                0                0                0                
! Port Impedance         50               0                50               0                
4.6                            0.0172703276658962 79.1193621124497 0.997216628958067 -2.09612990154636 0.997216628958069 -2.09612990154632 0.0172703205727106 79.119389972784  
! Gamma         0                0                0                0                
! Port Impedance         50               0                50               0                
4.7                            0.0176353534334576 79.2244889743901 0.997200331592223 -2.14151584637545 0.997200331592225 -2.14151584637542 0.0176353461712394 79.224517448033  
! Gamma         0                0                0                0                
! Port Impedance         50               0                50               0                
4.8                            0.0180003852843216 79.3229358772364 0.997183736514342 -2.18689435665591 0.997183736514344 -2.18689435665588 0.0180003778512164 79.3229649649452 
! Gamma         0                0                0                0                
! Port Impedance         50               0                50               0                
4.9                            0.018365411721319 79.4151057018485 0.997166845358287 -2.23226526538779 0.997166845358289 -2.23226526538776 0.0183654041154642 79.4151354044746 
! Gamma         0                0                0                0                
! Port Impedance         50               0                50               0                
5                              0.0187304219940977 79.5013704056484 0.997149659847247 -2.27762841112826 0.997149659847249 -2.27762841112824 0.0187304142136235 79.5014007241257 
! Gamma         0                0                0                0                
! Port Impedance         50               0                50               0                
5.1                            0.0190954060348731 79.5820739172141 0.997132181785614 -2.32298363780812 0.997132181785616 -2.3229836378081 0.0190953980779025 79.5821048525488 
! Gamma         0                0                0                0                
! Port Impedance         50               0                50               0                
5.2                            0.0194603544011125 79.6575347134301 0.997114413051698 -2.3683307945611 0.9971144130517  -2.36833079456109 0.0194603462657619 79.6575662666918 
! Gamma         0                0                0                0                
! Port Impedance         50               0                50               0                
5.3                            0.019825258224299 79.728048118835  0.997096355591174 -2.41366973556518 0.997096355591176 -2.41366973556516 0.0198252499086789 79.7280802911494 
! Gamma         0                0                0                0                
! Port Impedance         50               0                50               0                
5.4                            0.0201901091640374 79.7938883612852 0.997078011411165 -2.45900031989494 0.997078011411167 -2.45900031989493 0.0201901006662526 79.7939211538267 
! Gamma         0                0                0                0                
! Port Impedance         50               0                50               0                
5.5                            0.0205548993668622 79.8553104133698 0.997059382574873 -2.50432241138429 0.997059382574875 -2.50432241138428 0.0205548906850125 79.8553438273557 
! Gamma         0                0                0                0                
! Port Impedance         50               0                50               0                
5.6                            0.0209196214291948 79.9125516450442 0.997040471196691 -2.5496358784985 0.997040471196693 -2.54963587849849 0.0209196125613751 79.9125856817294 
! Gamma         0                0                0                0                
! Port Impedance         50               0                50               0                
5.7                            0.0212842683639684 79.9658333095644 0.997021279437739 -2.59494059421487 0.99702127943774 -2.59494059421486 0.0212842593082696 79.9658679702362 
! Gamma         0                0                0                0                
! Port Impedance         50               0                50               0                
5.8                            0.0216488335705012 80.0153618819145 0.997001809501769 -2.64023643591128 0.997001809501771 -2.64023643591128 0.0216488243250105 80.0153971678886 
! Gamma         0                0                0                0                
! Port Impedance         50               0                50               0                
5.9                            0.0220133108072518 80.061330266452  0.996982063631401 -2.68552328526182 0.996982063631403 -2.68552328526183 0.0220133013700533 80.0613661790686 
! Gamma         0                0                0                0                
! Port Impedance         50               0                50               0                
6                              0.0223776941671366 80.1039188883711 0.996962044104635 -2.73080102813884 0.996962044104637 -2.73080102813885 0.0223776845363116 80.1039554289913 
! Gamma         0                0                0                0                
! Port Impedance         50               0                50               0                
6.1                            0.0227419780551282 80.1432966817587 0.996941753231629 -2.77606955452082 0.996941753231631 -2.77606955452083 0.0227419682287558 80.1433338517612 
! Gamma         0                0                0                0                
! Port Impedance         50               0                50               0                
6.2                            0.0231061571678883 80.179621985448  0.9969211933517  -2.82132875840552 0.996921193351702 -2.82132875840554 0.0231061471440459 80.1796597862266 
! Gamma         0                0                0                0                
! Port Impedance         50               0                50               0                
6.3                            0.0234702264752187 80.2130433565117 0.996900366830523 -2.8665785377278 0.996900366830525 -2.86657853772781 0.0234702162519824 80.2130817894725 
! Gamma         0                0                0                0                
! Port Impedance         50               0                50               0                
6.4                            0.0238341812031376 80.2437003100615 0.996879276057517 -2.9118187942816 0.996879276057519 -2.91181879428162 0.0238341707785828 80.2437393766205 
! Gamma         0                0                0                0                
! Port Impedance         50               0                50               0                
6.5                            0.0241980168184144 80.2717239929964 0.996857923443384 -2.95704943364584 0.996857923443386 -2.95704943364586 0.0241980061906161 80.2717636945774 
! Gamma         0                0                0                0                
! Port Impedance         50               0                50               0                
6.6                            0.024561729014411 80.2972377984553 0.996836311417804 -3.00227036511355 0.996836311417806 -3.00227036511357 0.0245617181814443 80.2972781364879 
! Gamma         0                0                0                0                
! Port Impedance         50               0                50               0                
6.7                            0.0249253136980992 80.3203579269536 0.996814442427252 -3.04748150162405 0.996814442427254 -3.04748150162408 0.0249253026580401 80.3203989028713 
! Gamma         0                0                0                0                
! Port Impedance         50               0                50               0                
6.8                            0.025288766978136 80.341193899507  0.996792318932938 -3.09268275969788 0.99679231893294 -3.09268275969791 0.0252887557290613 80.3412355147458 
! Gamma         0                0                0                0                
! Port Impedance         50               0                50               0                
6.9                            0.0256520851538915 80.3598490274536 0.996769943408856 -3.13787405937396 0.996769943408858 -3.13787405937399 0.0256520736938797 80.3598912834499 
! Gamma         0                0                0                0                
! Port Impedance         50               0                50               0                
7                              0.0260152647053375 80.3764208431662 0.996747318339932 -3.183055324149  0.996747318339933 -3.18305532414903 0.0260152530324688 80.3764637413558 
! Gamma         0                0                0                0                
! Port Impedance         50               0                50               0                
7.1                            0.026378302283713 80.3910014953923 0.996724446220258 -3.22822648091864 0.99672444622026 -3.22822648091867 0.0263782903960702 80.3910450372089 
! Gamma         0                0                0                0                
! Port Impedance         50               0                50               0                
7.2                            0.0267411947028933 80.4036781125557 0.996701329551416 -3.27338745992033 0.996701329551418 -3.27338745992037 0.0267411825985618 80.4037222994298 
! Gamma         0                0                0                0                
! Port Impedance         50               0                50               0                
7.3                            0.0271039389313952 80.4145331370037 0.996677970840874 -3.31853819467763 0.996677970840876 -3.31853819467767 0.0271039266084637 80.4145779703611 
! Gamma         0                0                0                0                
! Port Impedance         50               0                50               0                
7.4                            0.027466532084961 80.4236446328678 0.996654372600454 -3.3636786219457 0.996654372600456 -3.36367862194575 0.0274665195415215 80.4236901141289 
! Gamma         0                0                0                0                
! Port Impedance         50               0                50               0                
7.5                            0.0278289714196657 80.4310865699342 0.99663053734487 -3.40880868165802 0.996630537344872 -3.40880868165807 0.0278289586538143 80.4311327005128 
! Gamma         0                0                0                0                
! Port Impedance         50               0                50               0                
7.6                            0.0281912543255019 80.4369290856731 0.996606467590322 -3.45392831687399 0.996606467590323 -3.45392831687403 0.0281912413353388 80.4369758669753 
! Gamma         0                0                0                0                
! Port Impedance         50               0                50               0                
7.7                            0.0285533783203981 80.4412387273598 0.99658216585315 -3.49903747372741 0.996582165853152 -3.49903747372746 0.0285533651040282 80.4412861607834 
! Gamma         0                0                0                0                
! Port Impedance         50               0                50               0                
7.8                            0.0289153410446328 80.444078676029  0.99655763464855 -3.54413610137574 0.996557634648552 -3.54413610137579 0.0289153276001659 80.4441267629624 
! Gamma         0                0                0                0                
! Port Impedance         50               0                50               0                
7.9                            0.0292771402556085 80.4455089538318 0.996532876489327 -3.58922415194989 0.996532876489329 -3.58922415194994 0.0292771265811596 80.4455576956535 
! Gamma         0                0                0                0                
! Port Impedance         50               0                50               0                
8                              0.0296387738229561 80.4455866162122 0.99650789388471 -3.63430158050468 0.996507893884711 -3.63430158050473 0.0296387599166456 80.4456360142896 
! Gamma         0                0                0                0                
! Port Impedance         50               0                50               0                
8.1                            0.0300002397239391 80.4443659301825 0.996482689339204 -3.67936834496969 0.996482689339205 -3.67936834496975 0.0300002255838932 80.4444159858718 
! Gamma         0                0                0                0                
! Port Impedance         50               0                50               0                
8.2                            0.0303615360391342 80.4418985398594 0.996457265351495 -3.72442440610061 0.996457265351497 -3.72442440610067 0.0303615216634852 80.4419492545043 
! Gamma         0                0                0                0                
! Port Impedance         50               0                50               0                
8.3                            0.0307226609483643 80.4382336203079 0.99643162441339 -3.76946972743086 0.996431624413391 -3.76946972743092 0.0307226463352507 80.4382849952396 
! Gamma         0                0                0                0                
! Port Impedance         50               0                50               0                
8.4                            0.0310836127268628 80.4334180206483 0.996405769008797 -3.81450427522359 0.996405769008798 -3.81450427522365 0.0310835978744296 80.4334700571844 
! Gamma         0                0                0                0                
! Port Impedance         50               0                50               0                
8.5                            0.0314443897416506 80.4274963972896 0.996379701612751 -3.85952801842389 0.996379701612752 -3.85952801842396 0.0314443746480493 80.4275490967338 
! Gamma         0                0                0                0                
! Port Impedance         50               0                50               0                
8.6                            0.0318049904481086 80.4205113380764 0.99635342469047 -3.90454092861133 0.996353424690471 -3.9045409286114 0.0318049751114979 80.4205647017182 
! Gamma         0                0                0                0                
! Port Impedance         50               0                50               0                
8.7                            0.0321654133867305 80.4125034780666 0.996326940696451 -3.94954297995256 0.996326940696452 -3.94954297995263 0.0321653978052758 80.4125575071802 
! Gamma         0                0                0                0                
! Port Impedance         50               0                50               0                
8.8                            0.0325256571800409 80.4035116075896 0.996300252073602 -3.99453414915425 0.996300252073603 -3.99453414915432 0.0325256413519149 80.4035663034341 
! Gamma         0                0                0                0                
! Port Impedance         50               0                50               0                
8.9                            0.0328857205296664 80.3935727731826 0.996273361252402 -4.03951441541606 0.996273361252402 -4.03951441541613 0.0328857044530492 80.3936281370011 
! Gamma         0                0                0                0                
! Port Impedance         50               0                50               0                
9                              0.0332456022135487 80.3827223719464 0.996246270650096 -4.08448376038389 0.996246270650097 -4.08448376038396 0.0332455858866277 80.382778404966  
! Gamma         0                0                0                0                
! Port Impedance         50               0                50               0                
9.1                            0.0336053010832874 80.3709942398185 0.996218982669932 -4.12944216810312 0.996218982669933 -4.12944216810319 0.0336052845042573 80.3710509432496 
! Gamma         0                0                0                0                
! Port Impedance         50               0                50               0                
9.2                            0.0339648160616039 80.3584207342165 0.996191499700412 -4.17438962497214 0.996191499700412 -4.17438962497221 0.0339647992286675 80.3584781092525 
! Gamma         0                0                0                0                
! Port Impedance         50               0                50               0                
9.3                            0.0343241461399186 80.3450328114685 0.996163824114582 -4.21932611969588 0.996163824114583 -4.21932611969596 0.0343241290512858 80.3450908592856 
! Gamma         0                0                0                0                
! Port Impedance         50               0                50               0                
9.4                            0.0346832903760304 80.3308600994113 0.996135958269356 -4.26425164323954 0.996135958269356 -4.26425164323962 0.0346832730299191 80.3309188211684 
! Gamma         0                0                0                0                
! Port Impedance         50               0                50               0                
9.5                            0.0350422478918945 80.315930965507  0.996107904504859 -4.30916618878244 0.996107904504859 -4.30916618878252 0.0350422302865302 80.3159903623447 
! Gamma         0                0                0                0                
! Port Impedance         50               0                50               0                
9.6                            0.0354010178714893 80.3002725807967 0.996079665143805 -4.35406975167195 0.996079665143806 -4.35406975167204 0.0354010000051052 80.3003326538379 
! Gamma         0                0                0                0                
! Port Impedance         50               0                50               0                
9.7                            0.0357595995587678 80.28391097999   0.9960512424909  -4.39896232937768 0.9960512424909  -4.39896232937776 0.0357595814296049 80.283971730339  
! Gamma         0                0                0                0                
! Port Impedance         50               0                50               0                
9.8                            0.0361179922556872 80.2668711179582 0.996022638832269 -4.44384392144563 0.99602263883227 -4.44384392144572 0.036117973861994 80.2669325467011 
! Gamma         0                0                0                0                
! Port Impedance         50               0                50               0                
9.9                            0.0364761953203113 80.2491769228835 0.995993856434919 -4.4887145294527 0.995993856434919 -4.48871452945278 0.036476176660344 80.2492390310875 
! Gamma         0                0                0                0                
! Port Impedance         50               0                50               0                
10                             0.0368342081649821 80.2308513462932 0.995964897546213 -4.53357415696117 0.995964897546213 -4.53357415696126 0.0368341892370045 80.2309141350066 
! Gamma         0                0                0                0                
! Port Impedance         50               0                50               0                
10.1                           0.0371920302545554 80.2119164101917 0.995935764393381 -4.57842280947353 0.995935764393382 -4.57842280947362 0.0371920110568388 80.2119798804438 
! Gamma         0                0                0                0                
! Port Impedance         50               0                50               0                
10.2                           0.0375496611046967 80.1923932514857 0.995906459183054 -4.62326049438734 0.995906459183054 -4.62326049438743 0.0375496416355197 80.1924574042865 
! Gamma         0                0                0                0                
! Port Impedance         50               0                50               0                
10.3                           0.0379071002802335 80.172302163884  0.995876984100813 -4.66808722095041 0.995876984100813 -4.6680872209505 0.0379070805378821 80.1723670002243 
! Gamma         0                0                0                0                
! Port Impedance         50               0                50               0                
10.4                           0.038264347393562 80.1516626374394 0.995847341310777 -4.71290300021608 0.995847341310777 -4.71290300021617 0.0382643273763292 80.1517281582907 
! Gamma         0                0                0                0                
! Port Impedance         50               0                50               0                
10.5                           0.038621402103103 80.130493395886  0.995817532955196 -4.75770784499885 0.995817532955196 -4.75770784499894 0.038621381809289 80.1305596022002 
! Gamma         0                0                0                0                
! Port Impedance         50               0                50               0                
10.6                           0.0389782641118063 80.1088124319169 0.995787561154085 -4.80250176983015 0.995787561154085 -4.80250176983024 0.0389782435397182 80.1088793246263 
! Gamma         0                0                0                0                
! Port Impedance         50               0                50               0                
10.7                           0.0393349331657  80.0866370405332 0.995757428004866 -4.84728479091436 0.995757428004865 -4.84728479091446 0.0393349123136514 80.0867046205505 
! Gamma         0                0                0                0                
! Port Impedance         50               0                50               0                
10.8                           0.0396914090524822 80.0639838505883 0.995727135582037 -4.8920569260852 0.995727135582037 -4.8920569260853 0.0396913879187935 80.0640521188068 
! Gamma         0                0                0                0                
! Port Impedance         50               0                50               0                
10.9                           0.0400476916001539 80.0408688546418 0.995696685936865 -4.93681819476228 0.995696685936865 -4.93681819476237 0.0400476701831516 80.0409378119348 
! Gamma         0                0                0                0                
! Port Impedance         50               0                50               0                
11                             0.0404037806756893 80.0173074372269 0.995666081097095 -4.98156861790799 0.995666081097095 -4.98156861790808 0.0404037589737062 80.0173770844484 
! Gamma         0                0                0                0                
! Port Impedance         50               0                50               0                
11.1                           0.0407596761837449 79.9933144016325 0.995635323066683 -5.02630821798476 0.995635323066682 -5.02630821798485 0.0407596541951196 79.9933847396165 
! Gamma         0                0                0                0                
! Port Impedance         50               0                50               0                
11.2                           0.0411153780654012 79.9689039952886 0.995604413825542 -5.07103701891253 0.995604413825541 -5.07103701891262 0.0411153557884781 79.9689750248498 
! Gamma         0                0                0                0                
! Port Impedance         50               0                50               0                
11.3                           0.04147088629694 79.944089933842  0.99557335532932 -5.11575504602665 0.995573355329319 -5.11575504602675 0.041470863730069 79.9441616557753 
! Gamma         0                0                0                0                
! Port Impedance         50               0                50               0                
11.4                           0.0418262008886529 79.9188854240004 0.995542149509185 -5.16046232603612 0.995542149509184 -5.16046232603622 0.041826178030189 79.9189578390813 
! Gamma         0                0                0                0                
! Port Impedance         50               0                50               0                
11.5                           0.0421813218836802 79.8933031852186 0.995510798271634 -5.20515888698212 0.995510798271633 -5.20515888698221 0.0421812987319834 79.8933762942029 
! Gamma         0                0                0                0                
! Port Impedance         50               0                50               0                
11.6                           0.0425362493568804 79.8673554702959 0.99547930349832 -5.24984475819701 0.995479303498319 -5.24984475819711 0.0425362259103152 79.8674292739201 
! Gamma         0                0                0                0                
! Port Impedance         50               0                50               0                
11.7                           0.042890983413727 79.8410540849481 0.995447667045894 -5.2945199702637 0.995447667045893 -5.29451997026379 0.0428909596706626 79.8411285839295 
! Gamma         0                0                0                0                
! Port Impedance         50               0                50               0                
11.8                           0.0432455241892337 79.8144104064147 0.995415890745867 -5.33918455497538 0.995415890745866 -5.33918455497547 0.0432455001480431 79.8144856014514 
! Gamma         0                0                0                0                
! Port Impedance         50               0                50               0                
11.9                           0.0435998718469051 79.787435401156  0.995383976404491 -5.38383854529571 0.99538397640449 -5.3838385452958 0.0435998475059653 79.7875112929268 
! Gamma         0                0                0                0                
! Port Impedance         50               0                50               0                
12                             0.0439540265777137 79.7601396416927 0.995351925802648 -5.42848197531943 0.995351925802647 -5.42848197531952 0.0439540019354051 79.7602162308575 
! Gamma         0                0                0                0                
! Port Impedance         50               0                50               0                
12.1                           0.0443079885991007 79.7325333226367 0.995319740695762 -5.47311488023339 0.995319740695761 -5.47311488023349 0.0443079636538069 79.7326106098365 
! Gamma         0                0                0                0                
! Port Impedance         50               0                50               0                
12.2                           0.0446617581540016 79.7046262759586 0.995287422813729 -5.51773729627807 0.995287422813728 -5.51773729627816 0.0446617329041091 79.7047042618158 
! Gamma         0                0                0                0                
! Port Impedance         50               0                50               0                
12.3                           0.0450153355098944 79.6764279855345 0.995254973860851 -5.56234926070949 0.99525497386085 -5.56234926070958 0.0450153099537921 79.6765066706528 
! Gamma         0                0                0                0                
! Port Impedance         50               0                50               0                
12.4                           0.0453687209578703 79.6479476010113 0.995222395515796 -5.60695081176168 0.995222395515795 -5.60695081176177 0.0453686950939495 79.6480269859761 
! Gamma         0                0                0                0                
! Port Impedance         50               0                50               0                
12.5                           0.0457219148117265 79.6191939510291 0.995189689431567 -5.65154198860956 0.995189689431567 -5.65154198860966 0.0457218886383801 79.6192740364074 
! Gamma         0                0                0                0                
! Port Impedance         50               0                50               0                
12.6                           0.04607491740708 79.5901755558346 0.995156857235487 -5.69612283133233 0.995156857235486 -5.69612283133243 0.0460748909227024 79.5902563421755 
! Gamma         0                0                0                0                
! Port Impedance         50               0                50               0                
12.7                           0.0464277291005021 79.5609006393186 0.99512390052919 -5.74069338087737 0.995123900529189 -5.74069338087746 0.0464277023034891 79.5609821271533 
! Gamma         0                0                0                0                
! Port Impedance         50               0                50               0                
12.8                           0.0467803502686736 79.531377140509  0.995090820888641 -5.7852536790246 0.99509082088864 -5.78525367902469 0.0467803231574215 79.5314593303509 
! Gamma         0                0                0                0                
! Port Impedance         50               0                50               0                
12.9                           0.0471327813075589 79.5016127245472 0.99505761986415 -5.82980376835141 0.995057619864149 -5.82980376835151 0.0471327538804646 79.5016956168923 
! Gamma         0                0                0                0                
! Port Impedance         50               0                50               0                
13                             0.0474850226315999 79.4716147931756 0.995024298980411 -5.87434369219809 0.995024298980409 -5.87434369219819 0.0474849948870603 79.4716983885026 
! Gamma         0                0                0                0                
! Port Impedance         50               0                50               0                
13.1                           0.0478370746729284 79.4413904947618 0.994990859736549 -5.91887349463373 0.994990859736548 -5.91887349463383 0.0478370466093399 79.4414747935322 
! Gamma         0                0                0                0                
! Port Impedance         50               0                50               0                
13.2                           0.0481889378805968 79.4109467338829 0.994957303606178 -5.96339322042272 0.994957303606177 -5.96339322042282 0.0481889094963553 79.4110317365416 
! Gamma         0                0                0                0                
! Port Impedance         50               0                50               0                
13.3                           0.0485406127198275 79.3802901804937 0.99492363203747 -6.00790291499175 0.994923632037468 -6.00790291499184 0.0485405840133277 79.3803758874688 
! Gamma         0                0                0                0                
! Port Impedance         50               0                50               0                
13.4                           0.0488920996712786 79.3494272786977 0.994889846453234 -6.05240262439734 0.994889846453233 -6.05240262439743 0.0488920706409137 79.3495136904011 
! Gamma         0                0                0                0                
! Port Impedance         50               0                50               0                
13.5                           0.0492433992303281 79.3183642551441 0.994855948251009 -6.09689239529394 0.994855948251008 -6.09689239529403 0.0492433698744896 79.3184513719712 
! Gamma         0                0                0                0                
! Port Impedance         50               0                50               0                
13.6                           0.0495945119063743 79.2871071270659 0.994821938803162 -6.14137227490257 0.994821938803161 -6.14137227490266 0.0495944822234515 79.2871949493965 
! Gamma         0                0                0                0                
! Port Impedance         50               0                50               0                
13.7                           0.0499454382221533 79.2556617099804 0.994787819457   -6.18584231097999 0.994787819456999 -6.18584231098007 0.0499454082105325 79.2557502381786 
! Gamma         0                0                0                0                
! Port Impedance         50               0                50               0                
13.8                           0.0502961787130717 79.2240336250661 0.994753591534886 -6.2303025517884 0.994753591534884 -6.23030255178849 0.0502961483711365 79.2241228594805 
! Gamma         0                0                0                0                
! Port Impedance         50               0                50               0                
13.9                           0.0506467339265567 79.1922283062335 0.99471925633437 -6.2747530460658 0.994719256334368 -6.27475304606588 0.0506467032526873 79.1923182471976 
! Gamma         0                0                0                0                
! Port Impedance         50               0                50               0                
14                             0.0509971044214211 79.1602510069034 0.994684815128323 -6.31919384299675 0.994684815128321 -6.31919384299684 0.0509970734139937 79.1603416547356 
! Gamma         0                0                0                0                
! Port Impedance         50               0                50               0                
14.1                           0.0513472907672433 79.1281068065074 0.994650269165084 -6.36362499218384 0.994650269165083 -6.36362499218392 0.0513472594246301 79.1281981615118 
! Gamma         0                0                0                0                
! Port Impedance         50               0                50               0                
14.2                           0.0516972935437636 79.0958006167245 0.994615619668612 -6.40804654361957 0.99461561966861 -6.40804654361966 0.051697261864332 79.0958926791907 
! Gamma         0                0                0                0                
! Port Impedance         50               0                50               0                
14.3                           0.0520471133402937 79.0633371874647 0.994580867838641 -6.45245854765895 0.994580867838639 -6.45245854765903 0.0520470813224064 79.0634299576682 
! Gamma         0                0                0                0                
! Port Impedance         50               0                50               0                
14.4                           0.052396750755143 79.0307211126129 0.994546014850853 -6.49686105499247 0.994546014850852 -6.49686105499255 0.052396718397157 79.0308145908153 
! Gamma         0                0                0                0                
! Port Impedance         50               0                50               0                
14.5                           0.0527462063950568 78.9979568355433 0.994511061857051 -6.54125411661981 0.994511061857049 -6.54125411661989 0.0527461736953237 78.9980510219929 
! Gamma         0                0                0                0                
! Port Impedance         50               0                50               0                
14.6                           0.0530954808746707 78.9650486544163 0.994476009985335 -6.58563778382398 0.994476009985333 -6.58563778382405 0.0530954478315356 78.9651435493478 
! Gamma         0                0                0                0                
! Port Impedance         50               0                50               0                
14.7                           0.0534445748159773 78.9320007272654 0.994440860340292 -6.63001210814603 0.99444086034029 -6.63001210814611 0.053444541427779 78.9320963309008 
! Gamma         0                0                0                0                
! Port Impedance         50               0                50               0                
14.8                           0.0537934888478078 78.8988170768869 0.994405614003187 -6.67437714136042 0.994405614003186 -6.6743771413605 0.0537934551128781 78.8989133894353 
! Gamma         0                0                0                0                
! Port Impedance         50               0                50               0                
14.9                           0.0541422236053262 78.8655015955384 0.994370272032162 -6.71873293545076 0.99437027203216 -6.71873293545084 0.0541421895219896 78.8655986171966 
! Gamma         0                0                0                0                
! Port Impedance         50               0                50               0                
15                             0.0544907797295369 78.8320580494565 0.994334835462437 -6.76307954258628 0.994334835462436 -6.76307954258635 0.0544907452961102 78.8321557804092 
! Gamma         0                0                0                0                
! Port Impedance         50               0                50               0                
15.1                           0.0548391578668052 78.798490083201  0.99429930530652 -6.80741701509869 0.994299305306518 -6.80741701509877 0.0548391230815972 78.798588523621  
! Gamma         0                0                0                0                
! Port Impedance         50               0                50               0                
15.2                           0.055187358668391 78.7648012238334 0.994263682554418 -6.85174540545972 0.994263682554416 -6.85174540545979 0.0551873235297018 78.764900373882  
! Gamma         0                0                0                0                
! Port Impedance         50               0                50               0                
15.3                           0.0555353827899941 78.7309948849373 0.994227968173854 -6.89606476625908 0.994227968173852 -6.89606476625915 0.0555353472961153 78.7310947447644 
! Gamma         0                0                0                0                
! Port Impedance         50               0                50               0                
15.4                           0.0558832308913131 78.6970743704866 0.994192163110493 -6.94037515018304 0.994192163110491 -6.9403751501831 0.055883195040527 78.6971749402312 
! Gamma         0                0                0                0                
! Port Impedance         50               0                50               0                
15.5                           0.0562309036356151 78.6630428785696 0.99415626828816 -6.98467660999349 0.994156268288158 -6.98467660999355 0.0562308674261944 78.66314415836   
! Gamma         0                0                0                0                
! Port Impedance         50               0                50               0                
15.6                           0.0565784016893184 78.628903504974  0.994120284609074 -7.02896919850757 0.994120284609072 -7.02896919850764 0.0565783651195258 78.629005494928  
! Gamma         0                0                0                0                
! Port Impedance         50               0                50               0                
15.7                           0.0569257257215861 78.5946592466387 0.994084212954077 -7.07325296857779 0.994084212954075 -7.07325296857785 0.0569256887896741 78.5947619468643 
! Gamma         0                0                0                0                
! Port Impedance         50               0                50               0                
15.8                           0.0572728764039318 78.5603130049795 0.994048054182874 -7.11752797307266 0.994048054182872 -7.11752797307272 0.0572728391081422 78.5604164155745 
! Gamma         0                0                0                0                
! Port Impedance         50               0                50               0                
15.9                           0.0576198544098362 78.5258675890916 0.994011809134264 -7.16179426485788 0.994011809134262 -7.16179426485794 0.0576198167483999 78.5259717101445 
! Gamma         0                0                0                0                
! Port Impedance         50               0                50               0                
16                             0.0579666604143751 78.4913257188366 0.993975478626387 -7.20605189677802 0.993975478626385 -7.20605189677807 0.0579666223855115 78.4914305504266 
! Gamma         0                0                0                0                
! Port Impedance         50               0                50               0                
16.1                           0.0583132950938581 78.4566900278168 0.993939063456965 -7.25030092163863 0.993939063456964 -7.25030092163869 0.0583132566957752 78.456795570014  
! Gamma         0                0                0                0                
! Port Impedance         50               0                50               0                
16.2                           0.0586597591254784 78.4219630662422 0.993902564403549 -7.29454139218899 0.993902564403547 -7.29454139218905 0.0586597203563718 78.4220693191082 
! Gamma         0                0                0                0                
! Port Impedance         50               0                50               0                
16.3                           0.0590060531869724 78.3871473036954 0.993865982223763 -7.33877336110523 0.993865982223761 -7.33877336110529 0.0590060140450255 78.3872542672834 
! Gamma         0                0                0                0                
! Port Impedance         50               0                50               0                
16.4                           0.0593521779562906 78.3522451317968 0.993829317655556 -7.38299688097399 0.993829317655554 -7.38299688097405 0.059352138439674 78.3523528061518 
! Gamma         0                0                0                0                
! Port Impedance         50               0                50               0                
16.5                           0.0596981341112779 78.3172588667756 0.993792571417453 -7.42721200427656 0.993792571417451 -7.42721200427661 0.0596980942181492 78.3173672519348 
! Gamma         0                0                0                0                
! Port Impedance         50               0                50               0                
16.6                           0.060043922329364 78.2821907519498 0.993755744208808 -7.47141878337344 0.993755744208806 -7.47141878337349 0.0600438820578677 78.2822998479429 
! Gamma         0                0                0                0                
! Port Impedance         50               0                50               0                
16.7                           0.0603895432872644 78.2470429601185 0.993718836710053 -7.51561727048949 0.993718836710052 -7.51561727048953 0.0603895026355309 78.2471527669679 
! Gamma         0                0                0                0                
! Port Impedance         50               0                50               0                
16.8                           0.0607349976606896 78.2118175958713 0.99368184958296 -7.55980751769939 0.993681849582958 -7.55980751769944 0.0607349566268356 78.2119281135924 
! Gamma         0                0                0                0                
! Port Impedance         50               0                50               0                
16.9                           0.0610802861240649 78.1765166978156 0.993644783470888 -7.60398957691369 0.993644783470886 -7.60398957691374 0.0610802447061927 78.1766279264172 
! Gamma         0                0                0                0                
! Port Impedance         50               0                50               0                
17                             0.0614254093502588 78.1411422407281 0.993607638999046 -7.64816349986519 0.993607638999044 -7.64816349986524 0.0614253675464562 78.1412541802125 
! Gamma         0                0                0                0                
! Port Impedance         50               0                50               0                
17.1                           0.0617703680103211 78.105696137631  0.993570416774745 -7.69232933809588 0.993570416774743 -7.69232933809592 0.0617703258186608 78.1058087879943 
! Gamma         0                0                0                0                
! Port Impedance         50               0                50               0                
17.2                           0.0621151627732288 78.0701802417965 0.993533117387658 -7.73648714294419 0.993533117387656 -7.73648714294423 0.0621151201917686 78.0702936030288 
! Gamma         0                0                0                0                
! Port Impedance         50               0                50               0                
17.3                           0.062459794305642 78.0345963486831 0.993495741410075 -7.78063696553281 0.993495741410074 -7.78063696553285 0.062459751332424 78.0347104207691 
! Gamma         0                0                0                0                
! Port Impedance         50               0                50               0                
17.4                           0.0628042632716676 77.9989461978054 0.993458289397163 -7.82477885675679 0.993458289397161 -7.82477885675683 0.0628042199047183 77.9990609807244 
! Gamma         0                0                0                0                
! Port Impedance         50               0                50               0                
17.5                           0.0631485703326313 77.9632314745405 0.993420761887217 -7.86891286727216 0.993420761887215 -7.86891286727219 0.0631485265699611 77.9633469682665 
! Gamma         0                0                0                0                
! Port Impedance         50               0                50               0                
17.6                           0.0634927161468582 77.9274538118725 0.993383159401923 -7.91303904748489 0.993383159401921 -7.91303904748493 0.0634926719864612 77.9275700163748 
! Gamma         0                0                0                0                
! Port Impedance         50               0                50               0                
17.7                           0.0638367013694612 77.8916147920788 0.993345482446613 -7.95715744754033 0.993345482446611 -7.95715744754036 0.063836656809315 77.8917317073222 
! Gamma         0                0                0                0                
! Port Impedance         50               0                50               0                
17.8                           0.0641805266521371 77.8557159483595 0.993307731510518 -8.00126811731292 0.993307731510516 -8.00126811731295 0.0641804816902025 77.8558335743043 
! Gamma         0                0                0                0                
! Port Impedance         50               0                50               0                
17.9                           0.0645241926429712 77.8197587664115 0.993269907067027 -8.04537110639644 0.993269907067026 -8.04537110639647 0.0645241472771918 77.819877103014  
! Gamma         0                0                0                0                
! Port Impedance         50               0                50               0                
18                             0.064867699986248 77.7837446859505 0.99323200957394 -8.08946646409448 0.993232009573939 -8.08946646409451 0.0648676542145502 77.7838637331632 
! Gamma         0                0                0                0                
! Port Impedance         50               0                50               0                
18.1                           0.0652110493222708 77.7476751021827 0.99319403947372 -8.13355423941144 0.993194039473719 -8.13355423941147 0.0652110031425635 77.7477948599545 
! Gamma         0                0                0                0                
! Port Impedance         50               0                50               0                
18.2                           0.0655542412871876 77.7115513672265 0.99315599719375 -8.17763448104376 0.993155997193748 -8.17763448104379 0.0655541946973617 77.7116718355029 
! Gamma         0                0                0                0                
! Port Impedance         50               0                50               0                
18.3                           0.0658972765128239 77.6753747914879 0.993117883146578 -8.22170723737161 0.993117883146577 -8.22170723737164 0.0658972295107525 77.6754959702115 
! Gamma         0                0                0                0                
! Port Impedance         50               0                50               0                
18.4                           0.0662401556265235 77.6391466449907 0.993079697730175 -8.26577255645086 0.993079697730174 -8.26577255645088 0.0662401082100614 77.639268534101  
! Gamma         0                0                0                0                
! Port Impedance         50               0                50               0                
18.5                           0.0665828792509947 77.6028681586621 0.993041441328181 -8.3098304860054 0.993041441328179 -8.30983048600542 0.0665828314179783 77.602990758096  
! Gamma         0                0                0                0                
! Port Impedance         50               0                50               0                
18.6                           0.0669254480041639 77.5665405255768 0.993003114310149 -8.3538810734199 0.993003114310148 -8.35388107341992 0.0669253997524108 77.5666638352689 
! Gamma         0                0                0                0                
! Port Impedance         50               0                50               0                
18.7                           0.0672678624990356 77.5301649021601 0.992964717031798 -8.39792436573275 0.992964717031797 -8.39792436573277 0.0672678138263446 77.5302889220427 
! Gamma         0                0                0                0                
! Port Impedance         50               0                50               0                
18.8                           0.0676101233435582 77.4937424093518 0.992926249835255 -8.44196040962943 0.992926249835254 -8.44196040962944 0.067610074247709 77.4938671393555 
! Gamma         0                0                0                0                
! Port Impedance         50               0                50               0                
18.9                           0.0679522311404966 77.4572741337323 0.992887713049296 -8.48598925143612 0.992887713049295 -8.48598925143613 0.0679521816192496 77.4573995737858 
! Gamma         0                0                0                0                
! Port Impedance         50               0                50               0                
19                             0.06829418648731 77.4207611286122 0.992849106989592 -8.53001093711371 0.992849106989591 -8.53001093711373 0.0682941365384063 77.4208872786427 
! Gamma         0                0                0                0                
! Port Impedance         50               0                50               0                
19.1                           0.0686359899760366 77.384204415086  0.992810431958945 -8.57402551225206 0.992810431958944 -8.57402551225207 0.0686359395971976 77.3843312750194 
! Gamma         0                0                0                0                
! Port Impedance         50               0                50               0                
19.2                           0.0689776421931829 77.3476049830528 0.99277168824753 -8.6180330220645 0.992771688247529 -8.61803302206451 0.0689775913821101 77.3477325528141 
! Gamma         0                0                0                0                
! Port Impedance         50               0                50               0                
19.3                           0.0693191437196192 77.3109637922033 0.992732876133126 -8.66203351138274 0.992732876133126 -8.66203351138275 0.0693190924739942 77.3110920717163 
! Gamma         0                0                0                0                
! Port Impedance         50               0                50               0                
19.4                           0.0696604951304807 77.2742817729754 0.992693995881356 -8.706027024652  0.992693995881355 -8.70602702465201 0.069660443447965 77.2744107621635 
! Gamma         0                0                0                0                
! Port Impedance         50               0                50               0                
19.5                           0.0700016969950731 77.2375598274789 0.992655047745914 -8.75001360592636 0.992655047745913 -8.75001360592637 0.0700016448733078 77.2376895262649 
! Gamma         0                0                0                0                
! Port Impedance         50               0                50               0                
19.6                           0.0703427498767843 77.2007988303911 0.992616031968799 -8.7939932988645 0.992616031968799 -8.79399329886451 0.07034269731339 77.2009292386976 
! Gamma         0                0                0                0                
! Port Impedance         50               0                50               0                
19.7                           0.0706836543330003 77.1639996298232 0.992576948780541 -8.83796614672561 0.992576948780541 -8.83796614672562 0.0706836013255771 77.1641307475726 
! Gamma         0                0                0                0                
! Port Impedance         50               0                50               0                
19.8                           0.0710244109150266 77.1271630481593 0.992537798400429 -8.88193219236558 0.992537798400429 -8.88193219236559 0.0710243574611538 77.1272948752742 
! Gamma         0                0                0                0                
! Port Impedance         50               0                50               0                
19.9                           0.0713650201680143 77.0902898828689 0.992498581036731 -8.92589147823346 0.992498581036731 -8.92589147823346 0.0713649662652503 77.0904224192724 
! Gamma         0                0                0                0                
! Port Impedance         50               0                50               0                
20                             0.07170548263089 77.0533809072935 0.992459296886921 -8.96984404636813 0.992459296886921 -8.96984404636814 0.0717054282767723 77.0535141529088 
! Gamma         -0               -0               0                0                
! Port Impedance         50               0                50               0                
