! Touchstone file exported from HFSS 2026.1.0
!        File:           C:/ffzhzh/LocalFiles/Ansys_Project_Files/temp_train_TSV_45_1782958675_45568.aedt
!        Generated:      10:19:27 AM Jul  2, 2026
!        Design:         TSV
!        Project:        temp_train_TSV_45_1782958675_45568
!
! Variables:
!        h_bsmrdl = 2um
!        h_ox = 20um
!        h_rdl = 5um
!        h_sub = 72.99um
!        h_tmrdl = 5um
!        h_tsv = 72.99um
!        h_via = 3um
!        l_bsmrdl = 300um
!        l_sub = 414.66um
!        l_tmrdl = 200um
!        m_sub = 200um
!        pitch = 22.44um
!        r_tsv = 7.33um
!        s_tmrdl = 10um
!        w_bsmrdl = 18um
!        w_sub = 500um
!        w_tmrdl = 12um
!        x_tsv_center1 = 206um
!        x_tsv_center2 = 524um
!        x_tsv_center3 = 736um
!        x_tsv_center4 = 1054um
!        x_tsv_center5 = 1266um
!        x_tsv_center6 = 1584um
!
# GHz S MA R 50.000000
! Terminal data exported
! Port[1] = TSV1_1_T1
! Port[2] = TSV1_1_T2
0.1                            0.000242208916028028 -32.6258047074181 0.999795911745066 -0.039087574120495 0.999795911745062 -0.0390875741204927 0.000242208930820783 -32.6258032415429 
! Gamma         0                0                0                0                
! Port Impedance         50               0                50               0                
0.2                            0.000347287685705395 -50.1429663644032 0.999777225217561 -0.0778740702151437 0.999777225217557 -0.0778740702151235 0.000347287675550067 -50.1429630091061 
! Gamma         0                0                0                0                
! Port Impedance         50               0                50               0                
0.3                            0.000480979476461136 -58.8117416311027 0.999750349078516 -0.116165151306801 0.999750349078512 -0.116165151306743 0.000480979426321651 -58.8117339040854 
! Gamma         0                0                0                0                
! Port Impedance         50               0                50               0                
0.4                            0.000631106563559579 -63.7519974703588 0.999719559039559 -0.153909034764175 0.999719559039554 -0.153909034764065 0.000631106472480063 -63.7519835681151 
! Gamma         0                0                0                0                
! Port Impedance         50               0                50               0                
0.5                            0.000792066057238328 -67.0221044255151 0.999688284782104 -0.191161177755811 0.999688284782099 -0.191161177755645 0.000792065939863015 -67.0220839101472 
! Gamma         0                0                0                0                
! Port Impedance         50               0                50               0                
0.6                            0.000960297536690559 -69.4388353356327 0.999658642895741 -0.228025584044028 0.999658642895736 -0.228025584043813 0.000960297416372785 -69.438808691395 
! Gamma         0                0                0                0                
! Port Impedance         50               0                50               0                
0.7                            0.00113330973951498 -71.352691901214 0.999631612714732 -0.26461026580385 0.999631612714729 -0.264610265803596 0.00113330964094664 -71.3526599818479 
! Gamma         0                0                0                0                
! Port Impedance         50               0                50               0                
0.8                            0.00130938484577026 -72.93097134283  0.999607424373817 -0.301005664399087 0.999607424373814 -0.301005664398806 0.00130938479057389 -72.9309350242351 
! Gamma         0                0                0                0                
! Port Impedance         50               0                50               0                
0.9                            0.00148737889623183 -74.2641148528104 0.999585904459931 -0.337279311594742 0.999585904459928 -0.337279311594443 0.00148737890135753 -74.2640748811911 
! Gamma         0                0                0                0                
! Port Impedance         50               0                50               0                
1                              0.00166655354161573 -75.4074789239313 0.999566706829635 -0.373478215801584 0.999566706829634 -0.373478215801277 0.0016665536193767 -75.4074358779284 
! Gamma         0                0                0                0                
! Port Impedance         50               0                50               0                
1.1                            0.00184644455625656 -76.3986294332697 0.999549442624365 -0.409633555979699 0.999549442624365 -0.409633555979391 0.00184644471504881 -76.3985837367709 
! Gamma         0                0                0                0                
! Port Impedance         50               0                50               0                
1.2                            0.00202676735456906 -77.2650080199932 0.999533743644705 -0.445765216451454 0.999533743644705 -0.44576521645115 0.00202676759974221 -77.2649599711202 
! Gamma         0                0                0                0                
! Port Impedance         50               0                50               0                
1.3                            0.00220735274590387 -78.0276431058965 0.999519287752421 -0.481885379912706 0.999519287752421 -0.481885379912408 0.00220735308055102 -78.0275929068612 
! Gamma         0                0                0                0                
! Port Impedance         50               0                50               0                
1.4                            0.00238810465595144 -78.7031412576166 0.999505804851116 -0.518001127616715 0.999505804851117 -0.518001127616426 0.00238810508154719 -78.7030890400423 
! Gamma         0                0                0                0                
! Port Impedance         50               0                50               0                
1.5                            0.00256897280636584 -79.304873555773 0.999493073997139 -0.554116232854974 0.99949307399714 -0.554116232854697 0.00256897332325251 -79.3048194004394 
! Gamma         0                0                0                0                
! Port Impedance         50               0                50               0                
1.6                            0.00274993522694074 -79.8437495828969 0.99948091714893 -0.5902323649094 0.999480917148932 -0.590232364909135 0.00274993583468718 -79.8436935344939 
! Gamma         0                0                0                0                
! Port Impedance         50               0                50               0                
1.7                            0.0029309871127867 -80.328758426127 0.999469192215404 -0.626349884415248 0.999469192215406 -0.626349884414996 0.00293098781044865 -80.3287005040265 
! Gamma         0                0                0                0                
! Port Impedance         50               0                50               0                
1.8                            0.00311213374105743 -80.7673653203371 0.999457786564603 -0.662468363468513 0.999457786564606 -0.662468363468274 0.00311213452736454 -80.7673055263601 
! Gamma         0                0                0                0                
! Port Impedance         50               0                50               0                
1.9                            0.00329338597794531 -81.1658117975861 0.999446611408453 -0.698586923131601 0.999446611408456 -0.698586923131375 0.00329338685143495 -81.1657501215655 
! Gamma         0                0                0                0                
! Port Impedance         50               0                50               0                
2                              0.00347475743949823 -81.5293476323627 0.999435597132239 -0.734704450778356 0.999435597132241 -0.734704450778143 0.00347475839861101 -81.5292840561138 
! Gamma         0                0                0                0                
! Port Impedance         50               0                50               0                
2.1                            0.00365626271085964 -81.862412690228 0.999424689491369 -0.770819738683128 0.999424689491372 -0.770819738682928 0.00365626375400753 -81.8623471903781 
! Gamma         0                0                0                0                
! Port Impedance         50               0                50               0                
2.2                            0.00383791624489655 -82.1687810205008 0.999413846549106 -0.806931571089558 0.999413846549109 -0.806931571089371 0.0038379173705114 -82.1687135705028 
! Gamma         0                0                0                0                
! Port Impedance         50               0                50               0                
2.3                            0.00401973169809618 -82.4516759924888 0.999403036224073 -0.843038777615654 0.999403036224076 -0.843038777615479 0.0040197329046642 -82.4516065640518 
! Gamma         0                0                0                0                
! Port Impedance         50               0                50               0                
2.4                            0.004201721548366 -82.7138629477465 0.999392234329455 -0.879140264696373 0.999392234329458 -0.87914026469621 0.00420172283445201 -82.7137915118502 
! Gamma         0                0                0                0                
! Port Impedance         50               0                50               0                
2.5                            0.00438389689453736 -82.9577242306781 0.999381423004307 -0.915235032738942 0.99938142300431 -0.915235032738791 0.00438389825880167 -82.9576507582875 
! Gamma         0                0                0                0                
! Port Impedance         50               0                50               0                
2.6                            0.00456626737262269 -83.1853203039971 0.999370589455927 -0.951322184033754 0.999370589455931 -0.951322184033614 0.00456626881383252 -83.1852447665627 
! Gamma         0                0                0                0                
! Port Impedance         50               0                50               0                
2.7                            0.00474884114652386 -83.3984398046552 0.99935972494861 -0.9874009247399 0.999359724948614 -0.987400924739771 0.00474884266356068 -83.3983621744581 
! Gamma         0                0                0                0                
! Port Impedance         50               0                50               0                
2.8                            0.00493162494552448 -83.5986407583972 0.999348823987712 -1.02347056313274 0.999348823987715 -1.02347056313262 0.00493162653738833 -83.5985610087814 
! Gamma         0                0                0                0                
! Port Impedance         50               0                50               0                
2.9                            0.00511462413040959 -83.7872846876161 0.999337883658938 -1.05953050555583 0.999337883658941 -1.05953050555572 0.00511462579622104 -83.7872027931401 
! Gamma         0                0                0                0                
! Port Impedance         50               0                50               0                
3                              0.00529784277627176 -83.9655649770979 0.999326903091445 -1.09558025102739 0.999326903091448 -1.09558025102729 0.00529784451527206 -83.9654809136263 
! Gamma         0                0                0                0                
! Port Impedance         50               0                50               0                
3.1                            0.00548128376414467 -84.1345305768818 0.999315883020133 -1.13161938512584 0.999315883020136 -1.13161938512575 0.00548128557569453 -84.1344443216345 
! Gamma         0                0                0                0                
! Port Impedance         50               0                50               0                
3.2                            0.00566494887630058 -84.2951059000915 0.999304825427804 -1.16764757356217 0.999304825427807 -1.16764757356208 0.0056649507598778 -84.2950174316611 
! Gamma         0                0                0                0                
! Port Impedance         50               0                50               0                
3.3                            0.00584883889183423 -84.4481076009289 0.999293733251944 -1.20366455570363 0.999293733251947 -1.20366455570356 0.00584884084703042 -84.4480168992749 
! Gamma         0                0                0                0                
! Port Impedance         50               0                50               0                
3.4                            0.00603295368034539 -84.594258782675 0.999282610144092 -1.23967013821707 0.999282610144096 -1.23967013821701 0.00603295570686212 -84.5941658291025 
! Gamma         0                0                0                0                
! Port Impedance         50               0                50               0                
3.5                            0.00621729229232747 -84.7342010789635 0.999271460272205 -1.27566418893664 0.999271460272208 -1.27566418893659 0.00621729438997173 -84.7341058560886 
! Gamma         0                0                0                0                
! Port Impedance         50               0                50               0                
3.6                            0.00640185304540234 -84.8685049672675 0.99926028815836 -1.31164663101837 0.999260288158363 -1.31164663101832 0.00640185521408163 -84.8684074589755 
! Gamma         0                0                0                0                
! Port Impedance         50               0                50               0                
3.7                            0.00658663360590056 -84.9976786065541 0.999249098545654 -1.34761743741587 0.999249098545657 -1.34761743741583 0.00658663584561764 -84.9975787979511 
! Gamma         0                0                0                0                
! Port Impedance         50               0                50               0                
3.8                            0.00677163106552819 -85.1221754375985 0.999237896289308 -1.38357662569307 0.999237896289312 -1.38357662569303 0.00677163337637564 -85.1220733149596 
! Gamma         0                0                0                0                
! Port Impedance         50               0                50               0                
3.9                            0.00695684201302515 -85.2424007416193 0.999226686267937 -1.41952425317762 0.99922668626794 -1.41952425317759 0.00695684439517968 -85.242296292334 
! Gamma         0                0                0                0                
! Port Impedance         50               0                50               0                
4                              0.00714226260083069 -85.3587173184309 0.999215473311659 -1.4554604124509 0.999215473311661 -1.45546041245087 0.00714226505454738 -85.3586105309473 
! Gamma         0                0                0                0                
! Port Impedance         50               0                50               0                
4.1                            0.00732788860684674 -85.4714504174645 0.999204262144334 -1.49138522716544 0.999204262144337 -1.49138522716542 0.00732789113245327 -85.4713412812335 
! Gamma         0                0                0                0                
! Port Impedance         50               0                50               0                
4.2                            0.00751371549144027 -85.5808920324299 0.999193057337649 -1.52729884817779 0.999193057337652 -1.52729884817778 0.0075137180893311 -85.5807805378487 
! Gamma         0                0                0                0                
! Port Impedance         50               0                50               0                
4.3                            0.00769973844985946 -85.6873046519944 0.999181863275173 -1.56320144998255 0.999181863275175 -1.56320144998254 0.00769974112049009 -85.6871907903517 
! Gamma         0                0                0                0                
! Port Impedance         50               0                50               0                
4.4                            0.00788595246026033 -85.7909245438263 0.999170684124808 -1.59909322743291 0.999170684124811 -1.5990932274329 0.00788595520414166 -85.7908083072479 
! Gamma         0                0                0                0                
! Port Impedance         50               0                50               0                
4.5                            0.00807235232755419 -85.8919646370088 0.999159523818306 -1.63497439273222 0.999159523818309 -1.63497439273222 0.00807235514524692 -85.8918460184049 
! Gamma         0                0                0                0                
! Port Impedance         50               0                50               0                
4.6                            0.00825893272329398 -85.9906170576678 0.999148386036712 -1.67084517268117 0.999148386036715 -1.67084517268118 0.00825893561540329 -85.9904960506817 
! Gamma         0                0                0                0                
! Port Impedance         50               0                50               0                
4.7                            0.00844568822182115 -86.0870553642526 0.999137274200806 -1.70670580616552 0.999137274200809 -1.70670580616553 0.0084456911889914 -86.0869319632118 
! Gamma         0                0                0                0                
! Port Impedance         50               0                50               0                
4.8                            0.00863261333289482 -86.1814365219332 0.999126191465709 -1.7425565418693 0.999126191465711 -1.74255654186931 0.00863261637580455 -86.1813107218013 
! Gamma         0                0                0                0                
! Port Impedance         50               0                50               0                
4.9                            0.0088197025310231 -86.2739026497656 0.999115140718966 -1.77839763619933 0.999115140718968 -1.77839763619934 0.00881970565038017 -86.2737744460971 
! Gamma         0                0                0                0                
! Port Impedance         50               0                50               0                
5                              0.00900695028171242 -86.3645825694203 0.999104124581513 -1.8142293514069 0.999104124581515 -1.81422935140691 0.00900695347824942 -86.3644519583171 
! Gamma         0                0                0                0                
! Port Impedance         50               0                50               0                
5.1                            0.00919435106484551 -86.4535931801912 0.999093145411021 -1.85005195389344 0.999093145411023 -1.85005195389346 0.00919435433931536 -86.4534601582612 
! Gamma         0                0                0                0                
! Port Impedance         50               0                50               0                
5.2                            0.00938189939539213 -86.541040681571 0.999082205307168 -1.88586571268726 0.99908220530717 -1.88586571268729 0.00938190274856389 -86.5409052458884 
! Gamma         0                0                0                0                
! Port Impedance         50               0                50               0                
5.3                            0.00956958984164962 -86.6270216617774 0.999071306118472 -1.92167089807909 0.999071306118474 -1.92167089807911 0.00956959327430459 -86.6268838098458 
! Gamma         0                0                0                0                
! Port Impedance         50               0                50               0                
5.4                            0.00975741704120238 -86.7116240681575 0.999060449450362 -1.95746778040489 0.999060449450364 -1.95746778040492 0.00975742055413041 -86.7114837978743 
! Gamma         0                0                0                0                
! Port Impedance         50               0                50               0                
5.5                            0.00994537571478111 -86.7949280733048 0.999049636674211 -1.99325662896478 0.999049636674213 -1.99325662896481 0.00994537930877714 -86.7947853829281 
! Gamma         0                0                0                0                
! Port Impedance         50               0                50               0                
5.6                            0.010133460678194 -86.8770068489377 0.999038868937085 -2.02903771106754 0.999038868937086 -2.02903771106757 0.0101334643540548 -86.8768617370546 
! Gamma         0                0                0                0                
! Port Impedance         50               0                50               0                
5.7                            0.0103216668524931 -86.9579272580616 0.999028147172015 -2.06481129119078 0.999028147172017 -2.06481129119082 0.0103216706110145 -86.9577797235591 
! Gamma         0                0                0                0                
! Port Impedance         50               0                50               0                
5.8                            0.0105099892725308 -87.0377504746233 0.999017472108623 -2.10057763024748 0.999017472108624 -2.10057763024751 0.0105099931145046 -87.0376005166603 
! Gamma         0                0                0                0                
! Port Impedance         50               0                50               0                
5.9                            0.0106984230940506 -87.1165325387342 0.999006844283937 -2.13633698494981 0.999006844283938 -2.13633698494984 0.0106984270202622 -87.1163801567157 
! Gamma         0                0                0                0                
! Port Impedance         50               0                50               0                
6                              0.0108869635994509 -87.1943248545659 0.998996264053293 -2.17208960726221 0.998996264053294 -2.17208960726224 0.0108869676106769 -87.1941700481189 
! Gamma         0                0                0                0                
! Port Impedance         50               0                50               0                
6.1                            0.0110756062023469 -87.271174637171 0.998985731601213 -2.20783574393569 0.998985731601214 -2.20783574393572 0.0110756102993533 -87.2710174061219 
! Gamma         0                0                0                0                
! Port Impedance         50               0                50               0                
6.2                            0.0112643464510532 -87.3471253137517 0.998975246952161 -2.24357563611622 0.998975246952162 -2.24357563611625 0.0112643506345929 -87.3469656581052 
! Gamma         0                0                0                0                
! Port Impedance         50               0                50               0                
6.3                            0.0114531800310947 -87.4222168842539 0.998964809981127 -2.2793095190202 0.998964809981127 -2.27930951902023 0.0114531843019062 -87.4220548041734 
! Gamma         0                0                0                0                
! Port Impedance         50               0                50               0                
6.4                            0.0116421027668515 -87.4964862456102 0.998954420423962 -2.31503762167092 0.998954420423963 -2.31503762167095 0.0116421071256572 -87.4963217413998 
! Gamma         0                0                0                0                
! Port Impedance         50               0                50               0                
6.5                            0.011831110622432 -87.5699674834636 0.998944077887434 -2.35076016668975 0.998944077887435 -2.35076016668978 0.0118311150699366 -87.5698005555515 
! Gamma         0                0                0                0                
! Port Impedance         50               0                50               0                
6.6                            0.0120201997018617 -87.6426921347759 0.998933781858949 -2.38647737013694 0.998933781858949 -2.38647737013697 0.0120202042387513 -87.6425227836984 
! Gamma         0                0                0                0                
! Port Impedance         50               0                50               0                
6.7                            0.0122093662486695 -87.7146894243476 0.998923531715927 -2.42218944139662 0.998923531715928 -2.42218944139665 0.0122093708756104 -87.7145176507352 
! Gamma         0                0                0                0                
! Port Impedance         50               0                50               0                
6.8                            0.0123986066449454 -87.7859864779456 0.998913326734808 -2.45789658310155 0.998913326734808 -2.45789658310158 0.0123986113625831 -87.7858122825097 
! Gamma         0                0                0                0                
! Port Impedance         50               0                50               0                
6.9                            0.0125879174099373 -87.8566085144408 0.998903166099659 -2.49359899109311 0.998903166099659 -2.49359899109314 0.0125879222188956 -87.8564318979615 
! Gamma         0                0                0                0                
! Port Impedance         50               0                50               0                
7                              0.0127772951982489 -87.9265790191002 0.998893048910398 -2.52929685441269 0.998893048910399 -2.52929685441272 0.0127773000991294 -87.9263999824154 
! Gamma         0                0                0                0                
! Port Impedance         50               0                50               0                
7.1                            0.0129667367976956 -87.9959198999489 0.998882974190609 -2.56499035532067 0.998882974190609 -2.56499035532069 0.0129667417910769 -87.9957384439437 
! Gamma         0                0                0                0                
! Port Impedance         50               0                50               0                
7.2                            0.013156239126869 -88.0646516289144 0.998872940894954 -2.60067966933975 0.998872940894954 -2.60067966933978 0.0131562442133065 -88.0644677545121 
! Gamma         0                0                0                0                
! Port Impedance         50               0                50               0                
7.3                            0.0133457992324571 -88.1327933692863 0.998862947916196 -2.63636496531958 0.998862947916196 -2.6363649653196 0.0133458044124822 -88.1326070774399 
! Gamma         0                0                0                0                
! Port Impedance         50               0                50               0                
7.4                            0.0135354142863609 -88.2003630908627 0.998852994091821 -2.6720464055197 0.998852994091821 -2.67204640551972 0.0135354195604813 -88.2001743825471 
! Gamma         0                0                0                0                
! Port Impedance         50               0                50               0                
7.5                            0.0137250815826464 -88.2673776740149 0.998843078210273 -2.70772414570854 0.998843078210273 -2.70772414570855 0.0137250869513454 -88.2671865502199 
! Gamma         0                0                0                0                
! Port Impedance         50               0                50               0                
7.6                            0.0139147985343648 -88.3338530037715 0.998833199016822 -2.74339833527585 0.998833199016822 -2.74339833527586 0.0139148039981015 -88.3336594654955 
! Gamma         0                0                0                0                
! Port Impedance         50               0                50               0                
7.7                            0.0141045626702717 -88.3998040549134 0.998823355219057 -2.77906911735677 0.998823355219057 -2.77906911735679 0.0141045682294805 -88.3996081031576 
! Gamma         0                0                0                0                
! Port Impedance         50               0                50               0                
7.8                            0.0142943716314711 -88.4652449689674 0.998813545492034 -2.81473662896541 0.998813545492033 -2.81473662896542 0.0142943772865622 -88.4650466047306 
! Gamma         0                0                0                0                
! Port Impedance         50               0                50               0                
7.9                            0.0144842231680101 -88.5301891238969 0.998803768483076 -2.85040100113629 0.998803768483075 -2.8504010011363 0.0144842289193693 -88.5299883481707 
! Gamma         0                0                0                0                
! Port Impedance         50               0                50               0                
8                              0.0146741151354432 -88.5946491972077 0.998794022816253 -2.88606235907226 0.998794022816252 -2.88606235907227 0.0146741209834321 -88.5944460109729 
! Gamma         0                0                0                0                
! Port Impedance         50               0                50               0                
8.1                            0.0148640454913869 -88.6586372231142 0.998784307096546 -2.92172082229728 0.998784307096545 -2.92172082229728 0.0148640514363429 -88.6584316273366 
! Gamma         0                0                0                0                
! Port Impedance         50               0                50               0                
8.2                            0.0150540122920784 -88.7221646443456 0.99877461991371 -2.95737650481299 0.998774619913709 -2.95737650481299 0.0150540183343152 -88.7219566399727 
! Gamma         0                0                0                0                
! Port Impedance         50               0                50               0                
8.3                            0.0152440136889557 -88.7852423591154 0.998764959845858 -2.99302951525796 0.998764959845857 -2.99302951525796 0.0152440198287632 -88.7850319470739 
! Gamma         0                0                0                0                
! Port Impedance         50               0                50               0                
8.4                            0.0154340479252685 -88.8478807637243 0.998755325462769 -3.02867995706864 0.998755325462768 -3.02867995706863 0.0154340541629131 -88.8476679449171 
! Gamma         0                0                0                0                
! Port Impedance         50               0                50               0                
8.5                            0.0156241133327322 -88.9100897912196 0.998745715328942 -3.064327928641  0.998745715328941 -3.06432792864099 0.0156241196684576 -88.9098745665239 
! Gamma         0                0                0                0                
! Port Impedance         50               0                50               0                
8.6                            0.0158142083282341 -88.9718789464937 0.998736128006406 -3.09997352349242 0.998736128006405 -3.09997352349241 0.0158142147622608 -88.9716613167589 
! Gamma         0                0                0                0                
! Port Impedance         50               0                50               0                
8.7                            0.016004331410598 -89.0332573381641 0.998726562057299 -3.13561683042286 0.998726562057298 -3.13561683042285 0.0160043379431244 -89.0330373042102 
! Gamma         0                0                0                0                
! Port Impedance         50               0                50               0                
8.8                            0.0161944811574154 -89.0942337075463 0.998717016046239 -3.17125793367485 0.998717016046238 -3.17125793367484 0.0161944877886177 -89.0940112701624 
! Gamma         0                0                0                0                
! Port Impedance         50               0                50               0                
8.9                            0.0163846562219472 -89.1548164549983 0.998707488542478 -3.20689691309189 0.998707488542477 -3.20689691309187 0.01638466295198 -89.1545916149415 
! Gamma         0                0                0                0                
! Port Impedance         50               0                50               0                
9                              0.0165748553301013 -89.2150136638888 0.998697978121876 -3.2425338442746 0.998697978121875 -3.24253384427458 0.0165748621590978 -89.2147864218832 
! Gamma         0                0                0                0                
! Port Impedance         50               0                50               0                
9.1                            0.016765077277488 -89.2748331224171 0.99868848336869 -3.27816879873452 0.998688483368688 -3.2781687987345 0.0167650842055604 -89.274603479153 
! Gamma         0                0                0                0                
! Port Impedance         50               0                50               0                
9.2                            0.0169553209265574 -89.3342823434891 0.998679002877194 -3.31380184404502 0.998679002877192 -3.313801844045  0.0169553279537976 -89.3340502996222 
! Gamma         0                0                0                0                
! Port Impedance         50               0                50               0                
9.3                            0.0171455852038198 -89.3933685828346 0.998669535253147 -3.34943304398917 0.998669535253145 -3.34943304398914 0.0171455923302996 -89.393134138986 
! Gamma         0                0                0                0                
! Port Impedance         50               0                50               0                
9.4                            0.0173358690971503 -89.4520988555345 0.998660079115107 -3.38506245870437 0.998660079115106 -3.38506245870434 0.0173358763229219 -89.4518620122899 
! Gamma         0                0                0                0                
! Port Impedance         50               0                50               0                
9.5                            0.0175261716531789 -89.5104799511067 0.998650633095614 -3.42069014482347 0.998650633095612 -3.42069014482343 0.0175261789782752 -89.5102407090162 
! Gamma         0                0                0                0                
! Port Impedance         50               0                50               0                
9.6                            0.0177164919747653 -89.5685184472884 0.99864119584224 -3.45631615561236 0.998641195842238 -3.45631615561232 0.0177164993992003 -89.5682768068667 
! Gamma         0                0                0                0                
! Port Impedance         50               0                50               0                
9.7                            0.0179068292185596 -89.6262207226373 0.998631766018524 -3.49194054110381 0.998631766018522 -3.49194054110377 0.0179068367423291 -89.6259766843635 
! Gamma         0                0                0                0                
! Port Impedance         50               0                50               0                
9.8                            0.0180971825926473 -89.6835929680638 0.998622342304793 -3.52756334822758 0.998622342304791 -3.52756334822753 0.018097190215729 -89.6833465323816 
! Gamma         0                0                0                0                
! Port Impedance         50               0                50               0                
9.9                            0.018287551354278 -89.7406411973931 0.998612923398887 -3.56318462093667 0.998612923398885 -3.56318462093663 0.0182875590766322 -89.7403923647108 
! Gamma         0                0                0                0                
! Port Impedance         50               0                50               0                
10                             0.0184779348076772 -89.7973712570496 0.99860350801678 -3.59880440032976 0.998603508016778 -3.59880440032971 0.018477942629247 -89.7971200277404 
! Gamma         0                0                0                0                
! Port Impedance         50               0                50               0                
10.1                           0.018668332301939 -89.8537888349444 0.998594094893119 -3.63442272476972 0.998594094893117 -3.63442272476966 0.0186683402226508 -89.8535352093469 
! Gamma         0                0                0                0                
! Port Impedance         50               0                50               0                
10.2                           0.0188587432289989 -89.9098994686412 0.998584682781684 -3.67003962999832 0.998584682781681 -3.67003962999827 0.0188587512487628 -89.9096434470595 
! Gamma         0                0                0                0                
! Port Impedance         50               0                50               0                
10.3                           0.0190491670216847 -89.9657085528664 0.998575270455762 -3.70565514924714 0.99857527045576 -3.70565514924708 0.019049175140395 -89.9654501355708 
! Gamma         0                0                0                0                
! Port Impedance         50               0                50               0                
10.4                           0.0192396031518436 -90.0212213464255 0.99856585670847 -3.74126931334455 0.998565856708468 -3.74126931334449 0.0192396113693792 -90.0209605336525 
! Gamma         0                0                0                0                
! Port Impedance         50               0                50               0                
10.5                           0.0194300511285443 -90.0764429785791 0.998556440352995 -3.77688215081913 0.998556440352993 -3.77688215081906 0.0194300594447688 -90.0761797705321 
! Gamma         0                0                0                0                
! Port Impedance         50               0                50               0                
10.6                           0.0196205104963506 -90.1313784549291 0.99854702022279 -3.81249368799923 0.998547020222788 -3.81249368799916 0.019620518911113 -90.1311128517793 
! Gamma         0                0                0                0                
! Port Impedance         50               0                50               0                
10.7                           0.0198109808336663 -90.18603266286  0.998537595171712 -3.848103949109  0.998537595171709 -3.84810394910893 0.0198109893468014 -90.1857646647464 
! Gamma         0                0                0                0                
! Port Impedance         50               0                50               0                
10.8                           0.0200014617511479 -90.2404103765751 0.998528164074106 -3.88371295636089 0.998528164074104 -3.88371295636081 0.0200014703624763 -90.2401399836054 
! Gamma         0                0                0                0                
! Port Impedance         50               0                50               0                
10.9                           0.0201919528901836 -90.2945162617652 0.998518725824855 -3.91932073004453 0.998518725824853 -3.91932073004446 0.0201919615995127 -90.2942434740161 
! Gamma         0                0                0                0                
! Port Impedance         50               0                50               0                
11                             0.0203824539214367 -90.3483548799422 0.99850927933938 -3.95492728861243 0.998509279339378 -3.95492728861235 0.0203824627285603 -90.3480796974602 
! Gamma         0                0                0                0                
! Port Impedance         50               0                50               0                
11.1                           0.0205729645434503 -90.4019306924684 0.998499823553607 -3.99053264876218 0.998499823553605 -3.9905326487621 0.0205729734481496 -90.4016531152703 
! Gamma         0                0                0                0                
! Port Impedance         50               0                50               0                
11.2                           0.0207634844813123 -90.4552480643083 0.998490357423898 -4.02613682551555 0.998490357423896 -4.02613682551547 0.0207634934833558 -90.454968092382 
! Gamma         0                0                0                0                
! Port Impedance         50               0                50               0                
11.3                           0.0209540134853779 -90.5083112675278 0.998480879926957 -4.06173983229439 0.998480879926955 -4.06173983229431 0.0209540225845222 -90.5080289008327 
! Gamma         0                0                0                0                
! Port Impedance         50               0                50               0                
11.4                           0.0211445513300481 -90.561124484563 0.998471390059703 -4.09734168099357 0.998471390059701 -4.09734168099348 0.0211445605260376 -90.5608397230307 
! Gamma         0                0                0                0                
! Port Impedance         50               0                50               0                
11.5                           0.021335097812601 -90.6136918112782 0.998461886839119 -4.13294238205089 0.998461886839117 -4.1329423820508 0.0213351071051687 -90.6134046548132 
! Gamma         0                0                0                0                
! Port Impedance         50               0                50               0                
11.6                           0.0215256527520752 -90.6660172598333 0.998452369302082 -4.16854194451418 0.99845236930208 -4.16854194451409 0.021525662140943 -90.6657277083134 
! Gamma         0                0                0                0                
! Port Impedance         50               0                50               0                
11.7                           0.0217162159882031 -90.7181047613742 0.998442836505171 -4.20414037610568 0.998442836505169 -4.20414037610559 0.0217162254730818 -90.7178128146516 
! Gamma         0                0                0                0                
! Port Impedance         50               0                50               0                
11.8                           0.0219067873803909 -90.7699581685646 0.998433287524456 -4.23973768328367 0.998433287524453 -4.23973768328357 0.0219067969609807 -90.7696638264658 
! Gamma         0                0                0                0                
! Port Impedance         50               0                50               0                
11.9                           0.0220973668067452 -90.8215812579698 0.998423721455275 -4.27533387130159 0.998423721455272 -4.27533387130149 0.022097376482736 -90.8212845202969 
! Gamma         0                0                0                0                
! Port Impedance         50               0                50               0                
12                             0.0222879541631431 -90.872977732307 0.998414137411996 -4.31092894426463 0.998414137411993 -4.31092894426453 0.0222879639342148 -90.8726785988378 
! Gamma         0                0                0                0                
! Port Impedance         50               0                50               0                
12.1                           0.0224785493623447 -90.9241512225719 0.998404534527762 -4.34652290518398 0.998404534527759 -4.34652290518388 0.0224785592281674 -90.9238496930608 
! Gamma         0                0                0                0                
! Port Impedance         50               0                50               0                
12.2                           0.0226691523331459 -90.9751052900529 0.998394911954237 -4.38211575602872 0.998394911954234 -4.38211575602861 0.02266916229338 -90.9748013642315 
! Gamma         0                0                0                0                
! Port Impedance         50               0                50               0                
12.3                           0.0228597630195698 -91.0258434282409 0.998385268861329 -4.41770749777548 0.998385268861327 -4.41770749777536 0.0228597730738666 -91.0255371058184 
! Gamma         0                0                0                0                
! Port Impedance         50               0                50               0                
12.4                           0.0230503813800953 -91.0763690646444 0.998375604436918 -4.45329813045601 0.998375604436915 -4.45329813045589 0.0230503915280971 -91.0760603453081 
! Gamma         0                0                0                0                
! Port Impedance         50               0                50               0                
12.5                           0.0232410073869217 -91.1266855625156 0.998365917886569 -4.48888765320266 0.998365917886566 -4.48888765320255 0.0232410176282619 -91.1263744459318 
! Gamma         0                0                0                0                
! Port Impedance         50               0                50               0                
12.6                           0.0234316410252663 -91.176796222497 0.998356208433242 -4.52447606429189 0.998356208433239 -4.52447606429178 0.0234316513595699 -91.1764827083112 
! Gamma         0                0                0                0                
! Port Impedance         50               0                50               0                
12.7                           0.0236222822926957 -91.2267042841917 0.998346475317004 -4.56006336118585 0.998346475317001 -4.56006336118573 0.0236222927195793 -91.2263883720295 
! Gamma         0                0                0                0                
! Port Impedance         50               0                50               0                
12.8                           0.0238129311984874 -91.2764129276661 0.998336717794725 -4.59564954057216 0.998336717794722 -4.59564954057204 0.0238129417175596 -91.2760946171333 
! Gamma         0                0                0                0                
! Port Impedance         50               0                50               0                
12.9                           0.0240035877630217 -91.3259252748875 0.998326935139786 -4.63123459840196 0.998326935139783 -4.63123459840183 0.0240035983738831 -91.3256045655708 
! Gamma         0                0                0                0                
! Port Impedance         50               0                50               0                
13                             0.0241942520172019 -91.375244391103 0.998317126641773 -4.66681852992621 0.99831712664177 -4.66681852992609 0.0241942627194456 -91.3749212825708 
! Gamma         0                0                0                0                
! Port Impedance         50               0                50               0                
13.1                           0.0243849240019016 -91.4243732861638 0.998307291606179 -4.70240132973046 0.998307291606176 -4.70240132973034 0.024384934795113 -91.4240477779662 
! Gamma         0                0                0                0                
! Port Impedance         50               0                50               0                
13.2                           0.0245756037674382 -91.4733149157973 0.998297429354102 -4.73798299176799 0.998297429354099 -4.73798299176786 0.0245756146511957 -91.4729870074668 
! Gamma         0                0                0                0                
! Port Impedance         50               0                50               0                
13.3                           0.0247662913730712 -91.5220721828329 0.998287539221941 -4.7735635093915 0.998287539221939 -4.77356350939137 0.024766302346946 -91.521741873885 
! Gamma         0                0                0                0                
! Port Impedance         50               0                50               0                
13.4                           0.0249569868865242 -91.5706479383825 0.998277620561102 -4.80914287538342 0.998277620561099 -4.80914287538329 0.0249569979500807 -91.5703152283159 
! Gamma         0                0                0                0                
! Port Impedance         50               0                50               0                
13.5                           0.0251476903835299 -91.61904498298  0.998267672737689 -4.84472108198479 0.998267672737687 -4.84472108198466 0.0251477015363257 -91.6187098712772 
! Gamma         0                0                0                0                
! Port Impedance         50               0                50               0                
13.6                           0.0253384019473959 -91.6672660676818 0.998257695132219 -4.88029812092285 0.998257695132217 -4.88029812092271 0.0253384131889821 -91.6669285538096 
! Gamma         0                0                0                0                
! Port Impedance         50               0                50               0                
13.7                           0.0255291216685921 -91.7153138951313 0.998247687139317 -4.91587398343742 0.998247687139314 -4.91587398343728 0.0255291329985135 -91.714973978541 
! Gamma         0                0                0                0                
! Port Impedance         50               0                50               0                
13.8                           0.0257198496443576 -91.763191120589 0.998237648167428 -4.95144866030604 0.998237648167426 -4.95144866030591 0.0257198610621528 -91.7628488007169 
! Gamma         0                0                0                0                
! Port Impedance         50               0                50               0                
13.9                           0.0259105859783258 -91.8109003529304 0.998227577638529 -4.987022141868  0.998227577638526 -4.98702214186787 0.0259105974835273 -91.8105556291982 
! Gamma         0                0                0                0                
! Port Impedance         50               0                50               0                
14                             0.0261013307801682 -91.8584441556141 0.99821747498784 -5.02259441804723 0.998217474987838 -5.02259441804709 0.0261013423723027 -91.8580970274294 
! Gamma         0                0                0                0                
! Port Impedance         50               0                50               0                
14.1                           0.026292084165255 -91.9058250476208 0.998207339663544 -5.05816547837416 0.998207339663541 -5.05816547837402 0.0262920958438434 -91.9054755143773 
! Gamma         0                0                0                0                
! Port Impedance         50               0                50               0                
14.2                           0.0264828462543321 -91.953045504366 0.998197171126502 -5.09373531200662 0.9981971711265  -5.09373531200648 0.0264828580188897 -91.952693565444 
! Gamma         0                0                0                0                
! Port Impedance         50               0                50               0                
14.3                           0.0266736171732137 -92.0001079585864 0.998186968849986 -5.12930390774974 0.998186968849984 -5.1293039077496 0.0266736290232505 -91.9997536133529 
! Gamma         0                0                0                0                
! Port Impedance         50               0                50               0                
14.4                           0.0268643970524897 -92.0470148012025 0.998176732319402 -5.16487125407488 0.998176732319399 -5.16487125407474 0.0268644089875102 -92.0466580490119 
! Gamma         0                0                0                0                
! Port Impedance         50               0                50               0                
14.5                           0.0270551860272473 -92.093768382158 0.998166461032022 -5.20043733913781 0.998166461032019 -5.20043733913767 0.027055198046751 -92.0934092223522 
! Gamma         0                0                0                0                
! Port Impedance         50               0                50               0                
14.6                           0.0272459842368061 -92.1403710112377 0.998156154496724 -5.23600215079596 0.998156154496722 -5.23600215079582 0.0272459963402874 -92.1400094431464 
! Gamma         0                0                0                0                
! Port Impedance         50               0                50               0                
14.7                           0.0274367918244664 -92.1868249588633 0.998145812233734 -5.27156567662485 0.998145812233731 -5.27156567662471 0.0274368040114148 -92.1864609818045 
! Gamma         0                0                0                0                
! Port Impedance         50               0                50               0                
14.8                           0.027627608937269 -92.2331324568708 0.998135433774365 -5.30712790393386 0.998135433774363 -5.30712790393371 0.0276276212071692 -92.2327660701507 
! Gamma         0                0                0                0                
! Port Impedance         50               0                50               0                
14.9                           0.0278184357257678 -92.279295699267 0.998125018660776 -5.34268881978114 0.998125018660774 -5.342688819781  0.0278184480780998 -92.278926902181 
! Gamma         0                0                0                0                
! Port Impedance         50               0                50               0                
15                             0.0280092723438123 -92.3253168429697 0.998114566445721 -5.37824841098794 0.998114566445718 -5.37824841098779 0.0280092847780515 -92.3249456348019 
! Gamma         0                0                0                0                
! Port Impedance         50               0                50               0                
15.1                           0.028200118948342 -92.3711980085283 0.998104076692306 -5.41380666415216 0.998104076692304 -5.41380666415202 0.0282001314639595 -92.3708243885521 
! Gamma         0                0                0                0                
! Port Impedance         50               0                50               0                
15.2                           0.02839097569919 -92.4169412808287 0.998093548973761 -5.44936356566138 0.998093548973758 -5.44936356566124 0.0283909882956525 -92.4165652483073 
! Gamma         0                0                0                0                
! Port Impedance         50               0                50               0                
15.3                           0.0285818427588968 -92.4625487097821 0.998082982873199 -5.48491910170515 0.998082982873196 -5.48491910170501 0.0285818554356667 -92.4621702639683 
! Gamma         0                0                0                0                
! Port Impedance         50               0                50               0                
15.4                           0.028772720292533 -92.5080223109969 0.998072377983395 -5.52047325828681 0.998072377983392 -5.52047325828667 0.0287727330490685 -92.5076414511337 
! Gamma         0                0                0                0                
! Port Impedance         50               0                50               0                
15.5                           0.0289636084675306 -92.5533640664368 0.998061733906561 -5.5560260212347 0.998061733906558 -5.55602602123456 0.0289636213032861 -92.5529807917575 
! Gamma         0                0                0                0                
! Port Impedance         50               0                50               0                
15.6                           0.0291545074535236 -92.5985759250638 0.998051050254128 -5.59157737621283 0.998051050254126 -5.59157737621269 0.0291545203679495 -92.5981902347922 
! Gamma         0                0                0                0                
! Port Impedance         50               0                50               0                
15.7                           0.0293454174221953 -92.6436598034666 0.998040326646533 -5.62712730873108 0.998040326646531 -5.62712730873095 0.029345430414738 -92.6432716968172 
! Gamma         0                0                0                0                
! Port Impedance         50               0                50               0                
15.8                           0.0295363385471339 -92.6886175864764 0.99802956271301 -5.66267580415492 0.998029562713008 -5.66267580415478 0.0295363516172362 -92.6882270626547 
! Gamma         0                0                0                0                
! Port Impedance         50               0                50               0                
15.9                           0.0297272710036955 -92.7334511277683 0.998018758091384 -5.69822284771457 0.998018758091382 -5.69822284771444 0.0297272841507965 -92.733058185971 
! Gamma         0                0                0                0                
! Port Impedance         50               0                50               0                
16                             0.0299182149688733 -92.7781622504508 0.998007912427873 -5.73376842451388 0.998007912427871 -5.73376842451375 0.0299182281924085 -92.777766889866 
! Gamma         0                0                0                0                
! Port Impedance         50               0                50               0                
16.1                           0.0301091706211739 -92.8227527476423 0.997997025376891 -5.76931251953864 0.997997025376889 -5.76931251953851 0.0301091839205754 -92.8223549674496 
! Gamma         0                0                0                0                
! Port Impedance         50               0                50               0                
16.2                           0.0303001381404999 -92.8672243830358 0.997986096600856 -5.80485511766459 0.997986096600854 -5.80485511766445 0.0303001515151962 -92.8668241824066 
! Gamma         0                0                0                0                
! Port Impedance         50               0                50               0                
16.3                           0.0304911177080377 -92.9115788914515 0.997975125770004 -5.84039620366496 0.997975125770002 -5.84039620366483 0.0304911311574543 -92.9111762695489 
! Gamma         0                0                0                0                
! Port Impedance         50               0                50               0                
16.4                           0.0306821095061521 -92.9558179793783 0.997964112562207 -5.87593576221776 0.997964112562205 -5.87593576221763 0.030682123029711 -92.9554129353577 
! Gamma         0                0                0                0                
! Port Impedance         50               0                50               0                
16.5                           0.0308731137182852 -92.9999433255038 0.99795305666279 -5.91147377791259 0.997953056662788 -5.91147377791246 0.0308731273154054 -92.9995358585129 
! Gamma         0                0                0                0                
! Port Impedance         50               0                50               0                
16.6                           0.0310641305288615 -93.043956581234 0.997941957764361 -5.94701023525719 0.997941957764359 -5.94701023525706 0.0310641441989587 -93.0435466904128 
! Gamma         0                0                0                0                
! Port Impedance         50               0                50               0                
16.7                           0.0312551601231966 -93.0878593712019 0.997930815566637 -5.98254511868367 0.997930815566635 -5.98254511868354 0.0312551738656837 -93.087447055683 
! Gamma         0                0                0                0                
! Port Impedance         50               0                50               0                
16.8                           0.031446202687412 -93.1316532937657 0.997919629776279 -6.01807841255443 0.997919629776278 -6.0180784125543 0.0314462165016987 -93.1312385526744 
! Gamma         0                0                0                0                
! Port Impedance         50               0                50               0                
16.9                           0.031637258408353 -93.1753399214977 0.997908400106731 -6.05361010116777 0.997908400106729 -6.05361010116764 0.0316372722938464 -93.1749227539523 
! Gamma         0                0                0                0                
! Port Impedance         50               0                50               0                
17                             0.031828327473512 -93.2189208016625 0.997897126278055 -6.08914016876323 0.997897126278053 -6.08914016876311 0.0318283414296163 -93.218501206774 
! Gamma         0                0                0                0                
! Port Impedance         50               0                50               0                
17.1                           0.0320194100709548 -93.2623974566859 0.997885808016781 -6.1246685995267 0.997885808016779 -6.12466859952658 0.0320194240970715 -93.2619754335588 
! Gamma         0                0                0                0                
! Port Impedance         50               0                50               0                
17.2                           0.0322105063892518 -93.3057713846151 0.997874445055754 -6.16019537759524 0.997874445055753 -6.16019537759512 0.0322105204847795 -93.3053469323468 
! Gamma         0                0                0                0                
! Port Impedance         50               0                50               0                
17.3                           0.0324016166174115 -93.3490440595682 0.997863037133986 -6.19572048706165 0.997863037133984 -6.19572048706154 0.0324016307817463 -93.3486171772498 
! Gamma         0                0                0                0                
! Port Impedance         50               0                50               0                
17.4                           0.0325927409448187 -93.3922169321766 0.997851583996511 -6.23124391197889 0.99785158399651 -6.23124391197877 0.0325927551773543 -93.3917876188925 
! Gamma         0                0                0                0                
! Port Impedance         50               0                50               0                
17.5                           0.0327838795611757 -93.4352914300172 0.997840085394244 -6.26676563636414 0.997840085394243 -6.26676563636403 0.0327838938613031 -93.4348596848454 
! Gamma         0                0                0                0                
! Port Impedance         50               0                50               0                
17.6                           0.0329750326564459 -93.4782689580367 0.997828541083845 -6.30228564420282 0.997828541083843 -6.30228564420271 0.0329750470235538 -93.4778347800491 
! Gamma         0                0                0                0                
! Port Impedance         50               0                50               0                
17.7                           0.0331662004208013 -93.5211508989674 0.997816950827582 -6.33780391945226 0.99781695082758 -6.33780391945216 0.0331662148542761 -93.5207142872296 
! Gamma         0                0                0                0                
! Port Impedance         50               0                50               0                
17.8                           0.0333573830445729 -93.563938613735 0.997805314393203 -6.3733204460453 0.997805314393201 -6.3733204460452 0.0333573975437985 -93.5634995673066 
! Gamma         0                0                0                0                
! Port Impedance         50               0                50               0                
17.9                           0.0335485807182027 -93.6066334418578 0.997793631553806 -6.40883520789362 0.997793631553805 -6.40883520789352 0.0335485952825608 -93.6061919597923 
! Gamma         0                0                0                0                
! Port Impedance         50               0                50               0                
18                             0.0337397936321993 -93.6492367018388 0.997781902087716 -6.44434818889091 0.997781902087715 -6.44434818889082 0.0337398082610695 -93.648792783184 
! Gamma         0                0                0                0                
! Port Impedance         50               0                50               0                
18.1                           0.0339310219770962 -93.6917496915494 0.997770125778362 -6.47985937291599 0.99777012577836 -6.4798593729159 0.0339310366698558 -93.6913033353472 
! Gamma         0                0                0                0                
! Port Impedance         50               0                50               0                
18.2                           0.0341222659434111 -93.7341736886064 0.997758302414158 -6.51536874383557 0.997758302414157 -6.51536874383548 0.0341222806994354 -93.733724893893 
! Gamma         0                0                0                0                
! Port Impedance         50               0                50               0                
18.3                           0.0343135257216086 -93.7765099507406 0.99774643178839 -6.55087628550705 0.997746431788389 -6.55087628550696 0.0343135405402709 -93.7760587165467 
! Gamma         0                0                0                0                
! Port Impedance         50               0                50               0                
18.4                           0.0345048015020651 -93.8187597161591 0.9977345136991  -6.58638198178105 0.997734513699099 -6.58638198178098 0.0345048163827366 -93.8183060415098 
! Gamma         0                0                0                0                
! Port Impedance         50               0                50               0                
18.5                           0.0346960934750344 -93.8609242039001 0.997722547948978 -6.6218858165039 0.997722547948976 -6.62188581650383 0.0346961084170845 -93.8604680878149 
! Gamma         0                0                0                0                
! Port Impedance         50               0                50               0                
18.6                           0.0348874018306168 -93.9030046141806 0.997710534345252 -6.6573877735199 0.997710534345251 -6.65738777351983 0.0348874168334129 -93.9025460556738 
! Gamma         0                0                0                0                
! Port Impedance         50               0                50               0                
18.7                           0.0350787267587292 -93.9450021287379 0.997698472699587 -6.69288783667354 0.997698472699586 -6.69288783667348 0.0350787418216367 -93.9445411268185 
! Gamma         0                0                0                0                
! Port Impedance         50               0                50               0                
18.8                           0.0352700684490766 -93.9869179111639 0.997686362827981 -6.72838598981157 0.997686362827981 -6.72838598981151 0.0352700835714596 -93.9864544648356 
! Gamma         0                0                0                0                
! Port Impedance         50               0                50               0                
18.9                           0.0354614270911264 -94.0287531072331 0.997674204550664 -6.76388221678495 0.997674204550663 -6.76388221678489 0.0354614422723468 -94.0282872154943 
! Gamma         0                0                0                0                
! Port Impedance         50               0                50               0                
19                             0.0356528028740831 -94.0705088452241 0.997661997692003 -6.79937650145068 0.997661997692002 -6.79937650145063 0.0356528181135013 -94.0700405070684 
! Gamma         0                0                0                0                
! Port Impedance         50               0                50               0                
19.1                           0.035844195986865 -94.1121862362353 0.997649742080406 -6.83486882767361 0.997649742080405 -6.83486882767356 0.0358442112838398 -94.1117154506509 
! Gamma         0                0                0                0                
! Port Impedance         50               0                50               0                
19.2                           0.0360356066180827 -94.1537863744937 0.997637437548229 -6.87035917932802 0.997637437548229 -6.87035917932797 0.0360356219719711 -94.153313140464 
! Gamma         0                0                0                0                
! Port Impedance         50               0                50               0                
19.3                           0.0362270349560178 -94.1953103376582 0.997625083931691 -6.90584754029923 0.99762508393169 -6.90584754029919 0.0362270503661755 -94.1948346541617 
! Gamma         0                0                0                0                
! Port Impedance         50               0                50               0                
19.4                           0.0364184811886045 -94.2367591871174 0.997612681070776 -6.94133389448503 0.997612681070776 -6.94133389448499 0.0364184966543854 -94.2362810531275 
! Gamma         0                0                0                0                
! Port Impedance         50               0                50               0                
19.5                           0.0366099455034108 -94.2781339682804 0.99760022880916 -6.9768182257971 0.99760022880916 -6.97681822579707 0.0366099610241676 -94.2776533827659 
! Gamma         0                0                0                0                
! Port Impedance         50               0                50               0                
19.6                           0.036801428087622 -94.3194357108633 0.997587726994116 -7.01230051816229 0.997587726994116 -7.01230051816227 0.0368014436627059 -94.3189526727882 
! Gamma         0                0                0                0                
! Port Impedance         50               0                50               0                
19.7                           0.0369929291280248 -94.3606654291693 0.997575175476439 -7.04778075552388 0.997575175476439 -7.04778075552385 0.0369929447567856 -94.3601799374927 
! Gamma         0                0                0                0                
! Port Impedance         50               0                50               0                
19.8                           0.0371844488109927 -94.4018241223636 0.997562574110365 -7.08325892184267 0.997562574110365 -7.08325892184266 0.0371844644927789 -94.4013361760402 
! Gamma         0                0                0                0                
! Port Impedance         50               0                50               0                
19.9                           0.0373759873224719 -94.4429127747434 0.997549922753494 -7.11873500109817 0.997549922753494 -7.11873500109816 0.0373760030566306 -94.4424223727228 
! Gamma         0                0                0                0                
! Port Impedance         50               0                50               0                
20                             0.0375675448479688 -94.4839323560016 0.997537221266714 -7.1542089772895 0.997537221266714 -7.15420897728949 0.0375675606338459 -94.4834394972292 
! Gamma         0                0                -0               -0               
! Port Impedance         50               0                50               0                
