! Touchstone file exported from HFSS 2026.1.0
!        File:           C:/ffzhzh/LocalFiles/Ansys_Project_Files/temp_train_TSV_5_1782957853_15332.aedt
!        Generated:      10:05:40 AM Jul  2, 2026
!        Design:         TSV
!        Project:        temp_train_TSV_5_1782957853_15332
!
! Variables:
!        h_bsmrdl = 2um
!        h_ox = 20um
!        h_rdl = 5um
!        h_sub = 53.06um
!        h_tmrdl = 5um
!        h_tsv = 53.06um
!        h_via = 3um
!        l_bsmrdl = 300um
!        l_sub = 425.36um
!        l_tmrdl = 200um
!        m_sub = 200um
!        pitch = 47.09um
!        r_tsv = 12.68um
!        s_tmrdl = 10um
!        w_bsmrdl = 18um
!        w_sub = 500um
!        w_tmrdl = 12um
!        x_tsv_center1 = 206um
!        x_tsv_center2 = 524um
!        x_tsv_center3 = 736um
!        x_tsv_center4 = 1054um
!        x_tsv_center5 = 1266um
!        x_tsv_center6 = 1584um
!
# GHz S MA R 50.000000
! Terminal data exported
! Port[1] = TSV1_1_T1
! Port[2] = TSV1_1_T2
0.1                            6.87911367346705E-05 -2.04099536399744 0.999931251208257 -0.0300574113459074 0.999931251208257 -0.0300574113459074 6.87911566220315E-05 -2.04099703032864 
! Gamma         0                0                0                0                
! Port Impedance         50               0                50               0                
0.2                            7.79996557524422E-05 -5.26125990200154 0.999922354379021 -0.0599874785843188 0.999922354379021 -0.0599874785843187 7.7999557981392E-05 -5.26119185886197 
! Gamma         0                0                0                0                
! Port Impedance         50               0                50               0                
0.3                            9.2211749483677E-05 -9.80905866818581 0.999909176961516 -0.0896992305123658 0.999909176961516 -0.0896992305123655 9.22115389152963E-05 -9.80885867647162 
! Gamma         0                0                0                0                
! Port Impedance         50               0                50               0                
0.4                            0.00011032186958703 -15.1236730498063 0.999893518105218 -0.119154550973356 0.999893518105218 -0.119154550973355 0.000110321607413298 -15.1233241754639 
! Gamma         0                0                0                0                
! Port Impedance         50               0                50               0                
0.5                            0.000131347351271537 -20.6013941661847 0.999876997411077 -0.14836157120985 0.999876997411077 -0.148361571209849 0.000131347125499387 -20.6009109553207 
! Gamma         0                0                0                0                
! Port Impedance         50               0                50               0                
0.6                            0.000154491546032154 -25.852118962299 0.999860785637826 -0.17735618879212 0.999860785637826 -0.177356188792119 0.000154491448144647 -25.8515274367214 
! Gamma         0                0                0                0                
! Port Impedance         50               0                50               0                
0.7                            0.000179143878352298 -30.6858649091173 0.999845575883202 -0.206184081801733 0.999845575883202 -0.206184081801731 0.000179143989700649 -30.6851911223349 
! Gamma         0                0                0                0                
! Port Impedance         50               0                50               0                
0.8                            0.000204856324360749 -35.0392753320154 0.999831683534089 -0.234889021719688 0.999831683534089 -0.234889021719686 0.000204856710452448 -35.0385409494132 
! Gamma         0                0                0                0                
! Port Impedance         50               0                50               0                
0.9                            0.000231310973982737 -38.9162962248413 0.999819175447322 -0.263507526731037 0.999819175447322 -0.263507526731036 0.000231311683788489 -38.9155176796346 
! Gamma         0                0                0                0                
! Port Impedance         50               0                50               0                
1                              0.000258287687561252 -42.3519454636374 0.99980797807035 -0.292067664099835 0.99980797807035 -0.292067664099833 0.000258288755356825 -42.3511345316044 
! Gamma         0                0                0                0                
! Port Impedance         50               0                50               0                
1.1                            0.000285636654723226 -45.3926500525051 0.999797951681311 -0.320589882196353 0.999797951681311 -0.320589882196352 0.000285638102820998 -45.3918148120598 
! Gamma         0                0                0                0                
! Port Impedance         50               0                50               0                
1.2                            0.000313257232309029 -48.086383772878 0.999788935205288 -0.34908852238212 0.999788935205288 -0.349088522382119 0.000313259073795038 -48.0855295323444 
! Gamma         0                0                0                0                
! Port Impedance         50               0                50               0                
1.3                            0.000341082545226211 -50.4781441885488 0.999780770440969 -0.377573341079567 0.999780770440969 -0.377573341079565 0.000341084786326678 -50.4772742484392 
! Gamma         0                0                0                0                
! Port Impedance         50               0                50               0                
1.4                            0.000369068665586198 -52.6081970662789 0.999773313517531 -0.406050787346886 0.999773313517531 -0.406050787346885 0.000369071307565882 -52.6073133018609 
! Gamma         0                0                0                0                
! Port Impedance         50               0                50               0                
1.5                            0.000397187160978318 -54.511689233008 0.999766439087994 -0.434524985995485 0.999766439087994 -0.434524985995484 0.000397190201600484 -54.5107925228898 
! Gamma         0                0                0                0                
! Port Impedance         50               0                50               0                
1.6                            0.000425420017489605 -56.2188937235727 0.999760040712105 -0.46299845859537 0.999760040712105 -0.46299845859537 0.000425423452111993 -56.2179842584534 
! Gamma         0                0                0                0                
! Port Impedance         50               0                50               0                
1.7                            0.000453756196603783 -57.7557103791246 0.999754029438556 -0.491472637422065 0.999754029438556 -0.491472637422065 0.000453760018990443 -57.7547878816318 
! Gamma         0                0                0                0                
! Port Impedance         50               0                50               0                
1.8                            0.000482189302091276 -59.1442355076051 0.999748331688508 -0.519948225466384 0.999748331688508 -0.519948225466383 0.000482193505010157 -59.1432993878297 
! Gamma         0                0                0                0                
! Port Impedance         50               0                50               0                
1.9                            0.000510715996904243 -60.403313497125 0.999742887008244 -0.548425445825161 0.999742887008245 -0.548425445825161 0.000510720572566336 -60.4023629622912 
! Gamma         0                0                0                0                
! Port Impedance         50               0                50               0                
2                              0.000539334926452121 -61.5490340644289 0.999737645959331 -0.576904213156052 0.999737645959331 -0.576904213156052 0.000539339866834597 -61.5480681960824 
! Gamma         0                0                0                0                
! Port Impedance         50               0                50               0                
2.1                            0.000568045984535834 -62.5951640791338 0.999732568253972 -0.605384250850712 0.999732568253972 -0.605384250850712 0.000568051281620553 -62.5941818873911 
! Gamma         0                0                0                0                
! Port Impedance         50               0                50               0                
2.2                            0.000596849812115726 -63.5535148534203 0.999727621161255 -0.63386517064741 0.999727621161255 -0.63386517064741 0.000596855458065923 -63.5525153150285 
! Gamma         0                0                0                0                
! Port Impedance         50               0                50               0                
2.3                            0.000625747455128142 -64.4342508997499 0.99972277817115 -0.662346526345218 0.99972277817115 -0.662346526345218 0.000625753442419695 -64.4332329847044 
! Gamma         0                0                0                0                
! Port Impedance         50               0                50               0                
2.4                            0.000654740131591665 -65.2461478476512 0.999718017887196 -0.690827849694058 0.999718017887196 -0.690827849694058 0.000654746453110728 -65.2451105377102 
! Gamma         0                0                0                0                
! Port Impedance         50               0                50               0                
2.5                            0.00068382907427081 -65.9968072597605 0.999713323114497 -0.719308674030752 0.999713323114497 -0.719308674030752 0.000683835723386203 -65.9957495612039 
! Gamma         0                0                0                0                
! Port Impedance         50               0                50               0                
2.6                            0.00071301542588745 -66.6928354192815 0.99970868011088 -0.747788549499049 0.99970868011088 -0.74778854949905 0.000713022396503841 -66.6917563715698 
! Gamma         0                0                0                0                
! Port Impedance         50               0                50               0                
2.7                            0.000742300171076624 -67.3399922414067 0.999704077972586 -0.776267052498609 0.999704077972586 -0.77626705249861 0.000742307457672849 -67.3388909229085 
! Gamma         0                0                0                0                
! Port Impedance         50               0                50               0                
2.8                            0.000771684094153528 -67.9433155154196 0.999699508130067 -0.80474379118756 0.999699508130067 -0.80474379118756 0.000771691691809185 -67.9421910470361 
! Gamma         0                0                0                0                
! Port Impedance         50               0                50               0                
2.9                            0.000801167755070425 -68.5072248126952 0.999694963933538 -0.833218408299096 0.999694963933538 -0.833218408299096 0.000801175659483054 -68.5060763599717 
! Gamma         0                0                0                0                
! Port Impedance         50               0                50               0                
3                              0.000830751478209608 -69.0356086356299 0.999690440311621 -0.861690582143952 0.999690440311621 -0.861690582143953 0.00083075968570418 -69.0344354097755 
! Gamma         0                0                0                0                
! Port Impedance         50               0                50               0                
3.1                            0.000860435350221866 -69.5318977395674 0.999685933489508 -0.890160026402471 0.999685933489508 -0.890160026402472 0.000860443857753878 -69.5306989976832 
! Gamma         0                0                0                0                
! Port Impedance         50               0                50               0                
3.2                            0.000890219224205659 -69.9991270258447 0.999681440755669 -0.918626489124472 0.999681440755669 -0.918626489124473 0.000890228029358849 -69.9979020705805 
! Gamma         0                0                0                0                
! Port Impedance         50               0                50               0                
3.3                            0.00092010272828209 -70.4399879655799 0.999676960268268 -0.947089751226523 0.999676960268268 -0.947089751226524 0.000920111829261586 -70.4387361443743 
! Gamma         0                0                0                0                
! Port Impedance         50               0                50               0                
3.4                            0.0009500852771568 -70.8568731560588 0.999672490894125 -0.975549624686829 0.999672490894125 -0.97554962468683 0.000950094672778365 -70.8555938600801 
! Gamma         0                0                0                0                
! Port Impedance         50               0                50               0                
3.5                            0.000980166085641145 -71.2519143207644 0.999668032074475 -1.00400595057566 0.999668032074475 -1.00400595057566 0.000980175775317071 -71.2506069836355 
! Gamma         0                0                0                0                
! Port Impedance         50               0                50               0                
3.6                            0.00101034418337856 -71.6270148280908 0.999663583712847 -1.03245859701585 0.999663583712847 -1.03245859701585 0.00101035416710071 -71.6256789244605 
! Gamma         0                0                0                0                
! Port Impedance         50               0                50               0                
3.7                            0.00104061843022002 -71.9838776123156 0.999659146081281 -1.06090745713745 0.999659146081281 -1.06090745713746 0.00104062870854044 -71.9825126563239 
! Gamma         0                0                0                0                
! Port Impedance         50               0                50               0                
3.8                            0.00107098753183726 -72.3240292249719 0.999654719741814 -1.08935244706961 0.999654719741814 -1.08935244706961 0.00107099810584673 -72.3226347686444 
! Gamma         0                0                0                0                
! Port Impedance         50               0                50               0                
3.9                            0.00110145005526918 -72.6488406183946 0.999650305480699 -1.11779350399754 0.999650305480699 -1.11779350399754 0.00110146092657409 -72.6474162499923 
! Gamma         0                0                0                0                
! Port Impedance         50               0                50               0                
4                              0.00113200444417659 -72.9595451602933 0.999645904253318 -1.14623058430263 0.999645904253318 -1.14623058430263 0.00113201561487444 -72.9580905026401 
! Gamma         0                0                0                0                
! Port Impedance         50               0                50               0                
4.1                            0.00116264903364033 -73.2572542941883 0.999641517138077 -1.17466366179593 0.999641517138077 -1.17466366179593 0.00116266050629414 -73.255769002992 
! Gamma         0                0                0                0                
! Port Impedance         50               0                50               0                
4.2                            0.00119338206438363 -73.5429711917853 0.999637145297872 -1.20309272605065 0.999637145297872 -1.20309272605065 0.00119339384199558 -73.5414549539647 
! Gamma         0                0                0                0                
! Port Impedance         50               0                50               0                
4.3                            0.0012242016963343 -73.8176026869408 0.999632789947987 -1.2315177808358 0.999632789947987 -1.2315177808358 0.00122421378231879 -73.8160552189705 
! Gamma         0                0                0                0                
! Port Impedance         50               0                50               0                
4.4                            0.00125510602146996 -74.0819697344385 0.99962845232941 -1.2599388426505 0.99962845232941 -1.2599388426505 0.00125511841962635 -74.0803907807185 
! Gamma         0                0                0                0                
! Port Impedance         50               0                50               0                
4.5                            0.00128609307591027 -74.3368165984695 0.99962413368679 -1.28835593935708 0.99962413368679 -1.28835593935708 0.00128610579039555 -74.3352059297279 
! Gamma         0                0                0                0                
! Port Impedance         50               0                50               0                
4.6                            0.00131716085123709 -74.5828189439858 0.999619835250319 -1.31676910891013 0.999619835250319 -1.31676910891013 0.00131717388653856 -74.5811763557191 
! Gamma         0                0                0                0                
! Port Impedance         50               0                50               0                
4.7                            0.00134830730503641 -74.8205909777484 0.999615558220974 -1.34517839817762 0.999615558220974 -1.34517839817762 0.00134832066594467 -74.8189162887044 
! Gamma         0                0                0                0                
! Port Impedance         50               0                50               0                
4.8                            0.00137953037066635 -75.0506917639484 0.999611303758623 -1.37358386185022 0.999611303758623 -1.37358386185022 0.00137954406224866 -75.0489848146554 
! Gamma         0                0                0                0                
! Port Impedance         50               0                50               0                
4.9                            0.00141082796626364 -75.2736308209468 0.999607072972569 -1.4019855614344 0.999607072972569 -1.4019855614344 0.00141084199383785 -75.2718914722921 
! Gamma         0                0                0                0                
! Port Impedance         50               0                50               0                
5                              0.00144219800300728 -75.4898730903103 0.999602866914187 -1.430383564325  0.999602866914187 -1.430383564325  0.00144221237211633 -75.4881012221693 
! Gamma         0                0                0                0                
! Port Impedance         50               0                50               0                
5.1                            0.00147363839266305 -75.6998433564054 0.999598686571324 -1.45877794295277 0.999598686571324 -1.45877794295277 0.00147365310905035 -75.6980388663247 
! Gamma         0                0                0                0                
! Port Impedance         50               0                50               0                
5.2                            0.0015051470544364 -75.9039301839207 0.999594532864228 -1.48716877400267 0.999594532864228 -1.48716877400267 0.0015051621240219 -75.9020929858546 
! Gamma         0                0                0                0                
! Port Impedance         50               0                50               0                
5.3                            0.00153672192116368 -76.1024894314739 0.999590406642747 -1.51555613769854 0.999590406642747 -1.51555613769854 0.00153673735002094 -76.1006194545758 
! Gamma         0                0                0                0                
! Port Impedance         50               0                50               0                
5.4                            0.00156836094487405 -76.2958473916452 0.999586308684625 -1.54394011715012 0.999586308684625 -1.54394011715012 0.00156837673920824 -76.2939445791146 
! Gamma         0                0                0                0                
! Port Impedance         50               0                50               0                
5.5                            0.00160006210175522 -76.4843036011312 0.999582239694713 -1.57232079775844 0.999582239694713 -1.57232079775844 0.00160007826788212 -76.482367909115 
! Gamma         0                0                0                0                
! Port Impedance         50               0                50               0                
5.6                            0.00163182339655741 -76.6681333590373 0.999578200304948 -1.60069826667564 0.999578200304948 -1.60069826667563 0.00163183994088343 -76.6661647555865 
! Gamma         0                0                0                0                
! Port Impedance         50               0                50               0                
5.7                            0.00166364286646952 -76.8475899864723 0.999574191074978 -1.62907261231569 0.999574191074978 -1.62907261231569 0.00166365979547278 -76.8455884505524 
! Gamma         0                0                0                0                
! Port Impedance         50               0                50               0                
5.8                            0.00169551858450198 -77.0229068564435 0.999570212493318 -1.65744392391252 0.999570212493318 -1.65744392391252 0.00169553590471446 -77.0208723769977 
! Gamma         0                0                0                0                
! Port Impedance         50               0                50               0                
5.9                            0.00172744866240984 -77.1942992194616 0.999566264978944 -1.68581229112206 0.999566264978944 -1.68581229112206 0.00172746638040057 -77.1922317945267 
! Gamma         0                0                0                0                
! Port Impedance         50               0                50               0                
6                              0.00175943125318917 -77.3619658471767 0.999562348883238 -1.71417780366526 0.999562348883238 -1.71417780366526 0.00175944937554852 -77.3598654830493 
! Gamma         0                0                0                0                
! Port Impedance         50               0                50               0                
6.1                            0.00179146455317875 -77.5260905136847 0.999558464492215 -1.74254055100892 0.999558464492215 -1.74254055100892 0.0017914830865037 -77.5239572241369 
! Gamma         0                0                0                0                
! Port Impedance         50               0                50               0                
6.2                            0.00182354680379808 -77.6868433318277 0.999554612028968 -1.77090062208152 0.999554612028968 -1.77090062208152 0.00182356575467857 -77.6846771373704 
! Gamma         0                0                0                0                
! Port Impedance         50               0                50               0                
6.3                            0.00185567629295138 -77.8443819597903 0.999550791656283 -1.79925810502149 0.999550791656283 -1.79925810502149 0.00185569566795766 -77.8421828869828 
! Gamma         0                0                0                0                
! Port Impedance         50               0                50               0                
6.4                            0.00188785135612607 -77.9988526915378 0.999547003479371 -1.8276130869552 0.999547003479371 -1.8276130869552 0.001887871161797 -77.9966207723423 
! Gamma         0                0                0                0                
! Port Impedance         50               0                50               0                
6.5                            0.00192007037721262 -78.1503914431065 0.999543247548676 -1.85596565380245 0.999543247548676 -1.85596565380245 0.00192009062004494 -78.148126714284 
! Gamma         0                0                0                0                
! Port Impedance         50               0                50               0                
6.6                            0.00195233178907153 -78.299124645409 0.999539523862735 -1.88431589010714 0.999539523862735 -1.88431589010714 0.00195235247551001 -78.2968271479576 
! Gamma         0                0                0                0                
! Port Impedance         50               0                50               0                
6.7                            0.00198463407387148 -78.4451700530428 0.999535832371056 -1.91266387889102 0.999535832371056 -1.91266387889102 0.00198465521030003 -78.4428398316741 
! Gamma         0                0                0                0                
! Port Impedance         50               0                50               0                
6.8                            0.00201697576322146 -78.5886374775486 0.999532172976984 -1.94100970152865 0.999532172976984 -1.94100970152864 0.00201699735595495 -78.5862745802015 
! Gamma         0                0                0                0                
! Port Impedance         50               0                50               0                
6.9                            0.00204935543811804 -78.7296294526559 0.999528545540541 -1.96935343764151 0.999528545540541 -1.96935343764151 0.00204937749339504 -78.7272339300462 
! Gamma         0                0                0                0                
! Port Impedance         50               0                50               0                
7                              0.00208177172872777 -78.868241838245 0.999524949881227 -1.99769516500987 0.999524949881227 -1.99769516500987 0.00208179425270401 -78.8658137434479 
! Gamma         0                0                0                0                
! Port Impedance         50               0                50               0                
7.1                            0.00211422331402317 -79.0045643690437 0.999521385780756 -2.02603495950052 0.999521385780756 -2.02603495950052 0.00211424631276568 -79.0021037571092 
! Gamma         0                0                0                0                
! Port Impedance         50               0                50               0                
7.2                            0.00214670892128939 -79.1386811534466 0.999517852985727 -2.05437289500898 0.999517852985727 -2.05437289500898 0.0021467324007714 -79.1361880810434 
! Gamma         0                0                0                0                
! Port Impedance         50               0                50               0                
7.3                            0.00217922732551758 -79.2706711272832 0.999514351210214 -2.08270904341492 0.999514351210214 -2.08270904341492 0.00217925129161401 -79.2681456523731 
! Gamma         0                0                0                0                
! Port Impedance         50               0                50               0                
7.4                            0.0022117773486995 -79.4006084668695 0.999510880138271 -2.11104347454927 0.999510880138271 -2.11104347454927 0.00221180180718309 -79.3980506484066 
! Gamma         0                0                0                0                
! Port Impedance         50               0                50               0                
7.5                            0.00224435785903684 -79.5285629652293 0.999507439426343 -2.1393762561721 0.999507439426343 -2.1393762561721 0.00224438281557482 -79.5259728628854 
! Gamma         0                0                0                0                
! Port Impedance         50               0                50               0                
7.6                            0.00227696777007773 -79.6546003749833 0.999504028705588 -2.16770745395991 0.999504028705588 -2.16770745395991 0.00227699323022903 -79.651978048897 
! Gamma         0                0                0                0                
! Port Impedance         50               0                50               0                
7.7                            0.00230960603979158 -79.7787827210508 0.999500647584094 -2.19603713150151 0.999500647584094 -2.19603713150151 0.00230963200900454 -79.776128231598 
! Gamma         0                0                0                0                
! Port Impedance         50               0                50               0                
7.8                            0.00234227166959269 -79.901168585995 0.999497295648998 -2.2243653503015 0.999497295648998 -2.2243653503015 0.00234229815320325 -79.8984819935809 
! Gamma         0                0                0                0                
! Port Impedance         50               0                50               0                
7.9                            0.00237496370332194 -80.0218133705641 0.999493972468512 -2.25269216979041 0.999493972468512 -2.25269216979041 0.00237499070655221 -80.0190947354343 
! Gamma         0                0                0                0                
! Port Impedance         50               0                50               0                
8                              0.00240768122619505 -80.1407695317289 0.999490677593837 -2.28101764734084 0.999490677593837 -2.28101764734084 0.0024077087541523 -80.1380189137982 
! Gamma         0                0                0                0                
! Port Impedance         50               0                50               0                
8.1                            0.0024404233637251 -80.2580868002924 0.999487410560985 -2.30934183828876 0.999487410560985 -2.30934183828876 0.00244045142140114 -80.2553042589911 
! Gamma         0                0                0                0                
! Port Impedance         50               0                50               0                
8.2                            0.00247318928062622 -80.3738123799467 0.999484170892507 -2.33766479595942 0.999484170892507 -2.33766479595942 0.00247321787289705 -80.370997974082 
! Gamma         0                0                0                0                
! Port Impedance         50               0                50               0                
8.3                            0.00250597817970464 -80.4879911294711 0.999480958099116 -2.36598657169715 0.999480958099116 -2.36598657169715 0.00250600731133048 -80.4851449171031 
! Gamma         0                0                0                0                
! Port Impedance         50               0                50               0                
8.4                            0.00253878930074265 -80.6006657296017 0.999477771681221 -2.39430721489857 0.999477771681221 -2.39430721489857 0.00253881897636819 -80.5977877679332 
! Gamma         0                0                0                0                
! Port Impedance         50               0                50               0                
8.5                            0.00257162191938041 -80.7118768359595 0.999474611130374 -2.4226267730487 0.999474611130374 -2.4226267730487 0.00257165214353536 -80.7089671812383 
! Gamma         0                0                0                0                
! Port Impedance         50               0                50               0                
8.6                            0.00260447534600001 -80.8216632192894 0.999471475930619 -2.45094529175952 0.999471475930619 -2.45094529175952 0.00260450612309985 -80.8187219267216 
! Gamma         0                0                0                0                
! Port Impedance         50               0                50               0                
8.7                            0.00263734892461557 -80.9300618941465 0.999468365559765 -2.47926281481047 0.999468365559765 -2.47926281481047 0.00263738025896254 -80.9270890178209 
! Gamma         0                0                0                0                
! Port Impedance         50               0                50               0                
8.8                            0.00267024203177288 -81.0371082370579 0.999465279490574 -2.50757938419074 0.999465279490574 -2.50757938419074 0.00267027392755708 -81.0341038298804 
! Gamma         0                0                0                0                
! Port Impedance         50               0                50               0                
8.9                            0.0027031540754614 -81.1428360950939 0.999462217191867 -2.53589504014271 0.999462217191867 -2.53589504014271 0.0027031865367622 -81.1398002087303 
! Gamma         0                0                0                0                
! Port Impedance         50               0                50               0                
9                              0.00273608449404137 -81.2472778856924 0.999459178129559 -2.56420982120652 0.999459178129559 -2.56420982120652 0.00273611752482883 -81.2442105705207 
! Gamma         0                0                0                0                
! Port Impedance         50               0                50               0                
9.1                            0.00276903275518803 -81.3504646885071 0.999456161767617 -2.59252376426533 0.999456161767617 -2.59252376426533 0.00276906635932452 -81.3473659935756 
! Gamma         0                0                0                0                
! Port Impedance         50               0                50               0                
9.2                            0.00280199835485499 -81.452426329973 0.999453167568957 -2.62083690459105 0.999453167568957 -2.62083690459105 0.00280203253609692 -81.4492963029673 
! Gamma         0                0                0                0                
! Port Impedance         50               0                50               0                
9.3                            0.00283498081625823 -81.5531914612244 0.999450194996265 -2.64914927589038 0.999450194996265 -2.64914927589038 0.0028350155782579 -81.5500301484398 
! Gamma         0                0                0                0                
! Port Impedance         50               0                50               0                
9.4                            0.00286797968888213 -81.6527876299401 0.999447243512763 -2.6774609103509 0.999447243512763 -2.6774609103509 0.00286801503518962 -81.6495950762596 
! Gamma         0                0                0                0                
! Port Impedance         50               0                50               0                
9.5                            0.00290099454750851 -81.7512413466365 0.999444312582915 -2.70577183868712 0.999444312582915 -2.70577183868712 0.00290103048157368 -81.7480175955151 
! Gamma         0                0                0                0                
! Port Impedance         50               0                50               0                
9.6                            0.00293402499126961 -81.8485781458872 0.99944140167307 -2.73408209018623 0.99944140167307 -2.73408209018623 0.00293406151644416 -81.8453232393399 
! Gamma         0                0                0                0                
! Port Impedance         50               0                50               0                
9.7                            0.00296707064272563 -81.9448226428976 0.999438510252065 -2.76239169275348 0.999438510252065 -2.76239169275348 0.00296710776226521 -81.941536621493 
! Gamma         0                0                0                0                
! Port Impedance         50               0                50               0                
9.8                            0.00300013114696734 -82.0399985858317 0.999435637791762 -2.79070067295716 0.999435637791762 -2.79070067295716 0.00300016886403372 -82.0366814886882 
! Gamma         0                0                0                0                
! Port Impedance         50               0                50               0                
9.9                            0.00303320617074408 -82.1341289042461 0.999432783767553 -2.81900905607285 0.999432783767553 -2.81900905607285 0.00303324448840732 -82.1307807690329 
! Gamma         0                0                0                0                
! Port Impedance         50               0                50               0                
10                             0.00306629540161735 -82.2272357539598 0.999429947658809 -2.8473168661271 0.999429947658809 -2.8473168661271 0.00306633432285801 -82.2238566169004 
! Gamma         0                0                0                0                
! Port Impedance         50               0                50               0                
10.1                           0.00309939854714001 -82.3193405586554 0.999427128949292 -2.87562412594033 0.999427128949292 -2.87562412594033 0.00309943807485138 -82.3159304545343 
! Gamma         0                0                0                0                
! Port Impedance         50               0                50               0                
10.2                           0.00313251533406116 -82.4104640484842 0.999424327127529 -2.90393085716891 0.999424327127529 -2.90393085716891 0.00313255547105153 -82.407023010656 
! Gamma         0                0                0                0                
! Port Impedance         50               0                50               0                
10.3                           0.00316564550755649 -82.5006262959205 0.999421541687144 -2.93223708034635 0.999421541687144 -2.93223708034635 0.00316568625655135 -82.4971543563215 
! Gamma         0                0                0                0                
! Port Impedance         50               0                50               0                
10.4                           0.00319878883048384 -82.5898467490921 0.999418772127162 -2.96054281492367 0.999418772127162 -2.96054281492367 0.00319883019412819 -82.5863439382539 
! Gamma         0                0                0                0                
! Port Impedance         50               0                50               0                
10.5                           0.00323194508266386 -82.6781442627913 0.999416017952274 -2.9888480793087 0.999416017952274 -2.9888480793087 0.00323198706352438 -82.6746106098561 
! Gamma         0                0                0                0                
! Port Impedance         50               0                50               0                
10.6                           0.00326511406018521 -82.7655371273552 0.999413278673076 -3.01715289090455 0.999413278673076 -3.01715289090455 0.00326515666075254 -82.7619726600926 
! Gamma         0                0                0                0                
! Port Impedance         50               0                50               0                
10.7                           0.00329829557473404 -82.8520430955858 0.999410553806279 -3.04545726614694 0.999410553806279 -3.04545726614694 0.00329833879742497 -82.8484478404115 
! Gamma         0                0                0                0                
! Port Impedance         50               0                50               0                
10.8                           0.00333148945294729 -82.9376794078672 0.999407842874893 -3.07376122054067 0.999407842874893 -3.07376122054067 0.00333153330010696 -82.9340533898621 
! Gamma         0                0                0                0                
! Port Impedance         50               0                50               0                
10.9                           0.00336469553578927 -83.0224628156226 0.999405145408383 -3.102064768695  0.999405145408383 -3.102064768695  0.00336474000969334 -83.0188060585537 
! Gamma         0                0                0                0                
! Port Impedance         50               0                50               0                
11                             0.00339791367795106 -83.1064096032421 0.999402460942807 -3.13036792435799 0.999402460942807 -3.130367924358  0.00339795878080786 -83.1027221295838 
! Gamma         0                0                0                0                
! Port Impedance         50               0                50               0                
11.1                           0.00343114374727216 -83.189535608601 0.999399789020931 -3.1586707004499 0.999399789020931 -3.1586707004499 0.00343118948122482 -83.1858174395572 
! Gamma         0                0                0                0                
! Port Impedance         50               0                50               0                
11.2                           0.0034643856241839 -83.2718562422778 0.999397129192323 -3.18697310909549 0.999397129192323 -3.18697310909549 0.00346443199131243 -83.2681073978047 
! Gamma         0                0                0                0                
! Port Impedance         50               0                50               0                
11.3                           0.00349763920117393 -83.3533865055729 0.99939448101343 -3.21527516165538 0.999394481013429 -3.21527516165538 0.00349768620349727 -83.3496070044023 
! Gamma         0                0                0                0                
! Port Impedance         50               0                50               0                
11.4                           0.0035309043822713 -83.4341410074186 0.999391844047636 -3.2435768687564 0.999391844047636 -3.2435768687564 0.00353095202174937 -83.4303308670815 
! Gamma         0                0                0                0                
! Port Impedance         50               0                50               0                
11.5                           0.0035641810825515 -83.5141339802655 0.999389217865311 -3.2718782403209 0.999389217865311 -3.27187824032091 0.00356422936108716 -83.510293217116 
! Gamma         0                0                0                0                
! Port Impedance         50               0                50               0                
11.6                           0.00359746922766086 -83.593379295022 0.999386602043838 -3.30017928559518 0.999386602043838 -3.30017928559518 0.00359751814710189 -83.5895079242614 
! Gamma         0                0                0                0                
! Port Impedance         50               0                50               0                
11.7                           0.00363076875335978 -83.6718904751173 0.999383996167631 -3.32848001317685 0.999383996167631 -3.32848001317685 0.00363081831550077 -83.6679885108182 
! Gamma         0                0                0                0                
! Port Impedance         50               0                50               0                
11.8                           0.00366407960508408 -83.7496807097531 0.999381399828137 -3.35678043104137 0.999381399828137 -3.35678043104137 0.00366412981166831 -83.7457481648839 
! Gamma         0                0                0                0                
! Port Impedance         50               0                50               0                
11.9                           0.00369740173752395 -83.8267628664031 0.999378812623833 -3.38508054656759 0.999378812623833 -3.38508054656759 0.00369745259024529 -83.8227997528519 
! Gamma         0                0                0                0                
! Port Impedance         50               0                50               0                
12                             0.00373073511422003 -83.9031495026153 0.99937623416021 -3.41338036656243 0.99937623416021 -3.41338036656243 0.00373078661472464 -83.8991558312143 
! Gamma         0                0                0                0                
! Port Impedance         50               0                50               0                
12.1                           0.00376407970717572 -83.9788528771667 0.999373664049741 -3.44167989728465 0.999373664049741 -3.44167989728465 0.0037641318570639 -83.974828657716 
! Gamma         0                0                0                0                
! Port Impedance         50               0                50               0                
12.2                           0.00379743549648559 -84.0538849606168 0.999371101911855 -3.46997914446777 0.999371101911855 -3.46997914446777 0.00379748829731345 -84.0498302019085 
! Gamma         0                0                0                0                
! Port Impedance         50               0                50               0                
12.3                           0.00383080246997889 -84.1282574453029 0.999368547372889 -3.49827811334219 0.999368547372889 -3.49827811334219 0.00383085592326005 -84.1241721551444 
! Gamma         0                0                0                0                
! Port Impedance         50               0                50               0                
12.4                           0.00386418062287798 -84.201981754814 0.99936600006604 -3.52657680865645 0.99936600006604 -3.52657680865646 0.00386423473008521 -84.1978659400516 
! Gamma         0                0                0                0                
! Port Impedance         50               0                50               0                
12.5                           0.00389756995747088 -84.2750690529823 0.999363459631312 -3.55487523469774 0.999363459631312 -3.55487523469774 0.00389762472003773 -84.270922719524 
! Gamma         0                0                0                0                
! Port Impedance         50               0                50               0                
12.6                           0.00393097048279763 -84.3475302524225 0.999360925715451 -3.58317339531156 0.99936092571545 -3.58317339531156 0.00393102590211995 -84.3433534052609 
! Gamma         0                0                0                0                
! Port Impedance         50               0                50               0                
12.7                           0.00396438221434969 -84.4193760226504 0.999358397971881 -3.61147129392076 0.999358397971881 -3.61147129392076 0.00396443829178717 -84.4151686658852 
! Gamma         0                0                0                0                
! Port Impedance         50               0                50               0                
12.8                           0.0039978051737822 -84.49061679781  0.999355876060634 -3.63976893354374 0.999355876060634 -3.63976893354374 0.00399786191065989 -84.4863789346698 
! Gamma         0                0                0                0                
! Port Impedance         50               0                50               0                
12.9                           0.00403123938863835 -84.5612627840321 0.999353359648274 -3.66806631681203 0.999353359648274 -3.66806631681203 0.00403129678624806 -84.5569944168963 
! Gamma         0                0                0                0                
! Port Impedance         50               0                50               0                
13                             0.00406468489208548 -84.631323966451 0.999350848407817 -3.69636344598713 0.999350848407817 -3.69636344598713 0.00406474295168723 -84.6270250968709 
! Gamma         0                0                0                0                
! Port Impedance         50               0                50               0                
13.1                           0.00409814172266252 -84.7008101159004 0.999348342018653 -3.72466032297674 0.999348342018653 -3.72466032297674 0.00409820044548592 -84.6964807446201 
! Gamma         0                0                0                0                
! Port Impedance         50               0                50               0                
13.2                           0.00413160992403828 -84.7697307953074 0.999345840166456 -3.7529569493503 0.999345840166456 -3.75295694935031 0.00413166931128381 -84.7653709222843 
! Gamma         0                0                0                0                
! Port Impedance         50               0                50               0                
13.3                           0.00416508954478003 -84.8380953658059 0.999343342543103 -3.78125332635402 0.999343342543103 -3.78125332635402 0.00416514959762041 -84.8337049902307 
! Gamma         0                0                0                0                
! Port Impedance         50               0                50               0                
13.4                           0.00419858063813222 -84.905912992585 0.999340848846582 -3.80954945492516 0.999340848846582 -3.80954945492516 0.00419864135771367 -84.9014921129012 
! Gamma         0                0                0                0                
! Port Impedance         50               0                50               0                
13.5                           0.00423208326180475 -84.9731926504884 0.999338358780901 -3.83784533570589 0.999338358780901 -3.83784533570589 0.00423214464924818 -84.9687412644116 
! Gamma         0                0                0                0                
! Port Impedance         50               0                50               0                
13.6                           0.00426559747777037 -85.0399431293814 0.999335872055998 -3.86614096905651 0.999335872055998 -3.86614096905651 0.00426565953417262 -85.035461233918 
! Gamma         0                0                0                0                
! Port Impedance         50               0                50               0                
13.7                           0.00429912335207102 -85.1061730392972 0.999333388387645 -3.89443635506814 0.999333388387645 -3.89443635506814 0.00429918607850602 -85.1016606307624 
! Gamma         0                0                0                0                
! Port Impedance         50               0                50               0                
13.8                           0.00433266095463258 -85.1718908153762 0.999330907497358 -3.92273149357496 0.999330907497358 -3.92273149357496 0.00433272435215248 -85.1673478894124 
! Gamma         0                0                0                0                
! Port Impedance         50               0                50               0                
13.9                           0.00436621035908776 -85.2371047226112 0.999328429112296 -3.95102638416584 0.999328429112296 -3.95102638416585 0.00436627442872403 -85.2325312742048 
! Gamma         0                0                0                0                
! Port Impedance         50               0                50               0                
14                             0.00439977164260678 -85.301822860407 0.999325952965174 -3.97932102619566 0.999325952965174 -3.97932102619566 0.00439983638537129 -85.2972188839058 
! Gamma         0                0                0                0                
! Port Impedance         50               0                50               0                
14.1                           0.00443334488573549 -85.3660531669673 0.99932347879416 -4.00761541879596 0.99932347879416 -4.00761541879596 0.00443341030262156 -85.3614186560969 
! Gamma         0                0                0                0                
! Port Impedance         50               0                50               0                
14.2                           0.00446693017224069 -85.4298034235167 0.999321006342781 -4.03590956088535 0.999321006342781 -4.03590956088536 0.00446699626422411 -85.4251383713963 
! Gamma         0                0                0                0                
! Port Impedance         50               0                50               0                
14.3                           0.00450052758896228 -85.493081258367 0.999318535359833 -4.06420345117937 0.999318535359833 -4.06420345117937 0.00450059435700224 -85.4883856575257 
! Gamma         0                0                0                0                
! Port Impedance         50               0                50               0                
14.4                           0.00453413722567194 -85.5558941508369 0.999316065599277 -4.09249708819996 0.999316065599277 -4.09249708819997 0.00453420467071206 -85.5511679932283 
! Gamma         0                0                0                0                
! Port Impedance         50               0                50               0                
14.5                           0.00456775917493813 -85.618249435031 0.999313596820153 -4.12079047028459 0.999313596820152 -4.1207904702846 0.00456782729790735 -85.6134927120486 
! Gamma         0                0                0                0                
! Port Impedance         50               0                50               0                
14.6                           0.00460139353199717 -85.6801543034874 0.999311128786476 -4.14908359559494 0.999311128786476 -4.14908359559494 0.00460146233381067 -85.6753670059786 
! Gamma         0                0                0                0                
! Port Impedance         50               0                50               0                
14.7                           0.00463504039462997 -85.7416158106989 0.99930866126715 -4.17737646212525 0.99930866126715 -4.17737646212525 0.00463510987619005 -85.7367979289792 
! Gamma         0                0                0                0                
! Port Impedance         50               0                50               0                
14.8                           0.00466869986304437 -85.8026408765146 0.999306194035873 -4.20566906771035 0.999306194035873 -4.20566906771035 0.00466877002524128 -85.7977924003812 
! Gamma         0                0                0                0                
! Port Impedance         50               0                50               0                
14.9                           0.00470237203976275 -85.8632362894279 0.999303726871041 -4.23396141003328 0.999303726871041 -4.23396141003329 0.00470244288347554 -85.8583572081732 
! Gamma         0                0                0                0                
! Port Impedance         50               0                50               0                
15                             0.00473605702951467 -85.9234087097566 0.99930125955566 -4.26225348663268 0.99930125955566 -4.26225348663268 0.004736128555612 -85.9184990121806 
! Gamma         0                0                0                0                
! Port Impedance         50               0                50               0                
15.1                           0.00476975493913438 -85.983164672719 0.999298791877254 -4.29054529490976 0.999298791877254 -4.29054529490976 0.00476982714847529 -85.978224347142 
! Gamma         0                0                0                0                
! Port Impedance         50               0                50               0                
15.2                           0.00480346587746296 -86.042510591412 0.999296323627777 -4.31883683213508 0.999296323627777 -4.31883683213508 0.00480353877089765 -86.0375396256868 
! Gamma         0                0                0                0                
! Port Impedance         50               0                50               0                
15.3                           0.0048371899552549 -86.1014527596957 0.99929385460352 -4.34712809545497 0.99929385460352 -4.34712809545497 0.00483726353362544 -86.0964511412193 
! Gamma         0                0                0                0                
! Port Impedance         50               0                50               0                
15.4                           0.00487092728508891 -86.1599973549875 0.999291384605031 -4.37541908189772 0.999291384605031 -4.37541908189772 0.00487100154922999 -86.1549650707124 
! Gamma         0                0                0                0                
! Port Impedance         50               0                50               0                
15.5                           0.00490467798128282 -86.2181504409708 0.99928891343702 -4.40370978837946 0.99928891343702 -4.40370978837946 0.00490475293202243 -86.2130874774161 
! Gamma         0                0                0                0                
! Port Impedance         50               0                50               0                
15.6                           0.0049384421598123 -86.2759179702216 0.999286440908282 -4.43200021170986 0.999286440908281 -4.43200021170986 0.00493851779797243 -86.2708243134839 
! Gamma         0                0                0                0                
! Port Impedance         50               0                50               0                
15.7                           0.0049722199382334 -86.3333057867568 0.999283966831606 -4.46029034859748 0.999283966831606 -4.46029034859748 0.00497229626463067 -86.3281814225202 
! Gamma         0                0                0                0                
! Port Impedance         50               0                50               0                
15.8                           0.00500601143560854 -86.3903196285065 0.999281491023699 -4.48858019565501 0.999281491023699 -4.48858019565501 0.00500608845105488 -86.3851645420533 
! Gamma         0                0                0                0                
! Port Impedance         50               0                50               0                
15.9                           0.005039816772436 -86.446965129715 0.999279013305099 -4.51686974940419 0.999279013305099 -4.51686974940419 0.00503989447773924 -86.4417793059347 
! Gamma         0                0                0                0                
! Port Impedance         50               0                50               0                
16                             0.00507363607058254 -86.5032478232716 0.999276533500099 -4.54515900628056 0.999276533500099 -4.54515900628056 0.00507371446654703 -86.4980312466709 
! Gamma         0                0                0                0                
! Port Impedance         50               0                50               0                
16.1                           0.00510746945321927 -86.559173142976 0.999274051436665 -4.573447962638  0.999274051436665 -4.57344796263801 0.00510754854064648 -86.5539257976879 
! Gamma         0                0                0                0                
! Port Impedance         50               0                50               0                
16.2                           0.0051413170447604 -86.6147464257385 0.999271566946361 -4.60173661475308 0.999271566946361 -4.60173661475308 0.00514139682444949 -86.6094682955309 
! Gamma         0                0                0                0                
! Port Impedance         50               0                50               0                
16.3                           0.00517517897080486 -86.6699729137201 0.999269079864272 -4.63002495882919 0.999269079864272 -4.63002495882919 0.00517525944355324 -86.6646639820045 
! Gamma         0                0                0                0                
! Port Impedance         50               0                50               0                
16.4                           0.00520905535808065 -86.7248577564122 0.999266590028931 -4.6583129910005 0.999266590028931 -4.65831299100051 0.00520913652468451 -86.7195180062522 
! Gamma         0                0                0                0                
! Port Impedance         50               0                50               0                
16.5                           0.00524294633439178 -86.7794060126606 0.99926409728224 -4.68660070733582 0.99926409728224 -4.68660070733582 0.00524302819564666 -86.7740354267797 
! Gamma         0                0                0                0                
! Port Impedance         50               0                50               0                
16.6                           0.00527685202856774 -86.8336226526339 0.999261601469406 -4.71488810384215 0.999261601469406 -4.71488810384215 0.00527693458526901 -86.8282212134235 
! Gamma         0                0                0                0                
! Port Impedance         50               0                50               0                
16.7                           0.00531077257041528 -86.8875125597394 0.999259102438864 -4.7431751764682 0.999259102438863 -4.7431751764682 0.00531085582335864 -86.8820802492661 
! Gamma         0                0                0                0                
! Port Impedance         50               0                50               0                
16.8                           0.00534470809067249 -86.941080532488 0.999256600042209 -4.77146192110769 0.999256600042208 -4.77146192110769 0.0053447920406545 -86.935617332501 
! Gamma         0                0                0                0                
! Port Impedance         50               0                50               0                
16.9                           0.00537865872096512 -86.9943312863099 0.99925409413413 -4.79974833360253 0.99925409413413 -4.79974833360253 0.00537874336878363 -86.9888371782481 
! Gamma         0                0                0                0                
! Port Impedance         50               0                50               0                
17                             0.00541262459376487 -87.0472694553233 0.999251584572342 -4.82803440974584 0.999251584572342 -4.82803440974584 0.00541270994021951 -87.041744420322 
! Gamma         0                0                0                0                
! Port Impedance         50               0                50               0                
17.1                           0.00544660584234975 -87.0998995940564 0.99924907121752 -4.85632014528487 0.99924907121752 -4.85632014528487 0.00544669188824239 -87.094343612954 
! Gamma         0                0                0                0                
! Port Impedance         50               0                50               0                
17.2                           0.00548060260076631 -87.1522261791265 0.999246553933235 -4.88460553592372 0.999246553933235 -4.88460553592372 0.00548068934690148 -87.1466392324707 
! Gamma         0                0                0                0                
! Port Impedance         50               0                50               0                
17.3                           0.00551461500379371 -87.2042536108747 0.999244032585892 -4.91289057732604 0.999244032585892 -4.91289057732605 0.00551470245097905 -87.198635678929 
! Gamma         0                0                0                0                
! Port Impedance         50               0                50               0                
17.4                           0.00554864318690945 -87.2559862149608 0.999241507044668 -4.94117526511753 0.999241507044668 -4.94117526511753 0.00554873133595614 -87.2503372777099 
! Gamma         0                0                0                0                
! Port Impedance         50               0                50               0                
17.5                           0.00558268728625692 -87.3074282439168 0.99923897718145 -4.96945959488834 0.99923897718145 -4.96945959488835 0.00558277613798005 -87.301748281073 
! Gamma         0                0                0                0                
! Port Impedance         50               0                50               0                
17.6                           0.00561674743861435 -87.358583878663 0.99923644287078 -4.9977435621954 0.99923644287078 -4.9977435621954 0.00561683699383336 -87.3528728696711 
! Gamma         0                0                0                0                
! Port Impedance         50               0                50               0                
17.7                           0.00565082378136539 -87.4094572299853 0.999233903989793 -5.0260271625646 0.999233903989793 -5.0260271625646 0.00565091404090446 -87.4037151540285 
! Gamma         0                0                0                0                
! Port Impedance         50               0                50               0                
17.8                           0.00568491645247118 -87.4600523399768 0.999231360418162 -5.05431039149289 0.999231360418162 -5.05431039149289 0.00568500741715958 -87.4542791759817 
! Gamma         0                0                0                0                
! Port Impedance         50               0                50               0                
17.9                           0.00571902559044363 -87.5103731834446 0.999228812038043 -5.08259324445032 0.999228812038043 -5.08259324445032 0.00571911726111615 -87.504568910086 
! Gamma         0                0                0                0                
! Port Impedance         50               0                50               0                
18                             0.00575315133432026 -87.5604236692815 0.99922625873402 -5.1108757168819 0.99922625873402 -5.1108757168819 0.00575324371181751 -87.5545882649874 
! Gamma         0                0                0                0                
! Port Impedance         50               0                50               0                
18.1                           0.00578729382364011 -87.6102076418052 0.999223700393054 -5.13915780420948 0.999223700393054 -5.13915780420948 0.00578738690880892 -87.6043410847617 
! Gamma         0                0                0                0                
! Port Impedance         50               0                50               0                
18.2                           0.00582145319842096 -87.6597288820654 0.999221136904427 -5.16743950183345 0.999221136904426 -5.16743950183345 0.00582154699211473 -87.6538311502209 
! Gamma         0                0                0                0                
! Port Impedance         50               0                50               0                
18.3                           0.00585562959913774 -87.7089911091197 0.999218568159694 -5.19572080513442 0.999218568159694 -5.19572080513442 0.00585572410221676 -87.7030621801892 
! Gamma         0                0                0                0                
! Port Impedance         50               0                50               0                
18.4                           0.0058898231667019 -87.7579979812785 0.999215994052635 -5.22400170947482 0.999215994052634 -5.22400170947482 0.00588991838003371 -87.7520378327481 
! Gamma         0                0                0                0                
! Port Impedance         50               0                50               0                
18.5                           0.00592403404244201 -87.8067530973223 0.999213414479201 -5.25228221020038 0.9992134144792  -5.25228221020038 0.00592412996690173 -87.8007617064528 
! Gamma         0                0                0                0                
! Port Impedance         50               0                50               0                
18.6                           0.00595826236808529 -87.8552599976882 0.999210829337472 -5.2805623026416 0.999210829337472 -5.2805623026416 0.0059583590045559 -87.8492373415195 
! Gamma         0                0                0                0                
! Port Impedance         50               0                50               0                
18.7                           0.00599250828574007 -87.9035221656306 0.999208238527607 -5.30884198211512 0.999208238527607 -5.30884198211512 0.00599260563511277 -87.8974682209852 
! Gamma         0                0                0                0                
! Port Impedance         50               0                50               0                
18.8                           0.00602677193787925 -87.9515430283542 0.999205641951802 -5.33712124392502 0.999205641951802 -5.33712124392502 0.00602687000105376 -87.9454577718408 
! Gamma         0                0                0                0                
! Port Impedance         50               0                50               0                
18.9                           0.00606105346732461 -87.9993259581202 0.999203039514239 -5.36540008336406 0.999203039514239 -5.36540008336407 0.00606115224520947 -87.9932093661374 
! Gamma         0                0                0                0                
! Port Impedance         50               0                50               0                
19                             0.00609535301723195 -88.0468742733287 0.999200431121051 -5.39367849571492 0.99920043112105 -5.39367849571492 0.00609545251074481 -88.040726322068 
! Gamma         0                0                0                0                
! Port Impedance         50               0                50               0                
19.1                           0.00612967073107706 -88.0941912395743 0.999197816680272 -5.42195647625126 0.999197816680272 -5.42195647625126 0.00612977094114499 -88.0880119050239 
! Gamma         0                0                0                0                
! Port Impedance         50               0                50               0                
19.2                           0.00616400675264244 -88.1412800706797 0.999195196101802 -5.45023402023883 0.999195196101802 -5.45023402023884 0.0061641076802022 -88.1350693286271 
! Gamma         0                0                0                0                
! Port Impedance         50               0                50               0                
19.3                           0.00619836122600479 -88.1881439297041 0.999192569297361 -5.47851112293655 0.999192569297361 -5.47851112293655 0.00619846287200313 -88.1819017557394 
! Gamma         0                0                0                0                
! Port Impedance         50               0                50               0                
19.4                           0.00623273429552314 -88.2347859299298 0.999189936180452 -5.50678777959738 0.999189936180452 -5.50678777959738 0.00623283666091708 -88.2285122994487 
! Gamma         0                0                0                0                
! Port Impedance         50               0                50               0                
19.5                           0.00626712610582776 -88.2812091358267 0.999187296666322 -5.53506398546934 0.999187296666321 -5.53506398546934 0.00626722919158484 -88.274904024033 
! Gamma         0                0                0                0                
! Port Impedance         50               0                50               0                
19.6                           0.00630153680180959 -88.3274165639946 0.999184650671923 -5.56333973579635 0.999184650671923 -5.56333973579635 0.00630164060890816 -88.3210799459031 
! Gamma         0                0                0                0                
! Port Impedance         50               0                50               0                
19.7                           0.00633596652861036 -88.3734111840848 0.999181998115877 -5.5916150258191 0.999181998115877 -5.5916150258191 0.00633607105803985 -88.3670430345239 
! Gamma         0                0                0                0                
! Port Impedance         50               0                50               0                
19.8                           0.0063704154316133 -88.4191959197015 0.999179338918439 -5.6198898507758 0.999179338918438 -5.6198898507758 0.00637052068437445 -88.4127962133155 
! Gamma         0                0                0                0                
! Port Impedance         50               0                50               0                
19.9                           0.00640488365643437 -88.4647736492827 0.999176673001459 -5.64816420590301 0.999176673001458 -5.64816420590301 0.00640498963353953 -88.4583423605345 
! Gamma         0                0                0                0                
! Port Impedance         50               0                50               0                
20                             0.00643937134891404 -88.510147206962 0.999174000288351 -5.67643808643629 0.99917400028835 -5.67643808643629 0.0064394780513874 -88.5036843101354 
! Gamma         -0               -0               0                0                
! Port Impedance         50               0                50               0                
