! Touchstone file exported from HFSS 2026.1.0
!        File:           C:/ffzhzh/LocalFiles/Ansys_Project_Files/temp_train_BSMRDL_1207_1783176569_43440.aedt
!        Generated:      10:50:47 PM Jul  4, 2026
!        Design:         BSMRDL
!        Project:        temp_train_BSMRDL_1207_1783176569_43440
!
! Variables:
!        h_bsmrdl = 5.14um
!        h_ox = 20um
!        h_rdl = 5um
!        h_sub = 80um
!        h_tmrdl = 5um
!        h_tsv = 80um
!        h_via = 3um
!        l_bsmrdl = 556.23um
!        l_sub = 956.23um
!        l_tmrdl = 200um
!        m_sub = 200um
!        pitch = 52.21um
!        r_tsv = 6um
!        s_tmrdl = 10um
!        w_bsmrdl = 23.81um
!        w_sub = 500um
!        w_tmrdl = 12um
!        x_tsv_center1 = 206um
!        x_tsv_center2 = 786.04um
!        x_tsv_center3 = 998.04um
!        x_tsv_center4 = 1578.08um
!        x_tsv_center5 = 1790.08um
!        x_tsv_center6 = 2370.12um
!
# GHz S MA R 50.000000
! Terminal data exported
! Port[1] = BSM_RDL1_1_T1
! Port[2] = BSM_RDL1_1_T2
0.1                            0.00284008467760883 50.7989861400487 0.998210791467836 -0.215351081904715 0.998210791467837 -0.215351081904709 0.00284008550700539 50.7989931686459 
! Gamma         0                0                0                0                
! Port Impedance         50               0                50               0                
0.2                            0.00470696788694001 65.5661555285282 0.998075561189014 -0.424048577508454 0.998075561189015 -0.424048577508474 0.0047069710245015 65.5661563917928 
! Gamma         0                0                0                0                
! Port Impedance         50               0                50               0                
0.3                            0.00664174623881191 71.7634118644657 0.997971391922418 -0.629262404799528 0.997971391922419 -0.629262404799563 0.00664175317344137 71.7633934072875 
! Gamma         0                0                0                0                
! Port Impedance         50               0                50               0                
0.4                            0.00860078397494791 75.2259196746843 0.997894003875707 -0.833694927756006 0.997894003875708 -0.833694927756043 0.00860079541397435 75.2258750290301 
! Gamma         0                0                0                0                
! Port Impedance         50               0                50               0                
0.5                            0.0105786647244615 77.4073251061207 0.997828441640208 -1.03813468094061 0.997828441640208 -1.03813468094065 0.0105786809609006 77.4072521222118 
! Gamma         0                0                0                0                
! Port Impedance         50               0                50               0                
0.6                            0.0125701792220143 78.8688201591004 0.997765737732809 -1.24271296323473 0.997765737732809 -1.24271296323475 0.0125702004307744 78.8687185674196 
! Gamma         0                0                0                0                
! Port Impedance         50               0                50               0                
0.7                            0.0145709013107203 79.8844393848303 0.997701281967785 -1.44740212731573 0.997701281967786 -1.44740212731575 0.0145709276618003 79.8843094847398 
! Gamma         0                0                0                0                
! Port Impedance         50               0                50               0                
0.8                            0.0165775464929027 80.6056882647739 0.99763271798041 -1.65214745486871 0.99763271798041 -1.65214745486873 0.0165775781858943 80.6055304538493 
! Gamma         0                0                0                0                
! Port Impedance         50               0                50               0                
0.9                            0.0185877579146636 81.1231870224296 0.997558824926689 -1.85689782525745 0.997558824926688 -1.85689782525746 0.01858779518637 81.1230016473652 
! Gamma         0                0                0                0                
! Port Impedance         50               0                50               0                
1                              0.020599834404544 81.4943402839085 0.997478975142526 -2.06161099735045 0.997478975142526 -2.06161099735046 0.020599877528005 81.494127603806  
! Gamma         0                0                0                0                
! Port Impedance         50               0                50               0                
1.1                            0.0226125235320313 81.757190839869  0.997392866706725 -2.26625298648122 0.997392866706725 -2.26625298648123 0.0226125728130151 81.7569510266803 
! Gamma         0                0                0                0                
! Port Impedance         50               0                50               0                
1.2                            0.0246248814629515 81.9378986512196 0.997300385668636 -2.47079644792309 0.997300385668636 -2.47079644792309 0.0246249372358913 81.9376318009824 
! Gamma         0                0                0                0                
! Port Impedance         50               0                50               0                
1.3                            0.0266361807990568 82.055017342295  0.997201531405042 -2.67521921805234 0.997201531405042 -2.67521921805234 0.0266362434230662 82.0547234881417 
! Gamma         0                0                0                0                
! Port Impedance         50               0                50               0                
1.4                            0.0286458499139317 82.1220561372273 0.997096374058493 -2.87950319795284 0.997096374058493 -2.87950319795284 0.0286459197690848 82.1217352613082 
! Gamma         0                0                0                0                
! Port Impedance         50               0                50               0                
1.5                            0.0306534324754746 82.1490758386613 0.996985029022156 -3.08363353610112 0.996985029022156 -3.08363353610112 0.0306535099593932 82.1487278822906 
! Gamma         0                0                0                0                
! Port Impedance         50               0                50               0                
1.6                            0.0326585599062042 82.1437169334461 0.996867640886798 -3.2875980323389 0.996867640886798 -3.2875980323389 0.0326586454309528 82.1433418055045 
! Gamma         0                0                0                0                
! Port Impedance         50               0                50               0                
1.7                            0.0346609322161093 82.1118814689423 0.99674437286875 -3.49138669680654 0.996744372868751 -3.49138669680653 0.0346610262053864 82.1114790527777 
! Gamma         0                0                0                0                
! Port Impedance         50               0                50               0                
1.8                            0.0366603043283666 82.0581970409214 0.996615399549884 -3.69499141541512 0.996615399549884 -3.69499141541512 0.0366604072149837 82.0577672000097 
! Gamma         0                0                0                0                
! Port Impedance         50               0                50               0                
1.9                            0.0386564760644496 81.9863397850571 0.996480901706348 -3.8984056884255 0.996480901706348 -3.89840568842549 0.0386565882880854 81.9858823676564 
! Gamma         0                0                0                0                
! Port Impedance         50               0                50               0                
2                              0.0406492846068583 81.8992638434474 0.996341062513262 -4.10162441958289 0.996341062513262 -4.10162441958288 0.0406494066120805 81.8987786864332 
! Gamma         0                0                0                0                
! Port Impedance         50               0                50               0                
2.1                            0.0426385986678935 81.7993674062157 0.9961960646965  -4.30464374075214 0.996196064696501 -4.30464374075213 0.0426387309024358 81.7988543382444 
! Gamma         0                0                0                0                
! Port Impedance         50               0                50               0                
2.2                            0.0446243138544396 81.6886148747949 0.996046088364934 -4.50746086205389 0.996046088364934 -4.50746086205388 0.0446244567677241 81.6880737189138 
! Gamma         0                0                0                0                
! Port Impedance         50               0                50               0                
2.3                            0.0466063488877629 81.5686281161354 0.995891309351498 -4.71007394087907 0.995891309351499 -4.71007394087906 0.0466065029296522 81.568058691929  
! Gamma         0                0                0                0                
! Port Impedance         50               0                50               0                
2.4                            0.0485846424479841 81.4407555821706 0.99573189794823 -4.91248196540535 0.99573189794823 -4.91248196540534 0.0485848080677494 81.4401577075171 
! Gamma         0                0                0                0                
! Port Impedance         50               0                50               0                
2.5                            0.0505591504861721 81.3061253369322 0.995568017955176 -5.11468464972485 0.995568017955177 -5.11468464972484 0.0505593281316589 81.305498829429  
! Gamma         0                0                0                0                
! Port Impedance         50               0                50               0                
2.6                            0.0525298438960018 81.1656862203229 0.995399825984751 -5.31668233866974 0.995399825984751 -5.31668233866973 0.0525300340129765 81.1650308984303 
! Gamma         0                0                0                0                
! Port Impedance         50               0                50               0                
2.7                            0.0544967064699372 81.0202401527483 0.995227470977025 -5.51847592105787 0.995227470977025 -5.51847592105786 0.0544969095015942 81.0195558366921 
! Gamma         0                0                0                0                
! Port Impedance         50               0                50               0                
2.8                            0.0564597330872635 80.8704677442268 0.995051093890633 -5.72006675048756 0.995051093890633 -5.72006675048755 0.056459949473874 80.8697542566954 
! Gamma         0                0                0                0                
! Port Impedance         50               0                50               0                
2.9                            0.0584189280964869 80.716948786165  0.994870827540294 -5.9214565730645 0.994870827540295 -5.92145657306449 0.0584191582751704 80.7162059528303 
! Gamma         0                0                0                0                
! Port Impedance         50               0                50               0                
3                              0.0603743038649509 80.5601787906795 0.994686796556476 -6.12264746159722 0.994686796556476 -6.1226474615972 0.0603745482695491 80.5594064405693 
! Gamma         0                0                0                0                
! Port Impedance         50               0                50               0                
3.1                            0.0623258794755328 80.4005824468714 0.994499117446184 -6.32364175588433 0.994499117446184 -6.32364175588432 0.0623261385365692 80.399780412616  
! Gamma         0                0                0                0                
! Port Impedance         50               0                50               0                
3.2                            0.0642736795550275 80.2385246497306 0.994307898736615 -6.52444200876284 0.994307898736616 -6.52444200876283 0.0642739536997351 80.2376927677044 
! Gamma         0                0                0                0                
! Port Impedance         50               0                50               0                
3.3                            0.0662177332220268 80.0743196010524 0.994113241185678 -6.72505093760642 0.994113241185678 -6.72505093760641 0.0662180228744276 80.0734577114287 
! Gamma         0                0                0                0                
! Port Impedance         50               0                50               0                
3.4                            0.0681580731442425 79.9082383662818 0.993915238045408 -6.92547138096863 0.993915238045409 -6.92547138096862 0.0681583787252655 79.9073463130172 
! Gamma         0                0                0                0                
! Port Impedance         50               0                50               0                
3.5                            0.0700947346966592 79.7405151850655 0.993713975366055 -7.12570626006452 0.993713975366055 -7.12570626006451 0.0700950566242827 79.7395928158273 
! Gamma         0                0                0                0                
! Port Impedance         50               0                50               0                
3.6                            0.0720277552128647 79.5713527684479 0.993509532330212 -7.32575854478045 0.993509532330212 -7.32575854478045 0.0720280939022733 79.5703999344982 
! Gamma         0                0                0                0                
! Port Impedance         50               0                50               0                
3.7                            0.0739571733225651 79.4009267664142 0.993301981607835 -7.52563122389866 0.993301981607835 -7.52563122389865 0.0739575291863108 79.3999433224607 
! Gamma         0                0                0                0                
! Port Impedance         50               0                50               0                
3.8                            0.0758830283687558 79.2293895517818 0.993091389724285 -7.7253272792221 0.993091389724285 -7.7253272792221 0.0758834018169145 79.2283753558047 
! Gamma         0                0                0                0                
! Port Impedance         50               0                50               0                
3.9                            0.077805359898369 79.0568734373473 0.992877817434764 -7.92484966328724 0.992877817434764 -7.92484966328723 0.0778057513386879 79.0558283504104 
! Gamma         0                0                0                0                
! Port Impedance         50               0                50               0                
4                              0.0797242072205039 78.8834934205703 0.992661320099587 -8.12420128035727 0.992661320099587 -8.12420128035726 0.0797246170585324 78.8824173066234 
! Gamma         0                0                0                0                
! Port Impedance         50               0                50               0                
4.1                            0.0816396090266004 78.7093495323464 0.992441948055693 -8.32338497039686 0.992441948055693 -8.32338497039686 0.0816400376658013 78.7082422580244 
! Gamma         0                0                0                0                
! Port Impedance         50               0                50               0                
4.2                            0.0835516030671596 78.5345288524337 0.992219746980694 -8.52240349574022 0.992219746980694 -8.52240349574022 0.0835520509089984 78.5333902868569 
! Gamma         0                0                0                0                
! Port Impedance         50               0                50               0                
4.3                            0.0854602258798593 78.3591072429805 0.991994758246513 -8.72125953017749 0.991994758246513 -8.72125953017749 0.0854606933238686 78.3579372575606 
! Gamma         0                0                0                0                
! Port Impedance         50               0                50               0                
4.4                            0.0873655125641676 78.1831508427101 0.991767019260328 -8.91995565019973 0.991767019260328 -8.91995565019973 0.0873660000079869 78.1819493109635 
! Gamma         0                0                0                0                
! Port Impedance         50               0                50               0                
4.5                            0.0892674965978138 78.0067173571545 0.991536563791137 -9.11849432815857 0.991536563791137 -9.11849432815857 0.0892680044372036 78.0054841545271 
! Gamma         0                0                0                0                
! Port Impedance         50               0                50               0                
4.6                            0.0911662096907496 77.82985717453   0.991303422280734 -9.316877927114  0.991303422280734 -9.316877927114  0.0911667383195801 77.828592178233  
! Gamma         0                0                0                0                
! Port Impedance         50               0                50               0                
4.7                            0.0930616816725051 77.6526143321095 0.991067622138345 -9.51510869716077 0.991067622138345 -9.51510869716077 0.0930622314827222 77.6513174209698 
! Gamma         0                0                0                0                
! Port Impedance         50               0                50               0                
4.8                            0.0949539404091262 77.4750273540705 0.990829188018474 -9.71318877304167 0.990829188018473 -9.71318877304167 0.0949545117906943 77.4736984083938 
! Gamma         0                0                0                0                
! Port Impedance         50               0                50               0                
4.9                            0.0968430117461553 77.2971299785914 0.990588142081866 -9.91112017287251 0.990588142081866 -9.9111201728725 0.0968436050869791 77.2957688800408 
! Gamma         0                0                0                0                
! Port Impedance         50               0                50               0                
5                              0.0987289194743944 77.1189517893148 0.990344504239678 -10.1089047978207 0.990344504239679 -10.1089047978207 0.0987295351602232 77.1175584208023 
! Gamma         0                0                0                0                
! Port Impedance         50               0                50               0                
5.1                            0.100611685315461 76.9405187640814 0.990098292381164 -10.3065444325947 0.990098292381164 -10.3065444325947 0.100612323729775 76.9390930096749 
! Gamma         0                0                0                0                
! Port Impedance         50               0                50               0                
5.2                            0.102491328924402 76.7618537519852 0.989849522585336 -10.5040407466168 0.989849522585336 -10.5040407466168 0.102491990448287 76.7603954968286 
! Gamma         0                0                0                0                
! Port Impedance         50               0                50               0                
5.3                            0.104367867906896 76.5829768882365 0.989598209317166 -10.7013952957661 0.989598209317166 -10.7013952957661 0.104368552918904 76.5814860184821 
! Gamma         0                0                0                0                
! Port Impedance         50               0                50               0                
5.4                            0.106241317848792 76.4039059550012 0.989344365608972 -10.8986095245897 0.989344365608972 -10.8986095245897 0.106242026724792 76.4023823577555 
! Gamma         0                0                0                0                
! Port Impedance         50               0                50               0                
5.5                            0.10811169235598 76.2246566952665 0.989088003227709 -11.0956847688961 0.989088003227708 -11.0956847688961 0.108112425469004 76.2231002585468 
! Gamma         0                0                0                0                
! Port Impedance         50               0                50               0                
5.6                            0.10997900310279 76.0452430858269 0.988829132828894 -11.2926222586505 0.988829132828894 -11.2926222586505 0.109979760822875 76.0436536985283 
! Gamma         0                0                0                0                
! Port Impedance         50               0                50               0                
5.7                            0.11184325988731 75.8656775746699 0.988567764097954 -11.4894231211065 0.988567764097953 -11.4894231211065 0.111844042581332 75.8640551265425 
! Gamma         0                0                0                0                
! Port Impedance         50               0                50               0                
5.8                            0.11370447069221 75.6859712873451 0.988303905879736 -11.6860883841146 0.988303905879736 -11.6860883841146 0.113705278723723 75.6843156689792 
! Gamma         0                0                0                0                
! Port Impedance         50               0                50               0                
5.9                            0.11556264174981 75.5061342062941 0.988037566296971 -11.8826189795572 0.988037566296971 -11.8826189795572 0.115563475478886 75.5044453091136 
! Gamma         0                0                0                0                
! Port Impedance         50               0                50               0                
6                              0.117417777610309 75.3261753266078 0.987768752858412 -12.0790157468674 0.987768752858412 -12.0790157468674 0.117418637393377 75.3244530428703 
! Gamma         0                0                0                0                
! Port Impedance         50               0                50               0                
6.1                            0.119269881212199 75.1461027912243 0.987497472557391 -12.275279436595 0.987497472557391 -12.275279436595 0.11927076740189 75.1443470140267 
! Gamma         0                0                0                0                
! Port Impedance         50               0                50               0                
6.2                            0.121118953954048 74.9659240081972 0.987223731961478 -12.4714107139871 0.987223731961478 -12.4714107139871 0.121119866899054 74.9641346314873 
! Gamma         0                0                0                0                
! Port Impedance         50               0                50               0                
6.3                            0.122964995766946 74.7856457523295 0.986947537293914 -12.66741016256  0.986947537293913 -12.66741016256  0.122965935811872 74.7838226709205 
! Gamma         0                0                0                0                
! Port Impedance         50               0                50               0                
6.4                            0.124808005186977 74.6052742531708 0.986668894507445 -12.8632782876385 0.986668894507444 -12.8632782876385 0.124808972672215 74.6034173627602 
! Gamma         0                0                0                0                
! Port Impedance         50               0                50               0                
6.5                            0.126647979427236 74.424815271131  0.986387809351153 -13.0590155198463 0.986387809351152 -13.0590155198463 0.126648974688842 74.422924468322  
! Gamma         0                0                0                0                
! Port Impedance         50               0                50               0                
6.6                            0.128484914448928 74.244274163234  0.98610428743085 -13.2546222185329 0.98610428743085 -13.2546222185329 0.128485937818509 74.2423493455584 
! Gamma         0                0                0                0                
! Port Impedance         50               0                50               0                
6.7                            0.130318805031205 74.0636559398486 0.985818334263549 -13.4500986751246 0.985818334263549 -13.4500986751246 0.130319856835824 74.0616970057918 
! Gamma         0                0                0                0                
! Port Impedance         50               0                50               0                
6.8                            0.132149644839449 73.8829653135623 0.98552995532651 -13.6454451163929 0.98552995532651 -13.6454451163929 0.13215072540153 73.8809721625887 
! Gamma         0                0                0                0                
! Port Impedance         50               0                50               0                
6.9                            0.133977426491743 73.702206741219  0.985239156101311 -13.8406617076306 0.98523915610131 -13.8406617076306 0.133978536129003 73.7001792737979 
! Gamma         0                0                0                0                
! Port Impedance         50               0                50               0                
7                              0.135802141623373 73.5213844600123 0.984945942113368 -14.0357485557338 0.984945942113367 -14.0357485557338 0.135803280648753 73.5193225776429 
! Gamma         0                0                0                0                
! Port Impedance         50               0                50               0                
7.1                            0.137623780949192 73.3405025184129 0.984650318967298 -14.2307057121833 0.984650318967298 -14.2307057121833 0.137624949670809 73.3384061236501 
! Gamma         0                0                0                0                
! Port Impedance         50               0                50               0                
7.2                            0.13944233432375 73.1595648026137 0.984352292378474 -14.4255331759257 0.984352292378473 -14.4255331759257 0.139443533044858 73.1574337990918 
! Gamma         0                0                0                0                
! Port Impedance         50               0                50               0                
7.3                            0.141257790799124 72.9785750590869 0.984051868201112 -14.6202308961525 0.984051868201111 -14.6202308961525 0.141259019818091 72.9764093515419 
! Gamma         0                0                0                0                
! Port Impedance         50               0                50               0                
7.4                            0.143070138680393 72.7975369137726 0.983749052453203 -14.8147987749757 0.983749052453202 -14.8147987749757 0.143071398290687 72.7953364080639 
! Gamma         0                0                0                0                
! Port Impedance         50               0                50               0                
7.5                            0.144879365578742 72.6164538883564 0.983443851338553 -15.009236670003 0.983443851338552 -15.009236670003 0.144880656068934 72.6142184914858 
! Gamma         0                0                0                0                
! Port Impedance         50               0                50               0                
7.6                            0.146685458462195 72.4353294140288 0.983136271266199 -15.2035443968123 0.983136271266198 -15.2035443968123 0.146686780115972 72.4330590341578 
! Gamma         0                0                0                0                
! Port Impedance         50               0                50               0                
7.7                            0.148488403703999 72.2541668430764 0.982826318867436 -15.3977217313265 0.982826318867435 -15.3977217313265 0.148489756800185 72.2518613895409 
! Gamma         0                0                0                0                
! Port Impedance         50               0                50               0                
7.8                            0.150288187128677 72.0729694586035 0.982514001010673 -15.5917684120935 0.982514001010671 -15.5917684120935 0.150289571941275 72.070628841927  
! Gamma         0                0                0                0                
! Port Impedance         50               0                50               0                
7.9                            0.152084794055812 71.8917404826498 0.982199324814302 -15.7856841424706 0.9821993248143  -15.7856841424706 0.152086210854048 71.8893646145533 
! Gamma         0                0                0                0                
! Port Impedance         50               0                50               0                
8                              0.153878209341593 71.7104830829321 0.98188229765778 -15.9794685927182 0.981882297657779 -15.9794685927182 0.153879658389977 71.7080718763416 
! Gamma         0                0                0                0                
! Port Impedance         50               0                50               0                
8.1                            0.155668417418205 71.5292003784088 0.981562927191074 -16.1731214020044 0.981562927191073 -16.1731214020044 0.1556698989766  71.5267537474605 
! Gamma         0                0                0                0                
! Port Impedance         50               0                50               0                
8.2                            0.157455402331116 71.3478954438418 0.981241221342621 -16.3666421803246 0.98124122134262 -16.3666421803246 0.157456916654813 71.3454133038845 
! Gamma         0                0                0                0                
! Port Impedance         50               0                50               0                
8.3                            0.159239147774327 71.1665713135055 0.980917188325942 -16.5600305103373 0.980917188325941 -16.5600305103373 0.159240695114137 71.1640535811004 
! Gamma         0                0                0                0                
! Port Impedance         50               0                50               0                
8.4                            0.16101963712368 70.9852309841733 0.980590836645044 -16.7532859491214 0.980590836645043 -16.7532859491214 0.161021217726028 70.9826775770911 
! Gamma         0                0                0                0                
! Port Impedance         50               0                50               0                
8.5                            0.162796853468274 70.8038774174949 0.980262175098698 -16.9464080298555 0.980262175098697 -16.9464080298555 0.162798467575304 70.8012882547101 
! Gamma         0                0                0                0                
! Port Impedance         50               0                50               0                
8.6                            0.164570779640089 70.6225135418621 0.979931212783731 -17.1393962634251 0.97993121278373 -17.1393962634251 0.164572427489774 70.6198885435452 
! Gamma         0                0                0                0                
! Port Impedance         50               0                50               0                
8.7                            0.166341398241877 70.441142253847  0.979597959097396 -17.3322501399576 0.979597959097395 -17.3322501399575 0.16634308006814 70.4384813413539 
! Gamma         0                0                0                0                
! Port Impedance         50               0                50               0                
8.8                            0.168108691673415 70.2597664192869 0.97926242373892 -17.5249691302903 0.979262423738919 -17.5249691302903 0.16811040770625 70.2570695151456 
! Gamma         0                0                0                0                
! Port Impedance         50               0                50               0                
8.9                            0.169872642156183 70.0783888740755 0.978924616710316 -17.7175526873738 0.978924616710315 -17.7175526873738 0.169874392621785 70.075655901971  
! Gamma         0                0                0                0                
! Port Impedance         50               0                50               0                
9                              0.17163323175655 69.897012424718  0.978584548316505 -17.9100002476121 0.978584548316504 -17.9100002476121 0.171635016877448 69.8942433094743 
! Gamma         0                0                0                0                
! Port Impedance         50               0                50               0                
9.1                            0.17339044240754 69.7156398486919 0.978242229164847 -18.1023112321444 0.978242229164846 -18.1023112321444 0.173392262402738 69.7128345162524 
! Gamma         0                0                0                0                
! Port Impedance         50               0                50               0                
9.2                            0.175144255929254 69.5342738946566 0.977897670164108 -18.2944850480691 0.977897670164107 -18.2944850480691 0.175146111014368 69.5314322720616 
! Gamma         0                0                0                0                
! Port Impedance         50               0                50               0                
9.3                            0.176894654048013 69.3529172825418 0.977550882522939 -18.486521089614 0.977550882522938 -18.486521089614 0.17689654443542 69.3500392979049 
! Gamma         0                0                0                0                
! Port Impedance         50               0                50               0                
9.4                            0.178641618414295 69.1715727035454 0.977201877747903 -18.678418739254 0.977201877747902 -18.678418739254 0.178643544313274 69.1686582860275 
! Gamma         0                0                0                0                
! Port Impedance         50               0                50               0                
9.5                            0.180385130619529 68.9902428200635 0.976850667641106 -18.8701773687795 0.976850667641104 -18.8701773687795 0.180387092236414 68.987291899845  
! Gamma         0                0                0                0                
! Port Impedance         50               0                50               0                
9.6                            0.182125172211812 68.8089302655728 0.97649726429746 -19.0617963403171 0.976497264297458 -19.0617963403171 0.182127169750135 68.8059427738242 
! Gamma         0                0                0                0                
! Port Impedance         50               0                50               0                
9.7                            0.183861724710606 68.627637644482  0.976141680101629 -19.253275007305 0.976141680101628 -19.2532750073049 0.18386375837125 68.6246135133332 
! Gamma         0                0                0                0                
! Port Impedance         50               0                50               0                
9.8                            0.18559476962048 68.4463675319668 0.97578392772468 -19.4446127154249 0.975783927724678 -19.4446127154249 0.185596839601826 68.4433066944744 
! Gamma         0                0                0                0                
! Port Impedance         50               0                50               0                
9.9                            0.187324288443945 68.265122473798  0.975424020120473 -19.635808803493 0.975424020120472 -19.635808803493 0.18732639494202 68.2620248639121 
! Gamma         0                0                0                0                
! Port Impedance         50               0                50               0                
10                             0.189050262693442 68.0839049861746 0.97506197052183 -19.8268626043108 0.975061970521828 -19.8268626043107 0.189052405902067 68.0807705387035 
! Gamma         0                0                0                0                
! Port Impedance         50               0                50               0                
10.1                           0.190772673902531 67.9027175555669 0.974697792436485 -20.0177734454783 0.974697792436484 -20.0177734454783 0.190774854013464 67.8995462061414 
! Gamma         0                0                0                0                
! Port Impedance         50               0                50               0                
10.2                           0.192491503636328 67.7215626385771 0.974331499642864 -20.2085406501719 0.974331499642863 -20.2085406501719 0.192493720839409 67.7183543236134 
! Gamma         0                0                0                0                
! Port Impedance         50               0                50               0                
10.3                           0.19420673350124 67.5404426618207 0.973963106185699 -20.3991635378864 0.973963106185698 -20.3991635378864 0.194208987984527 67.5371973184829 
! Gamma         0                0                0                0                
! Port Impedance         50               0                50               0                
10.4                           0.195918345154037 67.3593600218337 0.973592626371502 -20.5896414251454 0.973592626371501 -20.5896414251454 0.195920637103947 67.3560775879949 
! Gamma         0                0                0                0                
! Port Impedance         50               0                50               0                
10.5                           0.197626320310307 67.1783170850059 0.973220074763917 -20.7799736261793 0.973220074763916 -20.7799736261792 0.197628649911747 67.1749974992093 
! Gamma         0                0                0                0                
! Port Impedance         50               0                50               0                
10.6                           0.199330640752328 66.9973161875443 0.972845466178965 -20.9701594535736 0.972845466178964 -20.9701594535736 0.199333008188825 66.9939593889635 
! Gamma         0                0                0                0                
! Port Impedance         50               0                50               0                
10.7                           0.2010312883364  66.8163596354656 0.972468815680201 -21.1601982188886 0.972468815680199 -21.1601982188885 0.201033693790226 66.8129655638642 
! Gamma         0                0                0                0                
! Port Impedance         50               0                50               0                
10.8                           0.202728244999667 66.6354497046193 0.972090138573783 -21.3500892332511 0.972090138573782 -21.3500892332511 0.202730688651959 66.6320183003109 
! Gamma         0                0                0                0                
! Port Impedance         50               0                50               0                
10.9                           0.204421492766461 66.4545886407414 0.971709450403493 -21.5398318079203 0.971709450403492 -21.5398318079203 0.204423974797336 66.4511198445485 
! Gamma         0                0                0                0                
! Port Impedance         50               0                50               0                
11                             0.20611101375421 66.2737786595373 0.971326766945684 -21.7294252548282 0.971326766945683 -21.7294252548281 0.206113534342875 66.2702724127508 
! Gamma         0                0                0                0                
! Port Impedance         50               0                50               0                
11.1                           0.20779679017892 66.0930219467944 0.970942104204199 -21.9188688870959 0.970942104204197 -21.9188688870959 0.207799349503778 66.0894781911324 
! Gamma         0                0                0                0                
! Port Impedance         50               0                50               0                
11.2                           0.209478804360278 65.912320658522  0.970555478405247 -22.1081620195276 0.970555478405246 -22.1081620195275 0.209481402599027 65.9087393360894 
! Gamma         0                0                0                0                
! Port Impedance         50               0                50               0                
11.3                           0.211157038726393 65.7316769211195 0.970166905992259 -22.2973039690811 0.970166905992258 -22.2973039690811 0.211159676056116 65.7280579743667 
! Gamma         0                0                0                0                
! Port Impedance         50               0                50               0                
11.4                           0.212831475818195 65.5510928315681 0.969776403620723 -22.486294055319 0.969776403620722 -22.486294055319 0.212834152415448 65.5474362032513 
! Gamma         0                0                0                0                
! Port Impedance         50               0                50               0                
11.5                           0.214502098293521 65.370570457649  0.96938398815301 -22.6751316008383 0.969383988153009 -22.6751316008382 0.214504814334416 65.3668760907893 
! Gamma         0                0                0                0                
! Port Impedance         50               0                50               0                
11.6                           0.216168888930916 65.190111838182  0.968989676653195 -22.8638159316811 0.968989676653194 -22.863815931681 0.216171644591188 65.1863796760258 
! Gamma         0                0                0                0                
! Port Impedance         50               0                50               0                
11.7                           0.217831830633146 65.0097189832871 0.968593486381883 -23.0523463777271 0.968593486381882 -23.052346377727 0.217834626088228 65.0059489692664 
! Gamma         0                0                0                0                
! Port Impedance         50               0                50               0                
11.8                           0.219490906430474 64.8293938746639 0.968195434791042 -23.240722273068 0.968195434791041 -23.240722273068 0.219493741855552 64.8255859523578 
! Gamma         0                0                0                0                
! Port Impedance         50               0                50               0                
11.9                           0.221146099483689 64.64913846589   0.967795539518847 -23.4289429563651 0.967795539518846 -23.4289429563651 0.221148975053755 64.6452925789857 
! Gamma         0                0                0                0                
! Port Impedance         50               0                50               0                
12                             0.222797393086914 64.4689546827352 0.967393818384543 -23.6170077711902 0.967393818384542 -23.6170077711901 0.222800308976814 64.4650707749907 
! Gamma         0                0                0                0                
! Port Impedance         50               0                50               0                
12.1                           0.224444770670218 64.2888444234908 0.966990289383329 -23.8049160663512 0.966990289383328 -23.8049160663512 0.224447727054691 64.2849224386972 
! Gamma         0                0                0                0                
! Port Impedance         50               0                50               0                
12.2                           0.226088215802032 64.1088095593116 0.966584970681268 -23.9926671962031 0.966584970681267 -23.9926671962031 0.22609121285574 64.1048494412569 
! Gamma         0                0                0                0                
! Port Impedance         50               0                50               0                
12.3                           0.227727712191388 63.9288519345701 0.966177880610227 -24.1802605209438 0.966177880610226 -24.1802605209438 0.227730750088944 63.9248536270035 
! Gamma         0                0                0                0                
! Port Impedance         50               0                50               0                
12.4                           0.229363243689997 63.748973367221  0.965769037662845 -24.3676954068966 0.965769037662844 -24.3676954068966 0.229366322605977 63.7449368138175 
! Gamma         0                0                0                0                
! Port Impedance         50               0                50               0                
12.5                           0.23099479429417 63.5691756491741 0.965358460487539 -24.5549712267795 0.965358460487538 -24.5549712267794 0.230997914403131 63.565100793501  
! Gamma         0                0                0                0                
! Port Impedance         50               0                50               0                
12.6                           0.232622348146606 63.3894605466759 0.964946167883545 -24.7420873599616 0.964946167883545 -24.7420873599616 0.232625509623082 63.3853473321591 
! Gamma         0                0                0                0                
! Port Impedance         50               0                50               0                
12.7                           0.234245889538036 63.2098298006968 0.964532178796005 -24.9290431927076 0.964532178796004 -24.9290431927076 0.234249092556538 63.2056781705885 
! Gamma         0                0                0                0                
! Port Impedance         50               0                50               0                
12.8                           0.235865402908755 63.0302851273237 0.964116512311082 -25.1158381184104 0.964116512311082 -25.1158381184104 0.23586864764376 63.0260950246708 
! Gamma         0                0                0                0                
! Port Impedance         50               0                50               0                
12.9                           0.23748087285004 62.8508282181566 0.963699187651136 -25.3024715378124 0.963699187651135 -25.3024715378124 0.23748415947597 62.8465995857707 
! Gamma         0                0                0                0                
! Port Impedance         50               0                50               0                
13                             0.239092284105454 62.6714607407089 0.963280224169928 -25.4889428592163 0.963280224169928 -25.4889428592163 0.239095612796654 62.6671935211364 
! Gamma         0                0                0                0                
! Port Impedance         50               0                50               0                
13.1                           0.240699621572066 62.4921843388093 0.962859641347885 -25.6752514986854 0.962859641347885 -25.6752514986853 0.240702992502769 62.4878784743026 
! Gamma         0                0                0                0                
! Port Impedance         50               0                50               0                
13.2                           0.242302870301568 62.3130006330045 0.962437458787405 -25.8613968802336 0.962437458787405 -25.8613968802335 0.242306283645858 62.3086560654951 
! Gamma         0                0                0                0                
! Port Impedance         50               0                50               0                
13.3                           0.243902015501312 62.1339112209631 0.96201369620821 -26.0473784360066 0.962013696208209 -26.0473784360066 0.243905471433079 62.1295278920347 
! Gamma         0                0                0                0                
! Port Impedance         50               0                50               0                
13.4                           0.245497042535278 61.9549176778784 0.961588373442755 -26.2331956064535 0.961588373442755 -26.2331956064535 0.245500541228164 61.9504955287416 
! Gamma         0                0                0                0                
! Port Impedance         50               0                50               0                
13.5                           0.247087936924953 61.77602155687   0.961161510431686 -26.4188478404892 0.961161510431686 -26.4188478404892 0.247091478552293 61.7715605283379 
! Gamma         0                0                0                0                
! Port Impedance         50               0                50               0                
13.6                           0.248674684350153 61.5972243893841 0.960733127219347 -26.6043345956489 0.960733127219347 -26.6043345956489 0.248678269084912 61.5927244218488 
! Gamma         0                0                0                0                
! Port Impedance         50               0                50               0                
13.7                           0.250257270649785 61.4185276855902 0.960303243949343 -26.7896553382342 0.960303243949342 -26.7896553382342 0.250260898664484 61.4139887190008 
! Gamma         0                0                0                0                
! Port Impedance         50               0                50               0                
13.8                           0.251835681822544 61.2399329347759 0.959871880860152 -26.9748095434513 0.959871880860152 -26.9748095434512 0.251839353289184 61.2353549086171 
! Gamma         0                0                0                0                
! Port Impedance         50               0                50               0                
13.9                           0.253409904027554 61.0614416057369 0.959439058280798 -27.1597966955417 0.959439058280798 -27.1597966955416 0.253413619117533 61.0568244590092 
! Gamma         0                0                0                0                
! Port Impedance         50               0                50               0                
14                             0.254979923584972 60.8830551471641 0.959004796626571 -27.3446162879057 0.959004796626571 -27.3446162879057 0.254983682468993 60.8783988183646 
! Gamma         0                0                0                0                
! Port Impedance         50               0                50               0                
14.1                           0.256545726976527 60.7047749880255 0.958569116394804 -27.5292678232188 0.958569116394804 -27.5292678232188 0.256549529824506 60.7000794151297 
! Gamma         0                0                0                0                
! Port Impedance         50               0                50               0                
14.2                           0.258107300846031 60.5266025379428 0.958132038160703 -27.7137508135415 0.958132038160703 -27.7137508135415 0.258111147826995 60.5218676583879 
! Gamma         0                0                0                0                
! Port Impedance         50               0                50               0                
14.3                           0.259664631999841 60.3485391875639 0.957693582573239 -27.8980647804223 0.957693582573239 -27.8980647804222 0.25966852328182 60.3437649382331 
! Gamma         0                0                0                0                
! Port Impedance         50               0                50               0                
14.4                           0.261217707407282 60.1705863089285 0.957253770351081 -28.0822092549949 0.957253770351081 -28.0822092549948 0.261221643157202 60.1657726261362 
! Gamma         0                0                0                0                
! Port Impedance         50               0                50               0                
14.5                           0.262766514201038 59.9927452558292 0.9568126222786  -28.2661837780692 0.9568126222786  -28.2661837780692 0.262770494584603 59.9878920753072 
! Gamma         0                0                0                0                
! Port Impedance         50               0                50               0                
14.6                           0.264311039677511 59.8150173641657 0.956370159201917 -28.4499879002165 0.956370159201917 -28.4499879002165 0.264315064859082 59.8101246210505 
! Gamma         0                0                0                0                
! Port Impedance         50               0                50               0                
14.7                           0.265851271297142 59.6374039522926 0.955926402025008 -28.6336211818491 0.955926402025008 -28.6336211818491 0.265855341439611 59.6324715811139 
! Gamma         0                0                0                0                
! Port Impedance         50               0                50               0                
14.8                           0.267387196684711 59.4599063213616 0.95548137170587 -28.8170831932947 0.95548137170587 -28.8170831932947 0.26739131194937 59.4549342560317 
! Gamma         0                0                0                0                
! Port Impedance         50               0                50               0                
14.9                           0.268918803629598 59.2825257556564 0.955035089252733 -29.0003735148653 0.955035089252733 -29.0003735148653 0.26892296417601 59.2775139294604 
! Gamma         0                0                0                0                
! Port Impedance         50               0                50               0                
15                             0.270446080086033 59.1052635229209 0.954587575720333 -29.1834917369218 0.954587575720333 -29.1834917369218 0.270450286071887 59.1002118685086 
! Gamma         0                0                0                0                
! Port Impedance         50               0                50               0                
15.1                           0.271969014173306 58.9281208746816 0.954138852206238 -29.3664374599327 0.954138852206239 -29.3664374599328 0.271973265754278 58.9230293240592 
! Gamma         0                0                0                0                
! Port Impedance         50               0                50               0                
15.2                           0.273487594175965 58.7510990465614 0.953688939847229 -29.5492102945297 0.953688939847229 -29.5492102945297 0.273491891505571 58.7459675310854 
! Gamma         0                0                0                0                
! Port Impedance         50               0                50               0                
15.3                           0.275001808543982 58.5741992585881 0.953237859815729 -29.731809861557 0.95323785981573 -29.731809861557 0.275006151773431 58.5690277089595 
! Gamma         0                0                0                0                
! Port Impedance         50               0                50               0                
15.4                           0.276511645892909 58.3974227154954 0.952785633316299 -29.9142357921182 0.9527856333163  -29.9142357921182 0.276516035170947 58.3922110617547 
! Gamma         0                0                0                0                
! Port Impedance         50               0                50               0                
15.5                           0.278017095004005 58.2207706070163 0.952332281582174 -30.0964877276176 0.952332281582174 -30.0964877276176 0.278021530476759 58.21551877854   
! Gamma         0                0                0                0                
! Port Impedance         50               0                50               0                
15.6                           0.279518144824342 58.0442441081706 0.951877825871857 -30.2785653197982 0.951877825871857 -30.2785653197982 0.279522626635164 58.0389520336681 
! Gamma         0                0                0                0                
! Port Impedance         50               0                50               0                
15.7                           0.281014784466907 57.8678443795448 0.951422287465772 -30.4604682307759 0.951422287465773 -30.4604682307759 0.281019312756207 57.8625119870562 
! Gamma         0                0                0                0                
! Port Impedance         50               0                50               0                
15.8                           0.282507003210663 57.6915725675651 0.950965687662962 -30.6421961330696 0.950965687662962 -30.6421961330696 0.282511578115753 57.6861997844605 
! Gamma         0                0                0                0                
! Port Impedance         50               0                50               0                
15.9                           0.283994790500619 57.5154298047639 0.950508047777839 -30.823748709628 0.95050804777784 -30.823748709628 0.283999412155536 57.5100165577426 
! Gamma         0                0                0                0                
! Port Impedance         50               0                50               0                
16                             0.285478135947859 57.3394172100392 0.950049389136995 -31.0051256538529 0.950049389136996 -31.0051256538529 0.285482804483203 57.3339634251303 
! Gamma         0                0                0                0                
! Port Impedance         50               0                50               0                
16.1                           0.286957029329574 57.1635358889072 0.949589733076053 -31.1863266696192 0.949589733076054 -31.1863266696192 0.286961744872335 57.1580414914712 
! Gamma         0                0                0                0                
! Port Impedance         50               0                50               0                
16.2                           0.288431460589064 56.9877869337485 0.949129100936577 -31.3673514712917 0.949129100936578 -31.3673514712917 0.288436223262449 56.9822518484789 
! Gamma         0                0                0                0                
! Port Impedance         50               0                50               0                
16.3                           0.289901419835737 56.8121714240474 0.948667514063028 -31.5481997837386 0.948667514063029 -31.5481997837386 0.289906229758994 56.806595574974  
! Gamma         0                0                0                0                
! Port Impedance         50               0                50               0                
16.4                           0.291366897345084 56.6366904266251 0.948204993799777 -31.7288713423423 0.948204993799777 -31.7288713423423 0.291371754633327 56.6310737371172 
! Gamma         0                0                0                0                
! Port Impedance         50               0                50               0                
16.5                           0.292827883558642 56.4613449958657 0.947741561488158 -31.9093658930071 0.947741561488159 -31.9093658930072 0.292832788322675 56.4556873886367 
! Gamma         0                0                0                0                
! Port Impedance         50               0                50               0                
16.6                           0.294284369083947 56.286136173937  0.947277238463581 -32.0896831921646 0.947277238463582 -32.0896831921646 0.294289321430083 56.2804375710495 
! Gamma         0                0                0                0                
! Port Impedance         50               0                50               0                
16.7                           0.295736344694466 56.1110649910042 0.946812046052688 -32.2698230067752 0.946812046052688 -32.2698230067752 0.295741344724346 56.1053253138753 
! Gamma         0                0                0                0                
! Port Impedance         50               0                50               0                
16.8                           0.297183801329521 55.9361324654379 0.946346005570555 -32.4497851143288 0.946346005570556 -32.4497851143288 0.297188849139938 55.9303516348461 
! Gamma         0                0                0                0                
! Port Impedance         50               0                50               0                
16.9                           0.298626730094196 55.7613396040162 0.945879138317953 -32.6295693028415 0.945879138317954 -32.6295693028415 0.29863182577691 55.7555175401079 
! Gamma         0                0                0                0                
! Port Impedance         50               0                50               0                
17                             0.300065122259233 55.5866874021205 0.945411465578643 -32.8091753708505 0.945411465578644 -32.8091753708505 0.300070265900791 55.580824024418  
! Gamma         0                0                0                0                
! Port Impedance         50               0                50               0                
17.1                           0.301498969260912 55.412176843926  0.94494300861673 -32.9886031274068 0.944943008616731 -32.9886031274068 0.301504160942464 55.4062720713358 
! Gamma         0                0                0                0                
! Port Impedance         50               0                50               0                
17.2                           0.302928262700921 55.2378089025867 0.944473788674058 -33.1678523920653 0.944473788674059 -33.1678523920654 0.302933502498039 55.2318626534078 
! Gamma         0                0                0                0                
! Port Impedance         50               0                50               0                
17.3                           0.304352994346212 55.0635845404142 0.944003826967651 -33.3469229948732 0.944003826967651 -33.3469229948732 0.304358282328708 55.0575967323482 
! Gamma         0                0                0                0                
! Port Impedance         50               0                50               0                
17.4                           0.30577315612884 54.8895047090522 0.943533144687202 -33.5258147763556 0.943533144687202 -33.5258147763556 0.305778492360583 54.8834752592125 
! Gamma         0                0                0                0                
! Port Impedance         50               0                50               0                
17.5                           0.307188740145797 54.7155703496444 0.943061762992609 -33.7045275874999 0.94306176299261 -33.7045275874999 0.307194124684532 54.7094991745672 
! Gamma         0                0                0                0                
! Port Impedance         50               0                50               0                
17.6                           0.308599738658829 54.5417823929989 0.942589703011554 -33.8830612897376 0.942589703011555 -33.8830612897377 0.308605171555993 54.5356694086539 
! Gamma         0                0                0                0                
! Port Impedance         50               0                50               0                
17.7                           0.310006144094237 54.3681417597462 0.942116985837124 -34.061415754925 0.942116985837124 -34.061415754925 0.31001162539478 54.3619868815479 
! Gamma         0                0                0                0                
! Port Impedance         50               0                50               0                
17.8                           0.311407949042671 54.194649360493  0.94164363252548 -34.2395908653208 0.941643632525481 -34.2395908653208 0.311413478784875 54.1884525033129 
! Gamma         0                0                0                0                
! Port Impedance         50               0                50               0                
17.9                           0.312805146258913 54.0213060959715 0.941169664093572 -34.4175865135635 0.941169664093573 -34.4175865135636 0.31281072447421 54.0150671741502 
! Gamma         0                0                0                0                
! Port Impedance         50               0                50               0                
18                             0.314197728661636 53.8481128571837 0.940695101516889 -34.5954026026461 0.94069510151689 -34.5954026026462 0.314203355374432 53.8418317845436 
! Gamma         0                0                0                0                
! Port Impedance         50               0                50               0                
18.1                           0.315585689333167 53.6750705255412 0.940219965727261 -34.7730390458893 0.940219965727262 -34.7730390458893 0.315591364560664 53.6687472153996 
! Gamma         0                0                0                0                
! Port Impedance         50               0                50               0                
18.2                           0.316969021519223 53.5021799730007 0.939744277610696 -34.9504957669134 0.939744277610696 -34.9504957669135 0.31697474527124 53.4958143381837 
! Gamma         0                0                0                0                
! Port Impedance         50               0                50               0                
18.3                           0.318347718628644 53.329442062196  0.939268058005262 -35.1277726996089 0.939268058005263 -35.127772699609 0.318353490907445 53.3230340150519 
! Gamma         0                0                0                0                
! Port Impedance         50               0                50               0                
18.4                           0.319721774233112 53.1568576465644 0.938791327699014 -35.3048697881048 0.938791327699015 -35.3048697881048 0.319727595033227 53.1504070989782 
! Gamma         0                0                0                0                
! Port Impedance         50               0                50               0                
18.5                           0.32109118206685 52.9844275704707 0.938314107427955 -35.4817869867363 0.938314107427956 -35.4817869867364 0.321097051374909 52.9779344338786 
! Gamma         0                0                0                0                
! Port Impedance         50               0                50               0                
18.6                           0.322455936026325 52.8121526693262 0.937836417874042 -35.6585242600111 0.937836417874042 -35.6585242600111 0.32246185382088 52.8056168547307 
! Gamma         0                0                0                0                
! Port Impedance         50               0                50               0                
18.7                           0.323816030169919 52.6400337697049 0.93735827966323 -35.8350815825737 0.93735827966323 -35.8350815825737 0.323821996421279 52.6334551876895 
! Gamma         0                0                0                0                
! Port Impedance         50               0                50               0                
18.8                           0.325171458717604 52.4680716894548 0.936879713363559 -36.0114589391693 0.936879713363559 -36.0114589391694 0.325177473387669 52.4614502501998 
! Gamma         0                0                0                0                
! Port Impedance         50               0                50               0                
18.9                           0.326522216050599 52.2962672378073 0.936400739483275 -36.1876563246062 0.936400739483276 -36.1876563246062 0.326528279092689 52.2896028511055 
! Gamma         0                0                0                0                
! Port Impedance         50               0                50               0                
19                             0.32786829671101 52.1246212154817 0.935921378468996 -36.3636737437164 0.935921378468997 -36.3636737437165 0.327874408069706 52.1179137907542 
! Gamma         0                0                0                0                
! Port Impedance         50               0                50               0                
19.1                           0.329209695401469 51.9531344147874 0.93544165070391 -36.5395112113164 0.93544165070391 -36.5395112113165 0.329215855012449 51.9463838610999 
! Gamma         0                0                0                0                
! Port Impedance         50               0                50               0                
19.2                           0.330546406984749 51.7818076197226 0.934961576506015 -36.7151687521658 0.934961576506015 -36.7151687521658 0.330552614774632 51.7750138458018 
! Gamma         0                0                0                0                
! Port Impedance         50               0                50               0                
19.3                           0.331878426483379 51.6106416060696 0.934481176126394 -36.8906464009249 0.934481176126394 -36.8906464009249 0.331884682369562 51.6038045203198 
! Gamma         0                0                0                0                
! Port Impedance         50               0                50               0                
19.4                           0.333205749079235 51.439637141488  0.934000469747531 -37.0659442021124 0.934000469747532 -37.0659442021124 0.333212052969743 51.4327566520077 
! Gamma         0                0                0                0                
! Port Impedance         50               0                50               0                
19.5                           0.33452837011313 51.2687949856037 0.933519477481658 -37.2410622100608 0.933519477481659 -37.2410622100608 0.334534721906462 51.2618710002029 
! Gamma         0                0                0                0                
! Port Impedance         50               0                50               0                
19.6                           0.335846285084387 51.0981158900964 0.933038219369143 -37.4160004888717 0.933038219369143 -37.4160004888717 0.335852684669367 51.0911483163135 
! Gamma         0                0                0                0                
! Port Impedance         50               0                50               0                
19.7                           0.337159489650399 50.927600598784  0.932556715376909 -37.5907591123699 0.93255671537691 -37.5907591123699 0.337165936906026 50.9205893439029 
! Gamma         0                0                0                0                
! Port Impedance         50               0                50               0                
19.8                           0.33846797962618 50.7572498477036 0.932074985396895 -37.7653381640569 0.932074985396895 -37.7653381640569 0.338474474421487 50.7501948187715 
! Gamma         0                0                0                0                
! Port Impedance         50               0                50               0                
19.9                           0.339771750983908 50.5870643651917 0.931593049244541 -37.9397377370632 0.931593049244542 -37.9397377370632 0.339778293177816 50.579965469036  
! Gamma         0                0                0                0                
! Port Impedance         50               0                50               0                
20                             0.341070799852447 50.4170448719601 0.931110926657324 -38.1139579341002 0.931110926657324 -38.1139579341002 0.341077389293628 50.4099020152067 
! Gamma         0                0                -0               -0               
! Port Impedance         50               0                50               0                
