! Touchstone file exported from HFSS 2026.1.0
!        File:           C:/ffzhzh/LocalFiles/Ansys_Project_Files/temp_train_BSMRDL_1143_1783175508_22436.aedt
!        Generated:      10:33:04 PM Jul  4, 2026
!        Design:         BSMRDL
!        Project:        temp_train_BSMRDL_1143_1783175508_22436
!
! Variables:
!        h_bsmrdl = 4.35um
!        h_ox = 20um
!        h_rdl = 5um
!        h_sub = 80um
!        h_tmrdl = 5um
!        h_tsv = 80um
!        h_via = 3um
!        l_bsmrdl = 746.5um
!        l_sub = 1146.5um
!        l_tmrdl = 200um
!        m_sub = 200um
!        pitch = 37.54um
!        r_tsv = 6um
!        s_tmrdl = 10um
!        w_bsmrdl = 11.25um
!        w_sub = 500um
!        w_tmrdl = 12um
!        x_tsv_center1 = 206um
!        x_tsv_center2 = 963.75um
!        x_tsv_center3 = 1175.75um
!        x_tsv_center4 = 1933.5um
!        x_tsv_center5 = 2145.5um
!        x_tsv_center6 = 2903.25um
!
# GHz S MA R 50.000000
! Terminal data exported
! Port[1] = BSM_RDL1_1_T1
! Port[2] = BSM_RDL1_1_T2
0.1                            0.00643565898561568 32.7268585091632 0.99459809847332 -0.299963790321741 0.99459809847332 -0.299963790321743 0.00643565235401623 32.7270715460113 
! Gamma         0                0                0                0                
! Port Impedance         50               0                50               0                
0.2                            0.00887692250553933 51.2365182624677 0.994488800623665 -0.597738076349199 0.994488800623665 -0.597738076349184 0.00887689738702013 51.2368987917763 
! Gamma         0                0                0                0                
! Port Impedance         50               0                50               0                
0.3                            0.011812798349664 60.809030383503  0.994345060403301 -0.892588400385172 0.994345060403301 -0.892588400385132 0.0118127271015384 60.80968918198   
! Gamma         0                0                0                0                
! Port Impedance         50               0                50               0                
0.4                            0.0149179879971156 66.2879368775499 0.994191627114886 -1.18502740556234 0.994191627114887 -1.18502740556228 0.0149178566588413 66.288970089785  
! Gamma         0                0                0                0                
! Port Impedance         50               0                50               0                
0.5                            0.0180907144678787 69.7576406871231 0.994038798948373 -1.47589901939371 0.994038798948373 -1.47589901939366 0.0180905214379711 69.7590888655357 
! Gamma         0                0                0                0                
! Port Impedance         50               0                50               0                
0.6                            0.0212974558235416 72.1189825826205 0.993887784183204 -1.76586973418467 0.993887784183205 -1.76586973418464 0.0212972044580452 72.1208514869872 
! Gamma         0                0                0                0                
! Port Impedance         50               0                50               0                
0.7                            0.0245254533281281 73.8040645150497 0.993736288388465 -2.05534738612118 0.993736288388467 -2.05534738612117 0.0245251471311833 73.8063460601341 
! Gamma         0                0                0                0                
! Port Impedance         50               0                50               0                
0.8                            0.0277685322278714 75.043587152609  0.99358138535823 -2.34454977980057 0.993581385358231 -2.34454977980058 0.0277681730473104 75.0462704066581 
! Gamma         0                0                0                0                
! Port Impedance         50               0                50               0                
0.9                            0.0310228405972355 75.9724198583325 0.993420539687211 -2.63358129794984 0.993420539687212 -2.63358129794986 0.031022428376563 75.9754952966352 
! Gamma         0                0                0                0                
! Port Impedance         50               0                50               0                
1                              0.0342855376367554 76.6752640255028 0.993251817091717 -2.92248470603677 0.993251817091718 -2.9224847060368 0.0342850707162806 76.678724622658  
! Gamma         0                0                0                0                
! Port Impedance         50               0                50               0                
1.1                            0.0375543566009105 77.2083363598939 0.993073821520503 -3.21127107274375 0.993073821520504 -3.21127107274378 0.0375538321224562 77.2121774865869 
! Gamma         0                0                0                0                
! Port Impedance         50               0                50               0                
1.2                            0.0408274295817571 77.6105797123314 0.992885572652673 -3.49993590944969 0.992885572652673 -3.49993590944973 0.0408268438485263 77.614798690796  
! Gamma         0                0                0                0                
! Port Impedance         50               0                50               0                
1.3                            0.0441031949630345 77.9098978483024 0.992686393159242 -3.78846756645199 0.992686393159242 -3.78846756645202 0.044102543724524 77.9144934841065 
! Gamma         0                0                0                0                
! Port Impedance         50               0                50               0                
1.4                            0.0473803354140948 78.1268385700284 0.99247582148797 -4.07685148337539 0.99247582148797 -4.07685148337542 0.0473796140835593 78.1318107558906 
! Gamma         0                0                0                0                
! Port Impedance         50               0                50               0                
1.5                            0.0506577309130029 78.2768793488396 0.992253548836682 -4.36507227230074 0.992253548836682 -4.36507227230076 0.0506569347325798 78.2822287544933 
! Gamma         0                0                0                0                
! Port Impedance         50               0                50               0                
1.6                            0.0539344216042833 78.3719039659099 0.992019374962074 -4.653114686896  0.992019374962074 -4.65311468689601 0.0539335457712414 78.3776318025805 
! Gamma         0                0                0                0                
! Port Impedance         50               0                50               0                
1.7                            0.057209578150834 78.4211887194568 0.991773177589165 -4.94096403031179 0.991773177589165 -4.94096403031179 0.0572086179149171 78.4272965626891 
! Gamma         0                0                0                0                
! Port Impedance         50               0                50               0                
1.8                            0.0604824780716518 78.4320796647235 0.991514891308073 -5.22860628935973 0.991514891308073 -5.22860628935972 0.0604814288103818 78.4385693210545 
! Gamma         0                0                0                0                
! Port Impedance         50               0                50               0                
1.9                            0.0637524868818268 78.4104688230201 0.991244492979517 -5.51602814288451 0.991244492979517 -5.5160281428845 0.0637513441583677 78.4173422292126 
! Gamma         0                0                0                0                
! Port Impedance         50               0                50               0                
2                              0.0670190430592956 78.3611359531507 0.990961991571211 -5.80321691895451 0.990961991571211 -5.80321691895449 0.0670178026659646 78.3683950996792 
! Gamma         0                0                0                0                
! Port Impedance         50               0                50               0                
2.1                            0.0702816460389015 78.2879982725216 0.990667421002137 -6.09016053718406 0.990667421002138 -6.09016053718403 0.0702803040284563 78.2956451453428 
! Gamma         0                0                0                0                
! Port Impedance         50               0                50               0                
2.2                            0.0735398465894634 78.1942958412377 0.990360835029271 -6.37684745267156 0.990360835029272 -6.37684745267153 0.0735383992957151 78.2023323775841 
! Gamma         0                0                0                0                
! Port Impedance         50               0                50               0                
2.3                            0.0767932390622909 78.0827311559028 0.990042303524738 -6.66326660798664 0.990042303524739 -6.66326660798661 0.0767916831112584 78.0911592110433 
! Gamma         0                0                0                0                
! Port Impedance         50               0                50               0                
2.4                            0.0800414551092948 77.9555756221816 0.989711909703962 -6.94940739474425 0.989711909703962 -6.94940739474421 0.080039787421939 77.964396944928  
! Gamma         0                0                0                0                
! Port Impedance         50               0                50               0                
2.5                            0.0832841585571489 77.8147517190805 0.989369748008761 -7.23525962409724 0.989369748008762 -7.23525962409721 0.083282376344632 77.8239679343935 
! Gamma         0                0                0                0                
! Port Impedance         50               0                50               0                
2.6                            0.0865210411937488 77.6618970862231 0.989015922445834 -7.52081350464415 0.989015922445835 -7.52081350464412 0.0865191419461286 77.6715096836634 
! Gamma         0                0                0                0                
! Port Impedance         50               0                50               0                
2.7                            0.0897518192777238 77.4984150053377 0.988650545245916 -7.80605962608316 0.988650545245917 -7.80605962608314 0.0897498007469788 77.5084253323796 
! Gamma         0                0                0                0                
! Port Impedance         50               0                50               0                
2.8                            0.0929762306240198 77.3255145275135 0.988273735752443 -8.09098894707906 0.988273735752444 -8.09098894707904 0.0929740908022927 77.3359237869244 
! Gamma         0                0                0                0                
! Port Impedance         50               0                50               0                
2.9                            0.0961940321512056 77.1442426399864 0.987885619477852 -8.37559278605699 0.987885619477853 -8.37559278605697 0.0961917692451448 77.1550518906074 
! Gamma         0                0                0                0                
! Port Impedance         50               0                50               0                
3                              0.0994049978013079 76.9555102547144 0.987486327285275 -8.65986281390307 0.987486327285276 -8.65986281390306 0.0994026102033725 76.9667204150729 
! Gamma         0                0                0                0                
! Port Impedance         50               0                50               0                
3.1                            0.102608916762363 76.76011335963   0.987075994666669 -8.94379104779572 0.987075994666671 -8.94379104779571 0.102606403019926 76.7717252138859 
! Gamma         0                0                0                0                
! Port Impedance         50               0                50               0                
3.2                            0.105805591938815 76.5587503512167 0.986654761097327 -9.2273698455972 0.986654761097328 -9.22736984559719 0.105802950721865 76.570764556999  
! Gamma         0                0                0                0                
! Port Impedance         50               0                50               0                
3.3                            0.10899483862644 76.3520363292743 0.986222769452713 -9.51059190040064 0.986222769452715 -9.51059190040065 0.108992068694633 76.3644534270127 
! Gamma         0                0                0                0                
! Port Impedance         50               0                50               0                
3.4                            0.112176483357398 76.1405149575461 0.985780165477687 -9.793450234957  0.985780165477688 -9.79345023495702 0.112173583527146 76.1533353809382 
! Gamma         0                0                0                0                
! Port Impedance         50               0                50               0                
3.5                            0.115350362887954 75.9246683606072 0.985327097300884 -10.075938195804 0.985327097300885 -10.075938195804 0.115347332000183 75.9378924479024 
! Gamma         0                0                0                0                
! Port Impedance         50               0                50               0                
3.6                            0.118516323306793 75.7049254263123 0.98486371498896 -10.3580494469925 0.984863714988961 -10.3580494469925 0.118513160195923 75.7185534321214 
! Gamma         0                0                0                0                
! Port Impedance         50               0                50               0                
3.7                            0.121674219246076 75.4816688057739 0.984390170136641 -10.6397779633584 0.984390170136642 -10.6397779633584 0.121670922710704 75.4957009131508 
! Gamma         0                0                0                0                
! Port Impedance         50               0                50               0                
3.8                            0.12482391318066 75.2552408432541 0.983906615489449 -10.9211180233268 0.98390661548945 -10.9211180233268 0.124820481956347 75.2696771758209 
! Gamma         0                0                0                0                
! Port Impedance         50               0                50               0                
3.9                            0.127965274803514 75.0259486220903 0.983413204596555 -11.2020642012604 0.983413204596556 -11.2020642012604 0.127961707538014 75.0407892560097 
! Gamma         0                0                0                0                
! Port Impedance         50               0                50               0                
4                              0.131098180467408 74.7940682766251 0.982910091491667 -11.4826113593841 0.982910091491668 -11.4826113593842 0.13109447569858 74.8093132522504 
! Gamma         0                0                0                0                
! Port Impedance         50               0                50               0                
4.1                            0.134222512684576 74.5598486916709 0.982397430400144 -11.7627546393268 0.982397430400144 -11.7627546393269 0.13421866882117 74.5754980247308 
! Gamma         0                0                0                0                
! Port Impedance         50               0                50               0                
4.2                            0.137338159677339 74.3235146885285 0.981875375470747 -12.0424894533304 0.981875375470748 -12.0424894533304 0.137334174982775 74.3395683807287 
! Gamma         0                0                0                0                
! Port Impedance         50               0                50               0                
4.3                            0.140445014973756 74.0852697786615 0.981344080530626 -12.3218114751786 0.981344080530627 -12.3218114751787 0.140440887552941 74.1017278276084 
! Gamma         0                0                0                0                
! Port Impedance         50               0                50               0                
4.4                            0.143542977043165 73.8452985517761 0.980803698862209 -12.6007166309002 0.98080369886221 -12.6007166309003 0.143538704832355 73.8621609601516 
! Gamma         0                0                0                0                
! Port Impedance         50               0                50               0                
4.5                            0.14663194896721 73.6037687535151 0.9802543830008  -12.8792010892992 0.9802543830008  -12.8792010892992 0.146627529726861 73.6210355374482 
! Gamma         0                0                0                0                
! Port Impedance         50               0                50               0                
4.6                            0.149711838142491 73.3608330986247 0.979696284551729 -13.1572612523649 0.97969628455173 -13.1572612523649 0.14970726945301 73.378504295226  
! Gamma         0                0                0                0                
! Port Impedance         50               0                50               0                
4.7                            0.152782556011461 73.1166308578616 0.979129554025976 -13.4348937456117 0.979129554025977 -13.4348937456117 0.152777835271722 73.1347065319036 
! Gamma         0                0                0                0                
! Port Impedance         50               0                50               0                
4.8                            0.155844017818583 72.8712892507027 0.97855434069322 -13.7120954083942 0.978554340693221 -13.7120954083942 0.15583914224704 72.8897695004404 
! Gamma         0                0                0                0                
! Port Impedance         50               0                50               0                
4.9                            0.158896142389096 72.6249246708269 0.97797079245132 -13.9888632842423 0.97797079245132 -13.9888632842423 0.158891109027325 72.6438096329686 
! Gamma         0                0                0                0                
! Port Impedance         50               0                50               0                
5                              0.161938851928046 72.3776437671435 0.977379055711264 -14.2651946112557 0.977379055711265 -14.2651946112557 0.16193365764648 72.3969336209905 
! Gamma         0                0                0                0                
! Port Impedance         50               0                50               0                
5.1                            0.164972071837446 72.1295443996681 0.976779275296661 -14.5410868125947 0.976779275296662 -14.5410868125948 0.164966713343119 72.1492393704525 
! Gamma         0                0                0                0                
! Port Impedance         50               0                50               0                
5.2                            0.167995730549707 71.8807164866629 0.976171594356866 -14.8165374871007 0.976171594356866 -14.8165374871007 0.167990204395749 71.900816848118  
! Gamma         0                0                0                0                
! Port Impedance         50               0                50               0                
5.3                            0.171009759375615 71.6312427570465 0.975556154292881 -15.0915444000758 0.975556154292881 -15.0915444000759 0.171004061972279 71.6517488332534 
! Gamma         0                0                0                0                
! Port Impedance         50               0                50               0                
5.4                            0.174014092365344 71.3811994200673 0.974933094695196 -15.3661054742488 0.974933094695196 -15.3661054742489 0.174008219992332 71.4021115866226 
! Gamma         0                0                0                0                
! Port Impedance         50               0                50               0                
5.5                            0.177008666181122 71.130656762536  0.974302553292737 -15.6402187809498 0.974302553292736 -15.6402187809498 0.177002615000977 71.1519754470906 
! Gamma         0                0                0                0                
! Port Impedance         50               0                50               0                
5.6                            0.179993419980322 70.8796796824847 0.973664665912165 -15.9138825315153 0.973664665912165 -15.9138825315153 0.179987186052658 70.9014053647062 
! Gamma         0                0                0                0                
! Port Impedance         50               0                50               0                
5.7                            0.182968295307853 70.6283281669118 0.973019566446759 -16.1870950689402 0.973019566446759 -16.1870950689402 0.182961874604217 70.650461377923  
! Gamma         0                0                0                0                
! Port Impedance         50               0                50               0                
5.8                            0.185933235996867 70.3766577202434 0.972367386834151 -16.4598548597918 0.972367386834151 -16.4598548597918 0.185926624416016 70.3991990415913 
! Gamma         0                0                0                0                
! Port Impedance         50               0                50               0                
5.9                            0.188888188076871 70.1247197492679 0.971708257042226 -16.7321604863985 0.971708257042226 -16.7321604863985 0.188881381460278 70.1476698114752 
! Gamma         0                0                0                0                
! Port Impedance         50               0                50               0                
6                              0.191833099688441 69.8725619095538 0.971042305062519 -17.0040106393223 0.971042305062518 -17.0040106393223 0.191826093835849 69.8959213903065 
! Gamma         0                0                0                0                
! Port Impedance         50               0                50               0                
6.1                            0.194767921003832 69.6202284177199 0.970369656910448 -17.2754041101235 0.970369656910448 -17.2754041101235 0.194760711688685 69.6439980397408 
! Gamma         0                0                0                0                
! Port Impedance         50               0                50               0                
6.2                            0.197692604152814 69.3677603333778 0.969690436631807 -17.5463397844229 0.969690436631807 -17.5463397844229 0.197685187137419 69.3919408620352 
! Gamma         0                0                0                0                
! Port Impedance         50               0                50               0                
6.3                            0.200607103153186 69.1151958140932 0.969004766314892 -17.8168166352656 0.969004766314892 -17.8168166352656 0.200599474203467 69.139788054791  
! Gamma         0                0                0                0                
! Port Impedance         50               0                50               0                
6.4                            0.203511373845442 68.8625703463019 0.968312766107746 -18.0868337167872 0.968312766107745 -18.0868337167872 0.203503528745169 68.8875751416954 
! Gamma         0                0                0                0                
! Port Impedance         50               0                50               0                
6.5                            0.206405373831142 68.6099169547642 0.967614554239962 -18.356390158185 0.967614554239961 -18.356390158185 0.206397308395523 68.6353351818425 
! Gamma         0                0                0                0                
! Port Impedance         50               0                50               0                
6.6                            0.209289062414594 68.3572663928339 0.966910247048575 -18.6254851579906 0.966910247048575 -18.6254851579906 0.20928077250314 68.3830989599081 
! Gamma         0                0                0                0                
! Port Impedance         50               0                50               0                
6.7                            0.212162400547478 68.1046473155488 0.966199959007545 -18.894117978644 0.966199959007545 -18.894117978644 0.212153882076073 68.1308951591798 
! Gamma         0                0                0                0                
! Port Impedance         50               0                50               0                
6.8                            0.215025350776125 67.8520864373199 0.965483802760409 -19.1622879413634 0.965483802760408 -19.1622879413634 0.215016599728227 67.8787505192203 
! Gamma         0                0                0                0                
! Port Impedance         50               0                50               0                
6.9                            0.21787787719116 67.5996086757902 0.964761889155667 -19.4299944213085 0.964761889155667 -19.4299944213085 0.217868889628083 67.6266899797281 
! Gamma         0                0                0                0                
! Port Impedance         50               0                50               0                
7                              0.220719945379284 67.3472372832585 0.96403432728453 -19.6972368430298 0.964034327284529 -19.6972368430298 0.220710717449538 67.3747368119906 
! Gamma         0                0                0                0                
! Port Impedance         50               0                50               0                
7.1                            0.223551522376985 67.0949939669058 0.963301224520644 -19.964014676199 0.963301224520644 -19.964014676199 0.223542050324628 67.1229127391635 
! Gamma         0                0                0                0                
! Port Impedance         50               0                50               0                
7.2                            0.226372576626001 66.8428989989258 0.962562686561469 -20.2303274316129 0.962562686561468 -20.2303274316129 0.226362856798004 66.8712380464747 
! Gamma         0                0                0                0                
! Port Impedance         50               0                50               0                
7.3                            0.229183077930386 66.5909713175407 0.961818817470979 -20.4961746574633 0.961818817470979 -20.4961746574633 0.229173106782994 66.6197316823323 
! Gamma         0                0                0                0                
! Port Impedance         50               0                50               0                
7.4                            0.231982997415035 66.3392286197764 0.961069719723411 -20.7615559358651 0.96106971972341 -20.7615559358651 0.231972771519136 66.3684113512077 
! Gamma         0                0                0                0                
! Port Impedance         50               0                50               0                
7.5                            0.234772307485573 66.0876874467788 0.960315494247762 -21.0264708796343 0.960315494247761 -21.0264708796343 0.234761823531082 66.117293599073  
! Gamma         0                0                0                0                
! Port Impedance         50               0                50               0                
7.6                            0.237550981789497 65.8363632623696 0.959556240472821 -21.2909191293065 0.959556240472821 -21.2909191293064 0.237540236588777 65.8663938920886 
! Gamma         0                0                0                0                
! Port Impedance         50               0                50               0                
7.7                            0.240318995178504 65.5852705254651 0.958792056372483 -21.554900350387 0.958792056372482 -21.554900350387 0.240307985668843 65.6157266891648 
! Gamma         0                0                0                0                
! Port Impedance         50               0                50               0                
7.8                            0.24307632367192 65.3344227569216 0.958023038511135 -21.8184142308242 0.958023038511135 -21.8184142308241 0.243065046917109 65.3653055089535 
! Gamma         0                0                0                0                
! Port Impedance         50               0                50               0                
7.9                            0.245822944421197 65.0838326013052 0.957249282088949 -22.0814604786953 0.957249282088949 -22.0814604786953 0.245811397612226 65.1151429917739 
! Gamma         0                0                0                0                
! Port Impedance         50               0                50               0                
8                              0.248558835675403 64.8335118840423 0.956470880986882 -22.3440388200968 0.956470880986882 -22.3440388200967 0.248547016130338 64.8652509569187 
! Gamma         0                0                0                0                
! Port Impedance         50               0                50               0                
8.1                            0.251283976747695 64.5834716643535 0.955687927811243 -22.6061489972281 0.955687927811243 -22.606148997228 0.251271881910756 64.6156404557487 
! Gamma         0                0                0                0                
! Port Impedance         50               0                50               0                
8.2                            0.253998347982715 64.3337222843377 0.954900513937694 -22.8677907666614 0.954900513937694 -22.8677907666614 0.253985975422621 64.3663218209367 
! Gamma         0                0                0                0                
! Port Impedance         50               0                50               0                
8.3                            0.256701930724908 64.0842734145355 0.954108729554538 -23.1289638977864 0.954108729554538 -23.1289638977864 0.256689278132528 64.1173047121911 
! Gamma         0                0                0                0                
! Port Impedance         50               0                50               0                
8.4                            0.259394707287717 63.8351340962694 0.953312663705219 -23.3896681714215 0.953312663705219 -23.3896681714215 0.259381772473085 63.8685981587542 
! Gamma         0                0                0                0                
! Port Impedance         50               0                50               0                
8.5                            0.262076660923662 63.5863127810288 0.952512404329906 -23.6499033785825 0.952512404329906 -23.6499033785824 0.262063441812397 63.6202105989436 
! Gamma         0                0                0                0                
! Port Impedance         50               0                50               0                
8.6                            0.264747775795267 63.3378173671426 0.951708038306102 -23.9096693193996 0.951708038306102 -23.9096693193996 0.264734270424461 63.3721499169774 
! Gamma         0                0                0                0                
! Port Impedance         50               0                50               0                
8.7                            0.267408036946834 63.0896552339596 0.950899651488187 -24.1689658021746 0.950899651488187 -24.1689658021745 0.267394243460456 63.1244234773026 
! Gamma         0                0                0                0                
! Port Impedance         50               0                50               0                
8.8                            0.27005743027705 62.8418332737348 0.950087328745853 -24.4277926425684 0.950087328745854 -24.4277926425684 0.270043346920926 62.8770381566261 
! Gamma         0                0                0                0                
! Port Impedance         50               0                50               0                
8.9                            0.272695942512429 62.594357921403  0.949271154001369 -24.6861496629125 0.949271154001369 -24.6861496629124 0.272681567628835 62.6300003738264 
! Gamma         0                0                0                0                
! Port Impedance         50               0                50               0                
9                              0.275323561181561 62.3472351824037 0.948451210265635 -24.9440366916345 0.948451210265635 -24.9440366916345 0.275308893203497 62.3833161179119 
! Gamma         0                0                0                0                
! Port Impedance         50               0                50               0                
9.1                            0.277940274590182 62.1004706587057 0.947627579672996 -25.2014535627919 0.947627579672997 -25.2014535627918 0.277925312035369 62.1369909741719 
! Gamma         0                0                0                0                
! Port Impedance         50               0                50               0                
9.2                            0.280546071797045 61.854069573168  0.946800343514799 -25.4584001157045 0.946800343514799 -25.4584001157045 0.280530813261697 61.8910301486583 
! Gamma         0                0                0                0                
! Port Impedance         50               0                50               0                
9.3                            0.283140942590589 61.6080367923596 0.945969582271653 -25.7148761946806 0.945969582271653 -25.7148761946805 0.283125386743006 61.6454384911199 
! Gamma         0                0                0                0                
! Port Impedance         50               0                50               0                
9.4                            0.285724877466403 61.3623768479525 0.94513537564441 -25.9708816488274 0.945135375644411 -25.9708816488274 0.285709023040434 61.4002205165018 
! Gamma         0                0                0                0                
! Port Impedance         50               0                50               0                
9.5                            0.288297867605471 61.1170939567889 0.944297802583843 -26.226416331942 0.944297802583844 -26.2264163319419 0.288281713393888 61.1553804251142 
! Gamma         0                0                0                0                
! Port Impedance         50               0                50               0                
9.6                            0.290859904853197 60.8721920397191 0.943456941319026 -26.4814801024734 0.943456941319026 -26.4814801024734 0.290843449701023 60.9109221215632 
! Gamma         0                0                0                0                
! Port Impedance         50               0                50               0                
9.7                            0.293410981699194 60.6276747392943 0.942612869384424 -26.7360728235528 0.942612869384424 -26.7360728235528 0.293394224497029 60.6668492325304 
! Gamma         0                0                0                0                
! Port Impedance         50               0                50               0                
9.8                            0.295951091257838 60.3835454363946 0.94176566364571 -26.9901943630832 0.941765663645711 -26.9901943630832 0.295934030935219 60.4231651234815 
! Gamma         0                0                0                0                
! Port Impedance         50               0                50               0                
9.9                            0.298480227249567 60.139807265864  0.940915400324308 -27.2438445938854 0.940915400324309 -27.2438445938854 0.298462862768394 60.1798729143738 
! Gamma         0                0                0                0                
! Port Impedance         50               0                50               0                
10                             0.300998383982926 59.8964631312194 0.940062155020692 -27.4970233938934 0.940062155020692 -27.4970233938934 0.300980714330991 59.9369754944324 
! Gamma         0                0                0                0                
! Port Impedance         50               0                50               0                
10.1                           0.303505556337333 59.6535157184947 0.939206002736457 -27.7497306463956 0.939206002736458 -27.7497306463955 0.303487580521987 59.6944755360542 
! Gamma         0                0                0                0                
! Port Impedance         50               0                50               0                
10.2                           0.306001739746565 59.4109675092765 0.938347017895193 -28.0019662403156 0.938347017895194 -28.0019662403156 0.305983456788545 59.4523755078974 
! Gamma         0                0                0                0                
! Port Impedance         50               0                50               0                
10.3                           0.30848693018295 59.1688207929835 0.937485274362171 -28.2537300705303 0.937485274362173 -28.2537300705303 0.308468339110402 59.2106776872083 
! Gamma         0                0                0                0                
! Port Impedance         50               0                50               0                
10.4                           0.310961124142245 58.9270776784369 0.936620845462896 -28.5050220382185 0.936620845462897 -28.5050220382185 0.310942223984956 58.969384171434  
! Gamma         0                0                0                0                
! Port Impedance         50               0                50               0                
10.5                           0.313424318629195 58.6857401047673 0.935753804000523 -28.7558420512384 0.935753804000524 -28.7558420512384 0.313405108413069 58.7284968891648 
! Gamma         0                0                0                0                
! Port Impedance         50               0                50               0                
10.6                           0.315876511143751 58.4448098516983 0.934884222272207 -29.0061900245289 0.934884222272208 -29.0061900245289 0.315856989885536 58.4880176104484 
! Gamma         0                0                0                0                
! Port Impedance         50               0                50               0                
10.7                           0.318317699667933 58.2042885492457 0.934012172084381 -29.256065880532 0.934012172084382 -29.256065880532 0.318297866370233 58.2479479565139 
! Gamma         0                0                0                0                
! Port Impedance         50               0                50               0                
10.8                           0.320747882653329 57.9641776868656 0.933137724767024 -29.5054695496326 0.933137724767025 -29.5054695496326 0.320727736299903 58.0082894089408 
! Gamma         0                0                0                0                
! Port Impedance         50               0                50               0                
10.9                           0.323167059009199 57.7244786220873 0.932260951186935 -29.7544009706126 0.932260951186936 -29.7544009706126 0.323146598560572 57.7690433183065 
! Gamma         0                0                0                0                
! Port Impedance         50               0                50               0                
11                             0.325575228091191 57.4851925886583 0.931381921760067 -30.0028600911172 0.931381921760068 -30.0028600911172 0.325554452480575 57.5302109123426 
! Gamma         0                0                0                0                
! Port Impedance         50               0                50               0                
11.1                           0.327972389690618 57.2463207042322 0.930500706462931 -30.2508468681298 0.930500706462932 -30.2508468681298 0.327951297820174 57.2917933036289 
! Gamma         0                0                0                0                
! Port Impedance         50               0                50               0                
11.2                           0.330358544024317 57.0078639776243 0.92961737484313 -30.498361268454 0.929617374843131 -30.498361268454 0.330337134761748 57.0537914968519 
! Gamma         0                0                0                0                
! Port Impedance         50               0                50               0                
11.3                           0.332733691725037 56.7698233156601 0.928731996029041 -30.7454032691994 0.928731996029042 -30.7454032691994 0.332711963900528 56.8162063956516 
! Gamma         0                0                0                0                
! Port Impedance         50               0                50               0                
11.4                           0.335097833832366 56.5321995296402 0.927844638738693 -30.9919728582705 0.927844638738694 -30.9919728582705 0.335075786235874 56.5790388090816 
! Gamma         0                0                0                0                
! Port Impedance         50               0                50               0                
11.5                           0.337450971784157 56.2949933414424 0.926955371287866 -31.2380700348549 0.926955371287867 -31.2380700348549 0.337428603163059 56.342289457703  
! Gamma         0                0                0                0                
! Port Impedance         50               0                50               0                
11.6                           0.339793107408454 56.0582053892813 0.926064261597453 -31.4836948099111 0.926064261597454 -31.4836948099111 0.339770416465545 56.1059589793331 
! Gamma         0                0                0                0                
! Port Impedance         50               0                50               0                
11.7                           0.342124242915879 55.8218362331447 0.925171377200113 -31.7288472066529 0.925171377200114 -31.7288472066529 0.342101228307733 55.8700479344668 
! Gamma         0                0                0                0                
! Port Impedance         50               0                50               0                
11.8                           0.344444380892484 55.5858863599239 0.92427678524626 -31.9735272610286 0.924276785246262 -31.9735272610286 0.344421041228169 55.6345568113914 
! Gamma         0                0                0                0                
! Port Impedance         50               0                50               0                
11.9                           0.346753524293033 55.3503561882552 0.923380552509407 -32.2177350221957 0.923380552509408 -32.2177350221957 0.346729858133184 55.3994860310075 
! Gamma         0                0                0                0                
! Port Impedance         50               0                50               0                
12                             0.349051676434698 55.1152460730872 0.922482745390905 -32.4614705529872 0.922482745390905 -32.4614705529872 0.349027682290941 55.1648359513766 
! Gamma         0                0                0                0                
! Port Impedance         50               0                50               0                
12.1                           0.351338840991162 54.8805563099901 0.921583429924118 -32.7047339303703 0.921583429924119 -32.7047339303703 0.351314517325887 54.9306068720056 
! Gamma         0                0                0                0                
! Port Impedance         50               0                50               0                
12.2                           0.353615021987097 54.6462871392189 0.920682671778046 -32.9475252458959 0.920682671778047 -32.9475252458959 0.353590367213576 54.696799037886  
! Gamma         0                0                0                0                
! Port Impedance         50               0                50               0                
12.3                           0.355880223793009 54.4124387495455 0.919780536260443 -33.1898446061376 0.919780536260444 -33.1898446061377 0.355855236275851 54.4634126432985 
! Gamma         0                0                0                0                
! Port Impedance         50               0                50               0                
12.4                           0.358134451120426 54.1790112818702 0.918877088320451 -33.4316921331202 0.918877088320452 -33.4316921331202 0.358109129176367 54.2304478353974 
! Gamma         0                0                0                0                
! Port Impedance         50               0                50               0                
12.5                           0.360377709017417 53.9460048326259 0.917972392550784 -33.6730679647361 0.917972392550785 -33.6730679647361 0.360352050916435 53.9979047175842 
! Gamma         0                0                0                0                
! Port Impedance         50               0                50               0                
12.6                           0.362610002864426 53.7134194569841 0.917066513189486 -33.9139722551499 0.917066513189486 -33.91397225515  0.362584006831166 53.7657833526842 
! Gamma         0                0                0                0                
! Port Impedance         50               0                50               0                
12.7                           0.364831338370392 53.4812551718747 0.91615951412129 -34.15440517519  0.916159514121291 -34.15440517519  0.364805002585909 53.5340837659345 
! Gamma         0                0                0                0                
! Port Impedance         50               0                50               0                
12.8                           0.367041721569157 53.2495119588284 0.915251458878616 -34.3943669127264 0.915251458878617 -34.3943669127265 0.367015044172951 53.3028059477943 
! Gamma         0                0                0                0                
! Port Impedance         50               0                50               0                
12.9                           0.369241158816133 53.0181897666509 0.91434241064221 -34.6338576730362 0.914342410642211 -34.6338576730363 0.369214137908477 53.0719498565867 
! Gamma         0                0                0                0                
! Port Impedance         50               0                50               0                
13                             0.371429656785217 52.7872885139388 0.913432432241472 -34.8728776791535 0.913432432241473 -34.8728776791536 0.371402290429764 52.8415154209806 
! Gamma         0                0                0                0                
! Port Impedance         50               0                50               0                
13.1                           0.373607222465938 52.5568080914438 0.912521586154482 -35.1114271722058 0.912521586154483 -35.1114271722059 0.373579508692595 52.6115025423219 
! Gamma         0                0                0                0                
! Port Impedance         50               0                50               0                
13.2                           0.375773863160821 52.3267483642939 0.911609934507758 -35.3495064117363 0.911609934507758 -35.3495064117363 0.375745799968886 52.381911096821  
! Gamma         0                0                0                0                
! Port Impedance         50               0                50               0                
13.3                           0.377929586482955 52.09710917408   0.910697539075751 -35.5871156760105 0.910697539075752 -35.5871156760106 0.377901171844496 52.1527409376044 
! Gamma         0                0                0                0                
! Port Impedance         50               0                50               0                
13.4                           0.380074400353755 51.8678903408126 0.909784461280123 -35.8242552623092 0.909784461280123 -35.8242552623092 0.380045632217225 51.9239918966385 
! Gamma         0                0                0                0                
! Port Impedance         50               0                50               0                
13.5                           0.382208313000885 51.6390916647584 0.908870762188796 -36.0609254872055 0.908870762188797 -36.0609254872056 0.38217918929497 51.6956637865311 
! Gamma         0                0                0                0                
! Port Impedance         50               0                50               0                
13.6                           0.384331332956364 51.4107129281594 0.907956502514827 -36.2971266868283 0.907956502514828 -36.2971266868284 0.38430185159403 51.4677564022177 
! Gamma         0                0                0                0                
! Port Impedance         50               0                50               0                
13.7                           0.386443469054803 51.1827538968447 0.907041742615097 -36.5328592171093 0.907041742615097 -36.5328592171093 0.386413627937558 51.2402695225385 
! Gamma         0                0                0                0                
! Port Impedance         50               0                50               0                
13.8                           0.388544730431796 50.9552143217373 0.906126542488846 -36.7681234540166 0.906126542488847 -36.7681234540167 0.38851452745413 51.0132029117127 
! Gamma         0                0                0                0                
! Port Impedance         50               0                50               0                
13.9                           0.390635126522424 50.7280939402631 0.905210961776077 -37.0029197937731 0.905210961776077 -37.0029197937732 0.390604559576434 50.786556320714  
! Gamma         0                0                0                0                
! Port Impedance         50               0                50               0                
14                             0.392714667059882 50.501392477667  0.904295059755824 -37.23724865306  0.904295059755824 -37.2372486530601 0.392683734040061 50.5603294885545 
! Gamma         0                0                0                0                
! Port Impedance         50               0                50               0                
14.1                           0.394783362074209 50.2751096482407 0.903378895344324 -37.4711104692061 0.903378895344324 -37.4711104692062 0.394752060882387 50.3345221434802 
! Gamma         0                0                0                0                
! Port Impedance         50               0                50               0                
14.2                           0.396841221891108 50.0492451564674 0.902462527093087 -37.7045057003628 0.902462527093087 -37.7045057003629 0.396809550441538 50.109134004084  
! Gamma         0                0                0                0                
! Port Impedance         50               0                50               0                
14.3                           0.398888257130854 49.823798698087  0.901546013186893 -37.9374348256647 0.901546013186893 -37.9374348256648 0.398856213355426 49.8841647803406 
! Gamma         0                0                0                0                
! Port Impedance         50               0                50               0                
14.4                           0.400924478707273 49.5987699610875 0.900629411441715 -38.1698983453766 0.900629411441716 -38.1698983453767 0.400892060560853 49.6596141745668 
! Gamma         0                0                0                0                
! Port Impedance         50               0                50               0                
14.5                           0.402949897826793 49.3741586266246 0.8997127793026  -38.4018967810266 0.8997127793026  -38.4018967810267 0.40291710329266 49.435481882312  
! Gamma         0                0                0                0                
! Port Impedance         50               0                50               0                
14.6                           0.404964525987537 49.1499643698753 0.898796173841488 -38.6334306755254 0.898796173841488 -38.6334306755255 0.404931353082926 49.2117675931828 
! Gamma         0                0                0                0                
! Port Impedance         50               0                50               0                
14.7                           0.406968374978482 48.9261868608281 0.897879651755025 -38.8645005932731 0.897879651755025 -38.8645005932732 0.406934821760211 48.9884709916048 
! Gamma         0                0                0                0                
! Port Impedance         50               0                50               0                
14.8                           0.408961456878646 48.7028257650129 0.89696326936233 -39.0951071202521 0.89696326936233 -39.0951071202521 0.408927521448815 48.7655917575256 
! Gamma         0                0                0                0                
! Port Impedance         50               0                50               0                
14.9                           0.410943784056313 48.4798807441754 0.896047082602769 -39.325250864108 0.896047082602769 -39.3252508641081 0.410909464568067 48.543129567062  
! Gamma         0                0                0                0                
! Port Impedance         50               0                50               0                
15                             0.412915369168281 48.2573514568976 0.89513114703372 -39.5549324542178 0.89513114703372 -39.5549324542179 0.412880663831633 48.321084093095  
! Gamma         0                0                0                0                
! Port Impedance         50               0                50               0                
15.1                           0.414876225159135 48.0352375591679 0.894215517828343 -39.7841525417457 0.894215517828342 -39.7841525417458 0.414841132246826 48.0994550058149 
! Gamma         0                0                0                0                
! Port Impedance         50               0                50               0                
15.2                           0.416826365260527 47.8135387049043 0.893300249773368 -40.0129117996877 0.893300249773367 -40.0129117996877 0.416790883113926 47.8782419732202 
! Gamma         0                0                0                0                
! Port Impedance         50               0                50               0                
15.3                           0.418765802990465 47.592254546432  0.892385397266907 -40.2412109229035 0.892385397266907 -40.2412109229036 0.418729930025487 47.6574446615724 
! Gamma         0                0                0                0                
! Port Impedance         50               0                50               0                
15.4                           0.420694552152604 47.3713847349198 0.891471014316294 -40.4690506281387 0.891471014316293 -40.4690506281388 0.42065828686565 47.4370627358092 
! Gamma         0                0                0                0                
! Port Impedance         50               0                50               0                
15.5                           0.422612626835532 47.1509289207757 0.890557154535956 -40.6964316540348 0.890557154535955 -40.6964316540348 0.422575967809431 47.2170958599193 
! Gamma         0                0                0                0                
! Port Impedance         50               0                50               0                
15.6                           0.424520041412054 46.9308867540062 0.889643871145338 -40.9233547611287 0.889643871145338 -40.9233547611287 0.424482987322001 46.9975436972803 
! Gamma         0                0                0                0                
! Port Impedance         50               0                50               0                
15.7                           0.426416810538448 46.7112578845394 0.888731216966869 -41.1498207318428 0.888731216966868 -41.1498207318429 0.426379360157936 46.7784059109625 
! Gamma         0                0                0                0                
! Port Impedance         50               0                50               0                
15.8                           0.42830294915372 46.4920419625154 0.887819244423976 -41.3758303704641 0.887819244423976 -41.3758303704642 0.428265101360448 46.5596821639999 
! Gamma         0                0                0                0                
! Port Impedance         50               0                50               0                
15.9                           0.430178472478827 46.2732386385459 0.886908005539173 -41.6013845031138 0.886908005539173 -41.6013845031139 0.430140226260582 46.341372119632  
! Gamma         0                0                0                0                
! Port Impedance         50               0                50               0                
16                             0.432043396015881 46.0548475639441 0.885997551932197 -41.8264839777081 0.885997551932196 -41.8264839777082 0.432004750476384 46.1234754415161 
! Gamma         0                0                0                0                
! Port Impedance         50               0                50               0                
16.1                           0.433897735547317 45.8368683909273 0.885087934818215 -42.0511296639091 0.885087934818214 -42.0511296639092 0.433858689912029 45.905991793914  
! Gamma         0                0                0                0                
! Port Impedance         50               0                50               0                
16.2                           0.435741507135037 45.6193007727944 0.884179205006111 -42.2753224530677 0.88417920500611 -42.2753224530678 0.435702060756914 45.688920841853  
! Gamma         0                0                0                0                
! Port Impedance         50               0                50               0                
16.3                           0.437574727119519 45.4021443640782 0.883271412896836 -42.4990632581576 0.883271412896835 -42.4990632581576 0.43753487948471 45.4722622512647 
! Gamma         0                0                0                0                
! Port Impedance         50               0                50               0                
16.4                           0.439397412118879 45.1853988206765 0.882364608481838 -42.722353013701 0.882364608481837 -42.7223530137011 0.439357162852365 45.2560156891009 
! Gamma         0                0                0                0                
! Port Impedance         50               0                50               0                
16.5                           0.441209579027911 44.9690637999616 0.881458841341579 -42.9451926756874 0.881458841341578 -42.9451926756875 0.44116892789907 45.0401808234306 
! Gamma         0                0                0                0                
! Port Impedance         50               0                50               0                
16.6                           0.443011245017067 44.7531389608695 0.880554160644126 -43.1675832214836 0.880554160644125 -43.1675832214836 0.442970191945167 44.824757323517  
! Gamma         0                0                0                0                
! Port Impedance         50               0                50               0                
16.7                           0.444802427531406 44.5376239639722 0.879650615143831 -43.3895256497373 0.879650615143831 -43.3895256497374 0.444760972591019 44.6097448598779 
! Gamma         0                0                0                0                
! Port Impedance         50               0                50               0                
16.8                           0.446583144289494 44.3225184715319 0.878748253180101 -43.6110209802736 0.8787482531801  -43.6110209802737 0.446541287715823 44.395143104329  
! Gamma         0                0                0                0                
! Port Impedance         50               0                50               0                
16.9                           0.448353413282256 44.1078221475395 0.877847122676248 -43.832070253985 0.877847122676247 -43.832070253985 0.448311155476371 44.1809517300128 
! Gamma         0                0                0                0                
! Port Impedance         50               0                50               0                
17                             0.450113252771782 43.8935346577391 0.876947271138437 -44.0526745327141 0.876947271138436 -44.0526745327142 0.450070594305761 43.9671704114133 
! Gamma         0                0                0                0                
! Port Impedance         50               0                50               0                
17.1                           0.451862681290082 43.6796556696375 0.876048745654724 -44.2728348991319 0.876048745654723 -44.2728348991319 0.451819622912054 43.7537988243576 
! Gamma         0                0                0                0                
! Port Impedance         50               0                50               0                
17.2                           0.453601717637793 43.4661848525028 0.875151592894183 -44.4925524566085 0.875151592894182 -44.4925524566086 0.453558260276873 43.5408366460054 
! Gamma         0                0                0                0                
! Port Impedance         50               0                50               0                
17.3                           0.455330380882836 43.2531218773495 0.874255859106127 -44.7118283290799 0.874255859106126 -44.7118283290799 0.455286525653954 43.3282835548284 
! Gamma         0                0                0                0                
! Port Impedance         50               0                50               0                
17.4                           0.457048690359014 43.0404664169146 0.873361590119427 -44.9306636609079 0.873361590119426 -44.930663660908 0.457004438567637 43.1161392305785 
! Gamma         0                0                0                0                
! Port Impedance         50               0                50               0                
17.5                           0.458756665664572 42.8282181456224 0.872468831341919 -45.1490596167366 0.872468831341918 -45.1490596167366 0.458712018811301 42.9044033542474 
! Gamma         0                0                0                0                
! Port Impedance         50               0                50               0                
17.6                           0.460454326660689 42.6163767395408 0.87157762775991 -45.3670173813427 0.871577627759909 -45.3670173813427 0.460409286445747 42.6930756080178 
! Gamma         0                0                0                0                
! Port Impedance         50               0                50               0                
17.7                           0.462141693469929 42.4049418763297 0.870688023937777 -45.5845381594824 0.870688023937776 -45.5845381594825 0.462096261797523 42.4821556752066 
! Gamma         0                0                0                0                
! Port Impedance         50               0                50               0                
17.8                           0.463818786474638 42.1939132351809 0.869800064017661 -45.8016231757335 0.86980006401766 -45.8016231757336 0.463772965457198 42.2716432402011 
! Gamma         0                0                0                0                
! Port Impedance         50               0                50               0                
17.9                           0.46548562631528 41.9832904967519 0.868913791719251 -46.0182736743337 0.86891379171925 -46.0182736743337 0.46543941827757 42.061537988389  
! Gamma         0                0                0                0                
! Port Impedance         50               0                50               0                
18                             0.467142233888731 41.7730733430932 0.868029250339673 -46.2344909190145 0.868029250339672 -46.2344909190145 0.467095641371837 41.8518396060833 
! Gamma         0                0                0                0                
! Port Impedance         50               0                50               0                
18.1                           0.468788630346518 41.5632614575697 0.867146482753458 -46.4502761928327 0.867146482753457 -46.4502761928328 0.468741656111697 41.6425477804407 
! Gamma         0                0                0                0                
! Port Impedance         50               0                50               0                
18.2                           0.470424837093002 41.3538545247774 0.866265531412615 -46.6656307979977 0.866265531412614 -46.6656307979977 0.470377484125404 41.433662199377  
! Gamma         0                0                0                0                
! Port Impedance         50               0                50               0                
18.3                           0.472050875783513 41.1448522304555 0.86538643834679 -46.8805560556955 0.865386438346789 -46.8805560556955 0.472003147295768 41.2251825514775 
! Gamma         0                0                0                0                
! Port Impedance         50               0                50               0                
18.4                           0.473666768322439 40.9362542613945 0.864509245163518 -47.0950533059108 0.864509245163517 -47.0950533059108 0.473618667758108 41.0171085259043 
! Gamma         0                0                0                0                
! Port Impedance         50               0                50               0                
18.5                           0.475272536861255 40.7280603053408 0.863633993048565 -47.3091239072453 0.863633993048564 -47.3091239072453 0.475224067898141 40.8094398123004 
! Gamma         0                0                0                0                
! Port Impedance         50               0                50               0                
18.6                           0.47686820379651 40.5202700508979 0.862760722766362 -47.5227692367343 0.862760722766361 -47.5227692367344 0.476819370349837 40.6021761006914 
! Gamma         0                0                0                0                
! Port Impedance         50               0                50               0                
18.7                           0.478453791767765 40.3128831874259 0.861889474660524 -47.7359906896607 0.861889474660523 -47.7359906896607 0.478404597993215 40.3953170813847 
! Gamma         0                0                0                0                
! Port Impedance         50               0                50               0                
18.8                           0.480029323655479 40.1058994049374 0.86102028865446 -47.9487896793664 0.861020288654459 -47.9487896793664 0.479979773952088 40.1888624448672 
! Gamma         0                0                0                0                
! Port Impedance         50               0                50               0                
18.9                           0.481594822578854 39.8993183939932 0.860153204252065 -48.1611676370628 0.860153204252065 -48.1611676370628 0.48154492159177 39.9828118817013 
! Gamma         0                0                0                0                
! Port Impedance         50               0                50               0                
19                             0.483150311893629 39.6931398455946 0.859288260538503 -48.3731260116389 0.859288260538502 -48.3731260116389 0.48310006451673 39.77716508242   
! Gamma         0                0                0                0                
! Port Impedance         50               0                50               0                
19.1                           0.484695815189832 39.4873634510763 0.858425496181064 -48.5846662694676 0.858425496181064 -48.5846662694676 0.484645226568203 39.571921737421  
! Gamma         0                0                0                0                
! Port Impedance         50               0                50               0                
19.2                           0.486231356289488 39.2819889019974 0.857564949430118 -48.7957898942112 0.857564949430117 -48.7957898942112 0.486180431821754 39.3670815368603 
! Gamma         0                0                0                0                
! Port Impedance         50               0                50               0                
19.3                           0.487756959244281 39.077015890032  0.856706658120131 -49.0064983866253 0.85670665812013 -49.0064983866254 0.487705704584809 39.1626441705458 
! Gamma         0                0                0                0                
! Port Impedance         50               0                50               0                
19.4                           0.489272648333184 38.8724441068596 0.855850659670779 -49.2167932643618 0.855850659670779 -49.2167932643618 0.48922106939413 38.9586093278305 
! Gamma         0                0                0                0                
! Port Impedance         50               0                50               0                
19.5                           0.490778448060035 38.6682732440556 0.854996991088126 -49.4266760617705 0.854996991088126 -49.4266760617705 0.490726551013264 38.7549766975065 
! Gamma         0                0                0                0                
! Port Impedance         50               0                50               0                
19.6                           0.492274383151082 38.4645029929817 0.854145688965885 -49.6361483297005 0.854145688965885 -49.6361483297006 0.492222174429944 38.5517459676988 
! Gamma         0                0                0                0                
! Port Impedance         50               0                50               0                
19.7                           0.493760478552493 38.2611330446766 0.853296789486753 -49.8452116353011 0.853296789486752 -49.8452116353012 0.493707964853456 38.3489168257604 
! Gamma         0                0                0                0                
! Port Impedance         50               0                50               0                
19.8                           0.49523675942782 38.0581630897479 0.852450328423813 -50.0538675618211 0.852450328423813 -50.0538675618211 0.495183947711973 38.1464889581679 
! Gamma         0                0                0                0                
! Port Impedance         50               0                50               0                
19.9                           0.496703251155434 37.855592818264  0.851606341142022 -50.2621177084091 0.851606341142022 -50.2621177084091 0.496650148649846 37.944462050418  
! Gamma         0                0                0                0                
! Port Impedance         50               0                50               0                
20                             0.498159979325927 37.6534219196474 0.850764862599748 -50.4699636899123 0.850764862599748 -50.4699636899123 0.498106593524869 37.7428357869256 
! Gamma         -0               -0               0                0                
! Port Impedance         50               0                50               0                
