! Touchstone file exported from HFSS 2026.1.0
!        File:           C:/ffzhzh/LocalFiles/Ansys_Project_Files/temp_train_BSMRDL_1132_1783175298_51560.aedt
!        Generated:      10:29:29 PM Jul  4, 2026
!        Design:         BSMRDL
!        Project:        temp_train_BSMRDL_1132_1783175298_51560
!
! Variables:
!        h_bsmrdl = 2.68um
!        h_ox = 20um
!        h_rdl = 5um
!        h_sub = 80um
!        h_tmrdl = 5um
!        h_tsv = 80um
!        h_via = 3um
!        l_bsmrdl = 315.3um
!        l_sub = 715.3um
!        l_tmrdl = 200um
!        m_sub = 200um
!        pitch = 36.55um
!        r_tsv = 6um
!        s_tmrdl = 10um
!        w_bsmrdl = 27.52um
!        w_sub = 500um
!        w_tmrdl = 12um
!        x_tsv_center1 = 206um
!        x_tsv_center2 = 548.82um
!        x_tsv_center3 = 760.82um
!        x_tsv_center4 = 1103.64um
!        x_tsv_center5 = 1315.64um
!        x_tsv_center6 = 1658.46um
!
# GHz S MA R 50.000000
! Terminal data exported
! Port[1] = BSM_RDL1_1_T1
! Port[2] = BSM_RDL1_1_T2
0.1                            0.00201069904986522 21.7595057346893 0.998133773036627 -0.113998130880012 0.998133773036627 -0.113998130880011 0.00201069889543287 21.7595456276526 
! Gamma         0                0                0                0                
! Port Impedance         50               0                50               0                
0.2                            0.00245753620411935 35.9667853342865 0.99801143691062 -0.225066810307852 0.99801143691062 -0.225066810307845 0.00245755161836141 35.965361781386  
! Gamma         0                0                0                0                
! Port Impedance         50               0                50               0                
0.3                            0.00298415012289508 44.0416450066613 0.997858793972352 -0.33213797013514 0.997858793972352 -0.332137970135125 0.00298412089152972 44.0389484992515 
! Gamma         0                0                0                0                
! Port Impedance         50               0                50               0                
0.4                            0.00350767073841922 48.987643323546  0.997710737422264 -0.435833896395108 0.997710737422264 -0.435833896395085 0.00350755599530479 48.9845515327281 
! Gamma         0                0                0                0                
! Port Impedance         50               0                50               0                
0.5                            0.00400816093774126 52.4639386309054 0.997583112187309 -0.537314315252592 0.997583112187309 -0.537314315252563 0.00400795290188522 52.4611108774204 
! Gamma         0                0                0                0                
! Port Impedance         50               0                50               0                
0.6                            0.00448846327920193 55.2041755495966 0.997478700013756 -0.637557612383473 0.997478700013756 -0.637557612383442 0.00448817438981031 55.2019292347197 
! Gamma         0                0                0                0                
! Port Impedance         50               0                50               0                
0.7                            0.00495619821122628 57.5183081835891 0.997394668826815 -0.737200949147317 0.997394668826815 -0.737200949147286 0.00495584798250767 57.5167254936566 
! Gamma         0                0                0                0                
! Port Impedance         50               0                50               0                
0.8                            0.00541798873577934 59.5403644199473 0.997326800323339 -0.836609718929561 0.99732680032334 -0.836609718929531 0.00541759648333813 59.5394050657984 
! Gamma         0                0                0                0                
! Port Impedance         50               0                50               0                
0.9                            0.0058783683667658 61.3338216651312 0.997271177427799 -0.935977472764935 0.997271177427799 -0.935977472764908 0.00587795040651969 61.3333960341324 
! Gamma         0                0                0                0                
! Port Impedance         50               0                50               0                
1                              0.0063400834971063 62.9341896051063 0.997224640510806 -1.03539940417367 0.997224640510806 -1.03539940417365 0.00633965262966758 62.9341978017752 
! Gamma         0                0                0                0                
! Port Impedance         50               0                50               0                
1.1                            0.00680463323874028 64.3656802980352 0.997184779995072 -1.13491723219398 0.997184779995072 -1.13491723219395 0.00680419913896139 64.3660300021781 
! Gamma         0                0                0                0                
! Port Impedance         50               0                50               0                
1.2                            0.00727272193987616 65.6475251381889 0.997149798654748 -1.23454460504842 0.997149798654749 -1.2345446050484 0.00727229178587555 65.6481380837015 
! Gamma         0                0                0                0                
! Port Impedance         50               0                50               0                
1.3                            0.00774457531194821 66.7962772185605 0.997118364334952 -1.33428098327841 0.997118364334953 -1.33428098327839 0.00774415438667056 66.7970901728437 
! Gamma         0                0                0                0                
! Port Impedance         50               0                50               0                
1.4                            0.008220144715252 67.8266220912472 0.997089487850809 -1.43411908536336 0.99708948785081 -1.43411908536335 0.00821973689842053 67.827585491708  
! Gamma         0                0                0                0                
! Port Impedance         50               0                50               0                
1.5                            0.00869923372602949 68.7516735249509 0.997062430404475 -1.53404882050602 0.997062430404476 -1.53404882050601 0.00869884186908718 68.7527493404881 
! Gamma         0                0                0                0                
! Port Impedance         50               0                50               0                
1.6                            0.00918157434264264 69.5831152009019 0.997036635930637 -1.63405932314282 0.997036635930637 -1.63405932314282 0.00918120054434106 69.584274736656  
! Gamma         0                0                0                0                
! Port Impedance         50               0                50               0                
1.7                            0.00966687169175411 70.3313104098018 0.997011682363714 -1.73413996680679 0.997011682363715 -1.73413996680678 0.00966651749687145 70.3325323451877 
! Gamma         0                0                0                0                
! Port Impedance         50               0                50               0                
1.8                            0.0101548294329745 71.0054132940196 0.996987246645195 -1.83428083251665 0.996987246645196 -1.83428083251665 0.0101544959742877 71.0066820400735 
! Gamma         0                0                0                0                
! Port Impedance         50               0                50               0                
1.9                            0.0106451635085241 71.6134852722032 0.996963079525927 -1.93447288911694 0.996963079525927 -1.93447288911694 0.0106448516079802 71.6147896442565 
! Gamma         0                0                0                0                
! Port Impedance         50               0                50               0                
2                              0.0111376089524221 72.1626122426007 0.996938987310523 -2.03470802517566 0.996938987310524 -2.03470802517567 0.0111373191934306 72.1639444098229 
! Gamma         0                0                0                0                
! Port Impedance         50               0                50               0                
2.1                            0.011631922638015 72.6590175800918 0.996914818526507 -2.13497900804102 0.996914818526507 -2.13497900804103 0.0116316554174912 72.6603722447013 
! Gamma         0                0                0                0                
! Port Impedance         50               0                50               0                
2.2                            0.0121278837095315 73.10816739799   0.996890454103495 -2.23527941071422 0.996890454103495 -2.23527941071423 0.0121276392758279 73.109541159171  
! Gamma         0                0                0                0                
! Port Impedance         50               0                50               0                
2.3                            0.0126252927488368 73.5148661618216 0.996865800071204 -2.33560352804428 0.996865800071205 -2.33560352804429 0.0126250712298654 73.5162570255715 
! Gamma         0                0                0                0                
! Port Impedance         50               0                50               0                
2.4                            0.0131239703044165 73.8833419884068 0.99684078207938 -2.43594629324458 0.99684078207938 -2.43594629324459 0.013123771728957 73.884748991485  
! Gamma         0                0                0                0                
! Port Impedance         50               0                50               0                
2.5                            0.0136237551512305 74.2173217838338 0.996815341246871 -2.53630319998935 0.996815341246872 -2.53630319998936 0.0136235794654939 74.2187447063872 
! Gamma         0                0                0                0                
! Port Impedance         50               0                50               0                
2.6                            0.0141245024931107 74.5200968518322 0.996789430988906 -2.63667023224643 0.996789430988907 -2.63667023224644 0.0141243495739754 74.5215359986944 
! Gamma         0                0                0                0                
! Port Impedance         50               0                50               0                
2.7                            0.0146260822244612 74.7945798423947 0.99676301457061 -2.73704380236597 0.996763014570611 -2.73704380236599 0.0146259518903507 74.7960358774568 
! Gamma         0                0                0                0                
! Port Impedance         50               0                50               0                
2.8                            0.0151283773110828 75.0433539947583 0.996736063204399 -2.83742069712066 0.996736063204399 -2.83742069712068 0.0151282693311401 75.0448278162962 
! Gamma         0                0                0                0                
! Port Impedance         50               0                50               0                
2.9                            0.015631282316247 75.2687156208553 0.996708554558145 -2.93779803101542 0.996708554558145 -2.93779803101543 0.0156311964182461 75.2702082684234 
! Gamma         0                0                0                0                
! Port Impedance         50               0                50               0                
3                              0.0161347020786378 75.4727107165909 0.99668047157613 -3.03817320604823 0.996680471576131 -3.03817320604824 0.0161346379559299 75.4742233022113 
! Gamma         0                0                0                0                
! Port Impedance         50               0                50               0                
3.1                            0.0166385505379226 75.6571665052381 0.996651801540088 -3.13854387709402 0.996651801540088 -3.13854387709403 0.0166385078556116 75.6587001632486 
! Gamma         0                0                0                0                
! Port Impedance         50               0                50               0                
3.2                            0.0171427496980587 75.823718625923  0.996622535315934 -3.23890792213524 0.996622535315935 -3.23890792213525 0.0171427280985413 75.8252744771171 
! Gamma         0                0                0                0                
! Port Impedance         50               0                50               0                
3.3                            0.0176472287159108 75.9738345898685 0.996592666745214 -3.33926341664158 0.996592666745214 -3.33926341664159 0.0176472278238679 75.9754137165397 
! Gamma         0                0                0                0                
! Port Impedance         50               0                50               0                
3.4                            0.0181519231020264 76.1088340427092 0.996562192150105 -3.43960861148693 0.996562192150105 -3.43960861148694 0.0181519425289286 76.1104374719693 
! Gamma         0                0                0                0                
! Port Impedance         50               0                50               0                
3.5                            0.0186567740207124 76.2299062950546 0.996531109928174 -3.53994191387584 0.996531109928174 -3.53994191387585 0.018656813368885 76.2315349883878 
! Gamma         0                0                0                0                
! Port Impedance         50               0                50               0                
3.6                            0.0191617276773893 76.3381255163005 0.996499420218538 -3.64026187082774 0.996499420218538 -3.64026187082775 0.0191617865436705 76.3397803637723 
! Gamma         0                0                0                0                
! Port Impedance         50               0                50               0                
3.7                            0.019666734782279 76.4344639282759 0.9964671246252  -3.74056715483596 0.9964671246252  -3.74056715483597 0.0196668127612991 76.4361457461733 
! Gamma         0                0                0                0                
! Port Impedance         50               0                50               0                
3.8                            0.0201717500806371 76.5198032850524 0.996434225986463 -3.84085655137686 0.996434225986463 -3.84085655137687 0.0201718467677441 76.5215128160115 
! Gamma         0                0                0                0                
! Port Impedance         50               0                50               0                
3.9                            0.0206767319408818 76.5949448822952 0.996400728181698 -3.94112894799548 0.996400728181698 -3.94112894799549 0.0206768469347367 76.5966827971885 
! Gamma         0                0                0                0                
! Port Impedance         50               0                50               0                
4                              0.0211816419930349 76.6606183030039 0.996366635968584 -4.04138332473656 0.996366635968584 -4.04138332473656 0.0211817748978982 76.6623852040332 
! Gamma         0                0                0                0                
! Port Impedance         50               0                50               0                
4.1                            0.0216864448108645 76.7174890755266 0.996331954845344 -4.14161874572642 0.996331954845344 -4.14161874572642 0.0216865952385963 76.7192855000964 
! Gamma         0                0                0                0                
! Port Impedance         50               0                50               0                
4.2                            0.0221911076319874 76.7661653935173 0.996296690933599 -4.24183435174133 0.9962966909336  -4.24183435174133 0.022191275203782 76.7679918185714 
! Gamma         0                0                0                0                
! Port Impedance         50               0                50               0                
4.3                            0.0226956001109568 76.8072040253546 0.996260850878345 -4.34202935362368 0.996260850878345 -4.34202935362369 0.0226957844588328 76.8090608719376 
! Gamma         0                0                0                0                
! Port Impedance         50               0                50               0                
4.4                            0.0231998941010294 76.8411155218099 0.996224441762181 -4.44220302642886 0.996224441762182 -4.44220302642887 0.0232000948690965 76.8430031596784 
! Gamma         0                0                0                0                
! Port Impedance         50               0                50               0                
4.5                            0.0237039634608941 76.868368814922  0.996187471031526 -4.54235470420348 0.996187471031526 -4.54235470420348 0.0237041803064159 76.8702875670796 
! Gamma         0                0                0                0                
! Port Impedance         50               0                50               0                
4.6                            0.024207783883146 76.8893952876413 0.996149946432904 -4.64248377531093 0.996149946432904 -4.64248377531093 0.0242080164774177 76.8913454347107 
! Gamma         0                0                0                0                
! Port Impedance         50               0                50               0                
4.7                            0.024711332741728 76.9045923824677 0.996111875957778 -4.74258967823271 0.996111875957778 -4.74258967823271 0.0247115807707874 76.9065741668389 
! Gamma         0                0                0                0                
! Port Impedance         50               0                50               0                
4.8                            0.0252145889559367 76.914326807688  0.996073267794659 -4.84267189778479 0.996073267794659 -4.84267189778479 0.0252148521211268 76.9163404374059 
! Gamma         0                0                0                0                
! Port Impedance         50               0                50               0                
4.9                            0.025717532868917 76.9189373916556 0.996034130287425 -4.94272996169703 0.996034130287425 -4.94272996169702 0.0257178108873136 76.9209830440276 
! Gamma         0                0                0                0                
! Port Impedance         50               0                50               0                
5                              0.0262201461388431 76.9187376286152 0.995994471898982 -5.04276343751133 0.995994471898982 -5.04276343751132 0.0262204387435657 76.9208154535291 
! Gamma         0                0                0                0                
! Port Impedance         50               0                50               0                
5.1                            0.0267224116412287 76.9140179536587 0.995954301179526 -5.14277192976062 0.995954301179526 -5.14277192976062 0.026722718581646 76.9161280766122 
! Gamma         0                0                0                0                
! Port Impedance         50               0                50               0                
5.2                            0.0272243133810132 76.9050477793557 0.995913626738803 -5.24275507739591 0.995913626738803 -5.2427550773959 0.0272246344228566 76.9071903042052 
! Gamma         0                0                0                0                
! Port Impedance         50               0                50               0                
5.3                            0.0277258364132477 76.8920773222884 0.995872457221825 -5.34271255143339 0.995872457221825 -5.34271255143338 0.0277261713386448 76.8942523337285 
! Gamma         0                0                0                0                
! Port Impedance         50               0                50               0                
5.4                            0.0282269667713605 76.8753392440261 0.995830801287614 -5.44264405279739 0.995830801287614 -5.44264405279739 0.0282273153787988 76.8775468098148 
! Gamma         0                0                0                0                
! Port Impedance         50               0                50               0                
5.5                            0.0287276914021119 76.8550501279084 0.995788667590594 -5.54254931033814 0.995788667590594 -5.54254931033813 0.0287280535063421 76.857290300854  
! Gamma         0                0                0                0                
! Port Impedance         50               0                50               0                
5.6                            0.029227998106463 76.8314118102778 0.995746064764311 -5.64242807900613 0.995746064764311 -5.64242807900612 0.02922837353835 76.8336846300059 
! Gamma         0                0                0                0                
! Port Impedance         50               0                50               0                
5.7                            0.0297278754856815 76.8046125824606 0.995703001407191 -5.74228013816736 0.995703001407191 -5.74228013816735 0.0297282640920117 76.806918076978  
! Gamma         0                0                0                0                
! Port Impedance         50               0                50               0                
5.8                            0.030227312892094 76.7748282777685 0.995659486070106 -5.84210529004548 0.995659486070106 -5.84210529004547 0.0302277145353446 76.7771664648419 
! Gamma         0                0                0                0                
! Port Impedance         50               0                50               0                
5.9                            0.0307263003839658 76.7422232560419 0.995615527245547 -5.94190335827886 0.995615527245547 -5.94190335827884 0.0307267149420427 76.7445941444087 
! Gamma         0                0                0                0                
! Port Impedance         50               0                50               0                
6                              0.031224828684057 76.7069512967435 0.9955711333582  -6.04167418658186 0.9955711333582  -6.04167418658185 0.0312252560500063 76.7093548871707 
! Gamma         0                0                0                0                
! Port Impedance         50               0                50               0                
6.1                            0.0317228891414549 76.6691564102928 0.995526312756786 -6.14141763750109 0.995526312756786 -6.14141763750108 0.031723329223153 76.6715926964989 
! Gamma         0                0                0                0                
! Port Impedance         50               0                50               0                
6.2                            0.032220473696336 76.6289735761888 0.995481073707016 -6.24113359125814 0.995481073707016 -6.24113359125812 0.0322209264161617 76.6314425456439 
! Gamma         0                0                0                0                
! Port Impedance         50               0                50               0                
6.3                            0.0327175748473486 76.5865294154752 0.995435424385544 -6.34082194467169 0.995435424385544 -6.34082194467168 0.032718040141841 76.589031050092  
! Gamma         0                0                0                0                
! Port Impedance         50               0                50               0                
6.4                            0.0332141856213465 76.5419428042298 0.995389372874797 -6.44048261015233 0.995389372874797 -6.44048261015231 0.0332146634408528 76.5444770809577 
! Gamma         0                0                0                0                
! Port Impedance         50               0                50               0                
6.5                            0.0337102995452365 76.4953254340042 0.995342927158607 -6.54011551476423 0.995342927158607 -6.54011551476421 0.0337107898535505 76.4978923253379 
! Gamma         0                0                0                0                
! Port Impedance         50               0                50               0                
6.6                            0.0342059106197278 76.4467823244721 0.995296095118532 -6.63972059934856 0.995296095118532 -6.63972059934855 0.0342064133937229 76.4493817988853 
! Gamma         0                0                0                0                
! Port Impedance         50               0                50               0                
6.7                            0.0347010132947992 76.3964122929658 0.995248884530813 -6.73929781770379 0.995248884530813 -6.73929781770377 0.0347015285240573 76.3990443152781 
! Gamma         0                0                0                0                
! Port Impedance         50               0                50               0                
6.8                            0.0351956024467193 76.3443083850637 0.995201303063887 -6.83884713581873 0.995201303063887 -6.83884713581871 0.0351961301331568 76.3469729167503 
! Gamma         0                0                0                0                
! Port Impedance         50               0                50               0                
6.9                            0.035689673356474 76.2905582699451 0.995153358276393 -6.93836853115441 0.995153358276393 -6.93836853115439 0.0356902135139681 76.2932552693961 
! Gamma         0                0                0                0                
! Port Impedance         50               0                50               0                
7                              0.0361832216894741 76.2352446038306 0.995105057615628 -7.0378619919714 0.995105057615629 -7.03786199197138 0.0361837743434879 76.237974026567  
! Gamma         0                0                0                0                
! Port Impedance         50               0                50               0                
7.1                            0.036676243476426 76.1784453644752 0.995056408416386 -7.13732751669913 0.995056408416386 -7.13732751669911 0.036676808663636 76.1812071633273 
! Gamma         0                0                0                0                
! Port Impedance         50               0                50               0                
7.2                            0.037168735095267 76.1202341593732 0.99500741790015 -7.23676511334467 0.99500741790015 -7.23676511334465 0.0371693128631924 76.123028284627  
! Gamma         0                0                0                0                
! Port Impedance         50               0                50               0                
7.3                            0.0376606932540727 76.0606805100588 0.994958093174594 -7.33617479893791 0.994958093174594 -7.3361747989379 0.0376612836607078 76.0635069095752 
! Gamma         0                0                0                0                
! Port Impedance         50               0                50               0                
7.4                            0.0381521149748572 75.9998501146442 0.994908441233351 -7.43555659901097 0.994908441233351 -7.43555659901095 0.0381527180883069 76.002708733955  
! Gamma         0                0                0                0                
! Port Impedance         50               0                50               0                
7.5                            0.0386429975781943 75.9378050905203 0.994858468956025 -7.53491054710937 0.994858468956025 -7.53491054710935 0.0386436134763141 75.9406958729048 
! Gamma         0                0                0                0                
! Port Impedance         50               0                50               0                
7.6                            0.0391333386685953 75.8746041989548 0.994808183108412 -7.63423668433301 0.994808183108412 -7.63423668433299 0.0391339674386357 75.8775270855009 
! Gamma         0                0                0                0                
! Port Impedance         50               0                50               0                
7.7                            0.0396231361205873 75.8103030531512 0.994757590342903 -7.73353505890491 0.994757590342903 -7.73353505890489 0.0396237778588425 75.8132579828024 
! Gamma         0                0                0                0                
! Port Impedance         50               0                50               0                
7.8                            0.0401123880654397 75.7449543111784 0.994706697199048 -7.83280572576594 0.994706697199049 -7.83280572576592 0.0401130428769018 75.7479412207708 
! Gamma         0                0                0                0                
! Port Impedance         50               0                50               0                
7.9                            0.0406010928784939 75.6786078550482 0.994655510104261 -7.93204874619386 0.994655510104261 -7.93204874619384 0.0406017608765121 75.6816266793391 
! Gamma         0                0                0                0                
! Port Impedance         50               0                50               0                
8                              0.0410892491670553 75.6113109570935 0.994604035374636 -8.03126418744515 0.994604035374636 -8.03126418744514 0.0410899304730002 75.6143616287831 
! Gamma         0                0                0                0                
! Port Impedance         50               0                50               0                
8.1                            0.0415768557588093 75.543108434693  0.994552279215874 -8.13045212241803 0.994552279215874 -8.13045212241802 0.0415775505017435 75.5461908844412 
! Gamma         0                0                0                0                
! Port Impedance         50               0                50               0                
8.2                            0.0420639116907302 75.4740427942906 0.99450024772429 -8.22961262933551 0.99450024772429 -8.2296126293355 0.0420646200070838 75.4771569507305 
! Gamma         0                0                0                0                
! Port Impedance         50               0                50               0                
8.3                            0.0425504161984517 75.4041543655695 0.994447946887898 -8.32874579144699 0.994447946887898 -8.32874579144697 0.0425511382317038 75.4073001553184 
! Gamma         0                0                0                0                
! Port Impedance         50               0                50               0                
8.4                            0.0430363687060716 75.3334814265643 0.994395382587543 -8.42785169674732 0.994395382587543 -8.42785169674731 0.0430371046064371 75.3366587742337 
! Gamma         0                0                0                0                
! Port Impedance         50               0                50               0                
8.5                            0.0435217688163677 75.2620603204225 0.9943425605981  -8.52693043771229 0.9943425605981  -8.52693043771228 0.0435225187404905 75.2652691486274 
! Gamma         0                0                0                0                
! Port Impedance         50               0                50               0                
8.6                            0.0440066163014017 75.1899255644636 0.994289486589693 -8.62598211104924 0.994289486589693 -8.62598211104923 0.0440073804120531 75.1931657938323 
! Gamma         0                0                0                0                
! Port Impedance         50               0                50               0                
8.7                            0.0444909110934906 75.1171099521268 0.994236166128958 -8.72500681746208 0.994236166128958 -8.72500681746207 0.0444916895592739 75.1203815013116 
! Gamma         0                0                0                0                
! Port Impedance         50               0                50               0                
8.8                            0.0449746532765292 75.0436446483478 0.994182604680318 -8.82400466142965 0.994182604680318 -8.82400466142964 0.0449754462715892 75.046947434037  
! Gamma         0                0                0                0                
! Port Impedance         50               0                50               0                
8.9                            0.0454578430776436 74.9695592788565 0.994128807607279 -8.92297575099655 0.994128807607279 -8.92297575099654 0.0454586507813833 74.9728932157881 
! Gamma         0                0                0                0                
! Port Impedance         50               0                50               0                
9                              0.0459404808591647 74.8948820138465 0.994074780173728 -9.02192019757574 0.994074780173728 -9.02192019757573 0.0459413034559659 74.8982470148247 
! Gamma         0                0                0                0                
! Port Impedance         50               0                50               0                
9.1                            0.0464225671109033 74.8196396464306 0.994020527545247 -9.12083811576198 0.994020527545247 -9.12083811576198 0.0464234047898544 74.8230356223436 
! Gamma         0                0                0                0                
! Port Impedance         50               0                50               0                
9.2                            0.0469041024427172 74.7438576662578 0.993966054790409 -9.2197296231556 0.993966054790409 -9.2197296231556 0.046904955397346 74.7472845260989 
! Gamma         0                0                0                0                
! Port Impedance         50               0                50               0                
9.3                            0.0473850875773567 74.6675603286411 0.993911366882084 -9.31859484019568 0.993911366882084 -9.31859484019567 0.0473859560053686 74.6710179795318 
! Gamma         0                0                0                0                
! Port Impedance         50               0                50               0                
9.4                            0.0478655233435778 74.5907707195126 0.993856468698727 -9.41743389000225 0.993856468698727 -9.41743389000224 0.0478664074465999 74.5942590667292 
! Gamma         0                0                0                0                
! Port Impedance         50               0                50               0                
9.5                            0.0483454106695125 74.5135108164998 0.993801365025657 -9.51624689822679 0.993801365025657 -9.51624689822678 0.0483463106528436 74.5170297635019 
! Gamma         0                0                0                0                
! Port Impedance         50               0                50               0                
9.6                            0.0488247505762883 74.4358015463906 0.993746060556326 -9.61503399291049 0.993746060556326 -9.61503399291049 0.0488256666486536 74.4393509948528 
! Gamma         0                0                0                0                
! Port Impedance         50               0                50               0                
9.7                            0.0493035441718852 74.3576628392366 0.993690559893568 -9.7137953043498 0.993690559893568 -9.7137953043498 0.0493044765451971 74.3612426890825 
! Gamma         0                0                0                0                
! Port Impedance         50               0                50               0                
9.8                            0.0497817926452247 74.2791136793202 0.993634867550828 -9.81253096496869 0.993634867550828 -9.81253096496869 0.0497827415343488 74.2827238287596 
! Gamma         0                0                0                0                
! Port Impedance         50               0                50               0                
9.9                            0.0502594972604809 74.2001721531987 0.993578987953381 -9.91124110919734 0.993578987953381 -9.91124110919734 0.0502604628830073 74.2038124987668 
! Gamma         0                0                0                0                
! Port Impedance         50               0                50               0                
10                             0.0507366593516071 74.1208554950172 0.99352292543952 -10.0099258733566 0.99352292543952 -10.0099258733566 0.0507376419276276 74.124525931616  
! Gamma         0                0                0                0                
! Port Impedance         50               0                50               0                
10.1                           0.0512132803170715 74.0411801292708 0.993466684261733 -10.108585395548 0.993466684261733 -10.108585395548 0.0512142800689614 74.0448805502137 
! Gamma         0                0                0                0                
! Port Impedance         50               0                50               0                
10.2                           0.0516893616147938 73.9611617111813 0.993410268587853 -10.2072198155491 0.993410268587853 -10.2072198155491 0.0516903787669996 73.9648920082391 
! Gamma         0                0                0                0                
! Port Impedance         50               0                50               0                
10.3                           0.052164904757278 73.8808151648427 0.99335368250219 -10.3058292747132 0.99335368250219 -10.3058292747132 0.0521659395361099 73.8845752282917 
! Gamma         0                0                0                0                
! Port Impedance         50               0                50               0                
10.4                           0.0526399113069343 73.8001547192753 0.993296930006636 -10.4044139158738 0.993296930006636 -10.4044139158738 0.0526409639403642 73.8039444379481 
! Gamma         0                0                0                0                
! Port Impedance         50               0                50               0                
10.5                           0.053114382871585 73.7191939425233 0.993240015021754 -10.5029738832534 0.993240015021754 -10.5029738832534 0.0531154535890498 73.7230132038601 
! Gamma         0                0                0                0                
! Port Impedance         50               0                50               0                
10.6                           0.0535883211001482 73.6379457739145 0.993182941387846 -10.6015093223756 0.993182941387846 -10.6015093223756 0.0535894101323576 73.641794464017  
! Gamma         0                0                0                0                
! Port Impedance         50               0                50               0                
10.7                           0.0540617276784943 73.5564225545972 0.993125712865993 -10.7000203799816 0.993125712865993 -10.7000203799816 0.0540628352572447 73.5603005582837 
! Gamma         0                0                0                0                
! Port Impedance         50               0                50               0                
10.8                           0.0545346043254711 73.4746360564599 0.993068333139082 -10.7985072039497 0.993068333139082 -10.7985072039497 0.0545357306834632 73.4785432573216 
! Gamma         0                0                0                0                
! Port Impedance         50               0                50               0                
10.9                           0.0550069527890901 73.3925975095301 0.993010805812805 -10.8969699432174 0.993010805812805 -10.8969699432174 0.0550080981597532 73.3965337899883 
! Gamma         0                0                0                0                
! Port Impedance         50               0                50               0                
11                             0.0554787748428724 73.3103176279438 0.992953134416649 -10.9954087477078 0.992953134416649 -10.9954087477078 0.055479939460192 73.3142828693092 
! Gamma         0                0                0                0                
! Port Impedance         50               0                50               0                
11.1                           0.0559500722823466 73.2278066345713 0.992895322404853 -11.0938237682575 0.992895322404853 -11.0938237682575 0.0559512563806981 73.2318007171026 
! Gamma         0                0                0                0                
! Port Impedance         50               0                50               0                
11.2                           0.0564208469216964 73.1450742843766 0.992837373157359 -11.192215156548 0.992837373157358 -11.192215156548 0.0564220507356829 73.1490970873411 
! Gamma         0                0                0                0                
! Port Impedance         50               0                50               0                
11.3                           0.0568911005905521 73.0621298865848 0.992779289980736 -11.2905830650387 0.992779289980736 -11.2905830650387 0.0568923243548476 73.0661812883194 
! Gamma         0                0                0                0                
! Port Impedance         50               0                50               0                
11.4                           0.0573608351309226 72.9789823257266 0.992721076109095 -11.388927646903 0.992721076109094 -11.388927646903 0.0573620790801198 72.9830622036986 
! Gamma         0                0                0                0                
! Port Impedance         50               0                50               0                
11.5                           0.0578300523942631 72.8956400816231 0.992662734704977 -11.4872490559657 0.992662734704977 -11.4872490559657 0.0578313167627257 72.8997483124919 
! Gamma         0                0                0                0                
! Port Impedance         50               0                50               0                
11.6                           0.0582987542386752 72.8121112483706 0.992604268860238 -11.5855474466437 0.992604268860238 -11.5855474466437 0.0583000392603951 72.8162477080496 
! Gamma         0                0                0                0                
! Port Impedance         50               0                50               0                
11.7                           0.0587669425262346 72.7284035523828 0.992545681596907 -11.6838229738867 0.992545681596907 -11.6838229738867 0.0587682484346934 72.7325681161014 
! Gamma         0                0                0                0                
! Port Impedance         50               0                50               0                
11.8                           0.0592346191204429 72.6445243695409 0.992486975868037 -11.7820757931217 0.992486975868037 -11.7820757931217 0.0592359461484786 72.6487169119062 
! Gamma         0                0                0                0                
! Port Impedance         50               0                50               0                
11.9                           0.0597017858838004 72.5604807415025 0.992428154558542 -11.8803060601976 0.992428154558542 -11.8803060601976 0.059703134263478 72.5647011365612 
! Gamma         0                0                0                0                
! Port Impedance         50               0                50               0                
12                             0.0601684446754949 72.4762793912133 0.992369220486017 -11.9785139313324 0.992369220486017 -11.9785139313324 0.0601698146379817 72.4805275125132 
! Gamma         0                0                0                0                
! Port Impedance         50               0                50               0                
12.1                           0.0606345973492039 72.3919267376663 0.99231017640155 -12.0766995630614 0.99231017640155 -12.0766995630614 0.0606359891246491 72.3962024583177 
! Gamma         0                0                0                0                
! Port Impedance         50               0                50               0                
12.2                           0.0611002457510062 72.3074289099481 0.992251024990521 -12.174863112187 0.992251024990521 -12.174863112187 0.0611016595684251 72.3117321026844 
! Gamma         0                0                0                0                
! Port Impedance         50               0                50               0                
12.3                           0.0615653917174001 72.22279176061   0.992191768873389 -12.2730047357298 0.992191768873388 -12.2730047357298 0.061566827804562 72.2271222978483 
! Gamma         0                0                0                0                
! Port Impedance         50               0                50               0                
12.4                           0.0620300370734236 72.1380208784003 0.992132410606471 -12.3711245908812 0.992132410606471 -12.3711245908812 0.0620314956567445 72.142378632301  
! Gamma         0                0                0                0                
! Port Impedance         50               0                50               0                
12.5                           0.0624941836308743 72.0531216003907 0.992072952682712 -12.4692228349569 0.992072952682712 -12.4692228349569 0.0624956649353136 72.0575064429166 
! Gamma         0                0                0                0                
! Port Impedance         50               0                50               0                
12.6                           0.0629578331866261 71.9680990235278 0.992013397532442 -12.5672996253519 0.992013397532441 -12.5672996253519 0.062959337435587 71.972510826503  
! Gamma         0                0                0                0                
! Port Impedance         50               0                50               0                
12.7                           0.0634209875210378 71.8829580156411 0.991953747524126 -12.6653551194965 0.991953747524125 -12.6653551194965 0.0634225149362723 71.8873966508079 
! Gamma         0                0                0                0                
! Port Impedance         50               0                50               0                
12.8                           0.0638836483964529 71.7977032259329 0.991894004965111 -12.7633894748134 0.991894004965111 -12.7633894748134 0.0638851991979702 71.802168565009  
! Gamma         0                0                0                0                
! Port Impedance         50               0                50               0                
12.9                           0.064345817555785 71.7123390949783 0.99183417210236 -12.8614028486757 0.99183417210236 -12.8614028486757 0.0643473919617642 71.7168310097127 
! Gamma         0                0                0                0                
! Port Impedance         50               0                50               0                
13                             0.0648074967211884 71.6268698642592 0.991774251123181 -12.9593953983665 0.99177425112318 -12.9593953983665 0.0648090949478948 71.6313882264871 
! Gamma         0                0                0                0                
! Port Impedance         50               0                50               0                
13.1                           0.0652686875928089 71.5412995852562 0.991714244155947 -13.0573672810386 0.991714244155946 -13.0573672810386 0.0652703098545139 71.5458442669529 
! Gamma         0                0                0                0                
! Port Impedance         50               0                50               0                
13.2                           0.0657293918476131 71.4556321281193 0.991654153270816 -13.155318653676 0.991654153270815 -13.155318653676 0.0657310383565183 71.4602030014532 
! Gamma         0                0                0                0                
! Port Impedance         50               0                50               0                
13.3                           0.0661896111382936 71.3698711899398 0.991593980480439 -13.2532496730559 0.991593980480439 -13.2532496730559 0.0661912821044579 71.3744681273239 
! Gamma         0                0                0                0                
! Port Impedance         50               0                50               0                
13.4                           0.066649347092246 71.2840203026412 0.991533727740669 -13.3511604957114 0.991533727740668 -13.3511604957114 0.0666510427235165 71.2886431767844 
! Gamma         0                0                0                0                
! Port Impedance         50               0                50               0                
13.5                           0.0671086013106171 71.1980828405097 0.991473396951255 -13.4490512778957 0.991473396951254 -13.4490512778957 0.0671103218125637 71.2027315244661 
! Gamma         0                0                0                0                
! Port Impedance         50               0                50               0                
13.6                           0.0675673753674201 71.1120620273803 0.991412989956544 -13.5469221755465 0.991412989956543 -13.5469221755465 0.0675691209432727 71.1167363945974 
! Gamma         0                0                0                0                
! Port Impedance         50               0                50               0                
13.7                           0.0680256708087145 71.0259609434952 0.991352508546168 -13.644773344252 0.991352508546167 -13.644773344252 0.0680274416593048 71.0306608678614 
! Gamma         0                0                0                0                
! Port Impedance         50               0                50               0                
13.8                           0.0684834891518498 70.9397825320513 0.991291954455734 -13.7426049392168 0.991291954455733 -13.7426049392168 0.0684852854755551 70.944507887942  
! Gamma         0                0                0                0                
! Port Impedance         50               0                50               0                
13.9                           0.0689408318847682 70.8535296054509 0.991231329367505 -13.8404171152294 0.991231329367504 -13.8404171152294 0.0689426538774588 70.858280267773  
! Gamma         0                0                0                0                
! Port Impedance         50               0                50               0                
14                             0.0693977004653655 70.7672048512689 0.99117063491108 -13.9382100266302 0.991170634911078 -13.9382100266302 0.0693995483203557 70.7719806955045 
! Gamma         0                0                0                0                
! Port Impedance         50               0                50               0                
14.1                           0.0698540963209084 70.680810837952  0.99110987266407 -14.0359838272801 0.991109872664069 -14.0359838272801 0.0698559702289098 70.6856117402008 
! Gamma         0                0                0                0                
! Port Impedance         50               0                50               0                
14.2                           0.0703100208475042 70.5943500202606 0.991049044152771 -14.1337386705303 0.99104904415277 -14.1337386705303 0.0703119209965823 70.5991758572808 
! Gamma         0                0                0                0                
! Port Impedance         50               0                50               0                
14.3                           0.070765475409622 70.5078247444657 0.990988150852833 -14.2314747091925 0.990988150852832 -14.2314747091925 0.070767401985156 70.5126753937139 
! Gamma         0                0                0                0                
! Port Impedance         50               0                50               0                
14.4                           0.0712204613396638 70.4212372533136 0.990927194189924 -14.32919209551  0.990927194189923 -14.32919209551  0.0712224145243082 70.4261125929833 
! Gamma         0                0                0                0                
! Port Impedance         50               0                50               0                
14.5                           0.0716749799375818 70.3345896907674 0.990866175540396 -14.4268909811296 0.990866175540395 -14.4268909811297 0.0716769599112322 70.3394895998262 
! Gamma         0                0                0                0                
! Port Impedance         50               0                50               0                
14.6                           0.0721290324705416 70.2478841065365 0.990805096231944 -14.5245715170742 0.990805096231943 -14.5245715170742 0.0721310394103017 70.252808464762  
! Gamma         0                0                0                0                
! Port Impedance         50               0                50               0                
14.7                           0.0725826201726278 70.1611224604039 0.990743957544261 -14.6222338537159 0.99074395754426 -14.6222338537159 0.0725846542527803 70.1660711484188 
! Gamma         0                0                0                0                
! Port Impedance         50               0                50               0                
14.8                           0.0730357442445922 70.0743066263607 0.990682760709696 -14.7198781407502 0.990682760709695 -14.7198781407503 0.073037805636571 70.0792795256658 
! Gamma         0                0                0                0                
! Port Impedance         50               0                50               0                
14.9                           0.0734884058536403 69.9874383965551 0.990621506913903 -14.8175045271709 0.990621506913902 -14.8175045271709 0.0734904947260065 69.9924353895618 
! Gamma         0                0                0                0                
! Port Impedance         50               0                50               0                
15                             0.0739406061332568 69.9005194850671 0.990560197296489 -14.9151131612451 0.990560197296488 -14.9151131612451 0.0739427226516758 69.9055404551283 
! Gamma         0                0                0                0                
! Port Impedance         50               0                50               0                
15.1                           0.0743923461830658 69.8135515315139 0.990498832951662 -15.0127041904899 0.990498832951661 -15.0127041904899 0.0743944905102876 69.8185963629538 
! Gamma         0                0                0                0                
! Port Impedance         50               0                50               0                
15.2                           0.0748436270687271 69.7265361044958 0.990437414928873 -15.1102777616487 0.990437414928872 -15.1102777616487 0.0748457993645685 69.7316046826382 
! Gamma         0                0                0                0                
! Port Impedance         50               0                50               0                
15.3                           0.0752944498218639 69.6394747048882 0.990375944233456 -15.2078340206693 0.990375944233455 -15.2078340206693 0.0752966502431932 69.6445669160843 
! Gamma         0                0                0                0                
! Port Impedance         50               0                50               0                
15.4                           0.0757448154400229 69.5523687689883 0.990314421827266 -15.3053731126817 0.990314421827265 -15.3053731126817 0.0757470441407461 69.5574845006421 
! Gamma         0                0                0                0                
! Port Impedance         50               0                50               0                
15.5                           0.0761947248866633 69.4652196715208 0.990252848629312 -15.4028951819771 0.990252848629311 -15.4028951819771 0.0761969820177132 69.4703588121149 
! Gamma         0                0                0                0                
! Port Impedance         50               0                50               0                
15.6                           0.0766441790911748 69.3780287285115 0.990191225516391 -15.5004003719877 0.99019122551639 -15.5004003719877 0.0766464648005014 69.3831911676301 
! Gamma         0                0                0                0                
! Port Impedance         50               0                50               0                
15.7                           0.0770931789489225 69.2907972000318 0.990129553323713 -15.5978888252666 0.990129553323712 -15.5978888252666 0.0770954933814857 69.2959828283839 
! Gamma         0                0                0                0                
! Port Impedance         50               0                50               0                
15.8                           0.0775417253213169 69.2035262928231 0.990067832845532 -15.6953606834689 0.990067832845531 -15.6953606834689 0.0775440686190807 69.2087350022635 
! Gamma         0                0                0                0                
! Port Impedance         50               0                50               0                
15.9                           0.0779898190359082 69.1162171628027 0.990006064835763 -15.7928160873333 0.990006064835762 -15.7928160873333 0.0779921913378378 69.121448846353  
! Gamma         0                0                0                0                
! Port Impedance         50               0                50               0                
16                             0.0784374608865045 69.0288709174601 0.989944250008605 -15.8902551766641 0.989944250008604 -15.8902551766641 0.0784398623285635 69.0341254693274 
! Gamma         0                0                0                0                
! Port Impedance         50               0                50               0                
16.1                           0.0788846516333108 68.9414886181456 0.989882389039153 -15.9876780903141 0.989882389039152 -15.9876780903141 0.0788870823484614 68.9467659337412 
! Gamma         0                0                0                0                
! Port Impedance         50               0                50               0                
16.2                           0.0793313920030889 68.8540712822581 0.989820482564018 -16.0850849661681 0.989820482564016 -16.0850849661681 0.0793338521212929 68.8593712582145 
! Gamma         0                0                0                0                
! Port Impedance         50               0                50               0                
16.3                           0.0797776826893365 68.7666198853347 0.989758531181926 -16.1824759411271 0.989758531181925 -16.1824759411271 0.079780172337559 68.7719424195216 
! Gamma         0                0                0                0                
! Port Impedance         50               0                50               0                
16.4                           0.0802235243524855 68.6791353630481 0.989696535454334 -16.2798511510927 0.989696535454333 -16.2798511510927 0.0802260436546986 68.6844803545878 
! Gamma         0                0                0                0                
! Port Impedance         50               0                50               0                
16.5                           0.0806689176201163 68.5916186131143 0.989634495906027 -16.3772107309528 0.989634495906026 -16.3772107309528 0.0806714666973054 68.5969859623959 
! Gamma         0                0                0                0                
! Port Impedance         50               0                50               0                
16.6                           0.0811138630871896 68.504070497116  0.989572413025716 -16.4745548145672 0.989572413025715 -16.4745548145672 0.0811164420573608 68.5094601058082 
! Gamma         0                0                0                0                
! Port Impedance         50               0                50               0                
16.7                           0.0815583613162924 68.4164918422438 0.989510287266637 -16.5718835347542 0.989510287266635 -16.5718835347542 0.0815609702944813 68.4219036133074 
! Gamma         0                0                0                0                
! Port Impedance         50               0                50               0                
16.8                           0.0820024128378993 68.3288834429603 0.989448119047136 -16.6691970232779 0.989448119047135 -16.6691970232779 0.0820050519361807 68.3343172806597 
! Gamma         0                0                0                0                
! Port Impedance         50               0                50               0                
16.9                           0.0824460181506465 68.2412460625896 0.989385908751263 -16.7664954108357 0.989385908751262 -16.7664954108357 0.082448687478146 68.2467018725029 
! Gamma         0                0                0                0                
! Port Impedance         50               0                50               0                
17                             0.0828891777216183 68.1535804348351 0.989323656729351 -16.8637788270465 0.98932365672935 -16.8637788270465 0.0828918773845247 68.1590581238638 
! Gamma         0                0                0                0                
! Port Impedance         50               0                50               0                
17.1                           0.0833318919866462 68.0658872652301 0.989261363298595 -16.9610474004397 0.989261363298594 -16.9610474004397 0.0833346220882253 68.0713867416078 
! Gamma         0                0                0                0                
! Port Impedance         50               0                50               0                
17.2                           0.0837741613506179 67.9781672325225 0.989199028743629 -17.0583012584447 0.989199028743628 -17.0583012584447 0.083776921991227 67.9836884058228 
! Gamma         0                0                0                0                
! Port Impedance         50               0                50               0                
17.3                           0.0842159861877966 67.8904209899976 0.989136653317093 -17.1555405273804 0.989136653317092 -17.1555405273804 0.0842187774649005 67.8959637711408 
! Gamma         0                0                0                0                
! Port Impedance         50               0                50               0                
17.4                           0.0846573668421503 67.8026491667411 0.989074237240204 -17.2527653324461 0.989074237240203 -17.2527653324461 0.0846601888503383 67.808213468001  
! Gamma         0                0                0                0                
! Port Impedance         50               0                50               0                
17.5                           0.0850983036276889 67.7148523688453 0.989011780703313 -17.3499757977124 0.989011780703312 -17.3499757977124 0.0851011564586923 67.7204381038541 
! Gamma         0                0                0                0                
! Port Impedance         50               0                50               0                
17.6                           0.0855387968288097 67.6270311805602 0.988949283866467 -17.4471720461124 0.988949283866466 -17.4471720461124 0.085541680571521 67.6326382643139 
! Gamma         0                0                0                0                
! Port Impedance         50               0                50               0                
17.7                           0.0859788467006504 67.5391861653934 0.988886746859956 -17.5443541994345 0.988886746859955 -17.5443541994345 0.0859817614411425 67.5448145142553 
! Gamma         0                0                0                0                
! Port Impedance         50               0                50               0                
17.8                           0.0864184534694481 67.4513178671588 0.988824169784866 -17.6415223783141 0.988824169784865 -17.6415223783141 0.0864213992909953 67.4569673988631 
! Gamma         0                0                0                0                
! Port Impedance         50               0                50               0                
17.9                           0.0868576173329054 67.363426810979  0.988761552713619 -17.7386767022273 0.988761552713618 -17.7386767022273 0.0868605943160041 67.3690974446329 
! Gamma         0                0                0                0                
! Port Impedance         50               0                50               0                
18                             0.0872963384605606 67.2755135042401 0.988698895690512 -17.8358172894842 0.988698895690511 -17.8358172894842 0.087299346682952 67.2812051603266 
! Gamma         0                0                0                0                
! Port Impedance         50               0                50               0                
18.1                           0.0877346169941643 67.1875784375047 0.98863619873225 -17.9329442572229 0.988636198732249 -17.9329442572229 0.087737656530857 67.1932910378835 
! Gamma         0                0                0                0                
! Port Impedance         50               0                50               0                
18.2                           0.0881724530480594 67.0996220853821 0.988573461828476 -18.0300577214039 0.988573461828475 -18.0300577214039 0.0881755239713528 67.1053555532901 
! Gamma         0                0                0                0                
! Port Impedance         50               0                50               0                
18.3                           0.0886098467095656 67.0116449073581 0.988510684942292 -18.1271577968054 0.988510684942291 -18.1271577968054 0.0886129490890741 67.0173991674099 
! Gamma         0                0                0                0                
! Port Impedance         50               0                50               0                
18.4                           0.0890467980393668 66.9236473485874 0.988447868010778 -18.2242445970185 0.988447868010777 -18.2242445970185 0.0890499319420448 66.9294223267746 
! Gamma         0                0                0                0                
! Port Impedance         50               0                50               0                
18.5                           0.089483307071902 66.8356298406488 0.988385010945507 -18.321318234443 0.988385010945506 -18.321318234443 0.0894864725620692 66.8414254643393 
! Gamma         0                0                0                0                
! Port Impedance         50               0                50               0                
18.6                           0.0899193738157586 66.7475928022656 0.988322113633047 -18.4183788202838 0.988322113633046 -18.4183788202838 0.0899225709551257 66.7534090002017 
! Gamma         0                0                0                0                
! Port Impedance         50               0                50               0                
18.7                           0.0903549982540673 66.6595366399923 0.988259175935471 -18.5154264645475 0.98825917593547 -18.5154264645475 0.0903582271017628 66.6653733422886 
! Gamma         0                0                0                0                
! Port Impedance         50               0                50               0                
18.8                           0.0907901803448996 66.571461748869  0.988196197690849 -18.6124612760398 0.988196197690848 -18.6124612760398 0.0907934409574968 66.5773188870102 
! Gamma         0                0                0                0                
! Port Impedance         50               0                50               0                
18.9                           0.0912249200216662 66.483368513046  0.988133178713739 -18.7094833623627 0.988133178713738 -18.7094833623627 0.0912282124532104 66.4892460198836 
! Gamma         0                0                0                0                
! Port Impedance         50               0                50               0                
19                             0.0916592171935161 66.3952573063778 0.988070118795677 -18.8064928299126 0.988070118795677 -18.8064928299126 0.0916625414955526 66.4011551161265 
! Gamma         0                0                0                0                
! Port Impedance         50               0                50               0                
19.1                           0.0920930717457369 66.3071284929901 0.988007017705657 -18.9034897838788 0.988007017705656 -18.9034897838788 0.0920964279673392 66.3130465412241 
! Gamma         0                0                0                0                
! Port Impedance         50               0                50               0                
19.2                           0.092526483540155 66.2189824278196 0.987943875190601 -19.0004743282419 0.987943875190601 -19.0004743282419 0.0925298717279536 66.2249206514678 
! Gamma         0                0                0                0                
! Port Impedance         50               0                50               0                
19.3                           0.0929594524155362 66.1308194571274 0.987880690975838 -19.097446565773 0.987880690975838 -19.0974465657729 0.0929628726137477 66.136777794469  
! Gamma         0                0                0                0                
! Port Impedance         50               0                50               0                
19.4                           0.093391978187986 66.0426399189891 0.98781746476556 -19.1944065980331 0.987817464765559 -19.1944065980331 0.0933954304384421 66.0486183096483 
! Gamma         0                0                0                0                
! Port Impedance         50               0                50               0                
19.5                           0.0938240606513487 65.9544441437606 0.987754196243282 -19.2913545253732 0.987754196243282 -19.2913545253732 0.0938275449935261 65.9604425287008 
! Gamma         0                0                0                0                
! Port Impedance         50               0                50               0                
19.6                           0.0942556995776066 65.8662324545213 0.987690885072299 -19.3882904469338 0.987690885072299 -19.3882904469338 0.094259216048657 65.8722507760394 
! Gamma         0                0                0                0                
! Port Impedance         50               0                50               0                
19.7                           0.0946868947172775 65.7780051674965 0.98762753089613 -19.4852144606461 0.987627530896129 -19.4852144606461 0.0946904433520576 65.7840433692165 
! Gamma         0                0                0                0                
! Port Impedance         50               0                50               0                
19.8                           0.0951176457998116 65.6897625924587 0.987564133338959 -19.5821266632321 0.987564133338958 -19.5821266632321 0.0951212266309136 65.6958206193252 
! Gamma         0                0                0                0                
! Port Impedance         50               0                50               0                
19.9                           0.0955479525339858 65.6015050331094 0.987500692006072 -19.6790271502063 0.987500692006071 -19.6790271502063 0.0955515655917681 65.6075828313804 
! Gamma         0                0                0                0                
! Port Impedance         50               0                50               0                
20                             0.0959778146082979 65.5132327874422 0.987437206484288 -19.7759160158767 0.987437206484287 -19.7759160158767 0.0959814599209156 65.5193303046822 
! Gamma         -0               -0               0                0                
! Port Impedance         50               0                50               0                
