! Touchstone file exported from HFSS 2026.1.0
!        File:           C:/ffzhzh/LocalFiles/Ansys_Project_Files/temp_train_BSMRDL_1141_1783175463_43440.aedt
!        Generated:      10:32:17 PM Jul  4, 2026
!        Design:         BSMRDL
!        Project:        temp_train_BSMRDL_1141_1783175463_43440
!
! Variables:
!        h_bsmrdl = 3.36um
!        h_ox = 20um
!        h_rdl = 5um
!        h_sub = 80um
!        h_tmrdl = 5um
!        h_tsv = 80um
!        h_via = 3um
!        l_bsmrdl = 922.84um
!        l_sub = 1322.84um
!        l_tmrdl = 200um
!        m_sub = 200um
!        pitch = 34.2um
!        r_tsv = 6um
!        s_tmrdl = 10um
!        w_bsmrdl = 25.72um
!        w_sub = 500um
!        w_tmrdl = 12um
!        x_tsv_center1 = 206um
!        x_tsv_center2 = 1154.56um
!        x_tsv_center3 = 1366.56um
!        x_tsv_center4 = 2315.12um
!        x_tsv_center5 = 2527.12um
!        x_tsv_center6 = 3475.68um
!
# GHz S MA R 50.000000
! Terminal data exported
! Port[1] = BSM_RDL1_1_T1
! Port[2] = BSM_RDL1_1_T2
0.1                            0.00448021100682656 23.782441613807  0.995908466201923 -0.31244797022168 0.995908466201923 -0.312447970221685 0.00448019806690627 23.7821630432137 
! Gamma         0                0                0                0                
! Port Impedance         50               0                50               0                
0.2                            0.00565696936391508 36.9715829821721 0.99550342977734 -0.612260950703526 0.99550342977734 -0.612260950703551 0.00565696668998973 36.9745792434081 
! Gamma         0                0                0                0                
! Port Impedance         50               0                50               0                
0.3                            0.00689443651304586 43.6229576546127 0.995068035282397 -0.898189225185439 0.995068035282397 -0.898189225185487 0.00689478105428866 43.6274270498073 
! Gamma         0                0                0                0                
! Port Impedance         50               0                50               0                
0.4                            0.00804157134320412 47.7322767679092 0.994702963685722 -1.17536884630887 0.994702963685722 -1.17536884630894 0.00804235863182196 47.7360233520163 
! Gamma         0                0                0                0                
! Port Impedance         50               0                50               0                
0.5                            0.00911118750227171 50.8452832648129 0.994422116528729 -1.44844744872026 0.994422116528729 -1.44844744872033 0.00911234799395893 50.8473235951013 
! Gamma         0                0                0                0                
! Port Impedance         50               0                50               0                
0.6                            0.0101404024233056 53.4623174050193 0.994208742887591 -1.72003948161567 0.994208742887589 -1.72003948161574 0.010141824837082 53.4624897672355 
! Gamma         0                0                0                0                
! Port Impedance         50               0                50               0                
0.7                            0.0111564236800573 55.7419336698551 0.994043024327752 -1.99135475098496 0.994043024327751 -1.99135475098502 0.0111580101567947 55.7404308512505 
! Gamma         0                0                0                0                
! Port Impedance         50               0                50               0                
0.8                            0.0121746381386784 57.7420925821909 0.993909405932723 -2.26288434346848 0.993909405932722 -2.26288434346854 0.0121763170679273 57.739205827977  
! Gamma         0                0                0                0                
! Port Impedance         50               0                50               0                
0.9                            0.0132024969866733 59.4943027394985 0.993796964996821 -2.53479114836402 0.993796964996819 -2.53479114836406 0.0132042204840626 59.490312833774  
! Gamma         0                0                0                0                
! Port Impedance         50               0                50               0                
1                              0.0142429106817455 61.0241167828421 0.993698279014067 -2.80709757045296 0.993698279014065 -2.80709757045299 0.0142446486922997 61.0192582033492 
! Gamma         0                0                0                0                
! Port Impedance         50               0                50               0                
1.1                            0.0152963952758744 62.3556028694546 0.993608321743486 -3.07977038113497 0.993608321743484 -3.079770381135  0.0152981301895258 62.3500589034703 
! Gamma         0                0                0                0                
! Port Impedance         50               0                50               0                
1.2                            0.0163622931180355 63.5116046029959 0.993523661064735 -3.35275791144407 0.993523661064733 -3.35275791144409 0.0163640157210526 63.5055135495421 
! Gamma         0                0                0                0                
! Port Impedance         50               0                50               0                
1.3                            0.0174394328539459 64.5132572429481 0.993441923198056 -3.62600580624366 0.993441923198054 -3.62600580624367 0.0174411395041452 64.5067212734133 
! Gamma         0                0                0                0                
! Port Impedance         50               0                50               0                
1.4                            0.0185264735054655 65.3796297400852 0.993361443646382 -3.89946324358826 0.99336144364638 -3.89946324358826 0.0185281642257194 65.372723241244  
! Gamma         0                0                0                0                
! Port Impedance         50               0                50               0                
1.5                            0.0196220763270215 66.1276097194416 0.993281040165837 -4.1730849687405 0.993281040165835 -4.17308496874049 0.0196237535376092 66.120386176728  
! Gamma         0                0                0                0                
! Port Impedance         50               0                50               0                
1.6                            0.0207249846424345 66.771968709953  0.993199863828612 -4.44683154731564 0.99319986382861 -4.44683154731563 0.0207266523232075 66.7644660602986 
! Gamma         0                0                0                0                
! Port Impedance         50               0                50               0                
1.7                            0.0218340554653523 67.32552878111   0.993117300012478 -4.7206689168991 0.993117300012476 -4.72066891689908 0.0218357186028075 67.3177734543137 
! Gamma         0                0                0                0                
! Port Impedance         50               0                50               0                
1.8                            0.0229482665657943 67.799372743054  0.993032901570463 -4.99456771586209 0.993032901570461 -4.99456771586207 0.0229499307879129 67.7913826675459 
! Gamma         0                0                0                0                
! Port Impedance         50               0                50               0                
1.9                            0.0240667116562884 68.2030625144367 0.992946343000605 -5.26850259430605 0.992946343000604 -5.26850259430602 0.0240683829909667 68.1948493371377 
! Gamma         0                0                0                0                
! Port Impedance         50               0                50               0                
2                              0.0251885904066889 68.5448465280616 0.992857388516387 -5.54245158743928 0.992857388516385 -5.54245158743925 0.025190275121593 68.5364172498847 
! Gamma         0                0                0                0                
! Port Impedance         50               0                50               0                
2.1                            0.0263131967675925 68.8318472839587 0.992765869456207 -5.81639557582831 0.992765869456205 -5.81639557582828 0.0263149012637378 68.8232054652107 
! Gamma         0                0                0                0                
! Port Impedance         50               0                50               0                
2.2                            0.0274399073399511 69.070226085936  0.992671668060836 -6.09031783295849 0.992671668060835 -6.09031783295844 0.0274416380807766 69.061372736526  
! Gamma         0                0                0                0                
! Port Impedance         50               0                50               0                
2.3                            0.0285681705953845 69.2653251784403 0.992574705656087 -6.36420365121916 0.992574705656085 -6.36420365121911 0.0285699340592834 69.2562594172896 
! Gamma         0                0                0                0                
! Port Impedance         50               0                50               0                
2.4                            0.0296974972595422 69.4217890447065 0.992474933925448 -6.63804003474892 0.992474933925447 -6.63804003474887 0.0296992999078737 69.412508589937  
! Gamma         0                0                0                0                
! Port Impedance         50               0                50               0                
2.5                            0.030827451918761 69.5436672433008 0.992372328379052 -6.91181544775228 0.99237232837905 -6.91181544775222 0.0308293001740459 69.5341687780244 
! Gamma         0                0                0                0                
! Port Impedance         50               0                50               0                
2.6                            0.0319576457882067 69.6345012767979 0.992266883403549 -7.18551960816828 0.992266883403548 -7.18551960816822 0.0319595460189828 69.6247807231455 
! Gamma         0                0                0                0                
! Port Impedance         50               0                50               0                
2.7                            0.033087730527255 69.697397853005  0.992158608463692 -7.45914331813189 0.99215860846369 -7.45914331813183 0.0330896890372476 69.6874505782152 
! Gamma         0                0                0                0                
! Port Impedance         50               0                50               0                
2.8                            0.0342173929718636 69.7350906563456 0.992047525152564 -7.73267832417629 0.992047525152562 -7.73267832417623 0.034219415991916 69.7249116283476 
! Gamma         0                0                0                0                
! Port Impedance         50               0                50               0                
2.9                            0.0353463506559319 69.7499924708409 0.991933664874057 -8.00611720145043 0.991933664874056 -8.00611720145036 0.0353484443376703 69.7395763761406 
! Gamma         0                0                0                0                
! Port Impedance         50               0                50               0                
3                              0.0364743480042772 69.7442392255514 0.991817067001329 -8.27945325733861 0.991817067001328 -8.27945325733855 0.0364765184148413 69.7335805588722 
! Gamma         0                0                0                0                
! Port Impedance         50               0                50               0                
3.1                            0.0376011530936214 69.7197272864898 0.991697777397289 -8.55268045078033 0.991697777397288 -8.55268045078027 0.0376034062110327 69.7088204191682 
! Gamma         0                0                0                0                
! Port Impedance         50               0                50               0                
3.2                            0.0387265548921733 69.6781451025958 0.991575847213158 -8.82579332432347 0.991575847213157 -8.8257933243234 0.0387288966010747 69.6669843349384 
! Gamma         0                0                0                0                
! Port Impedance         50               0                50               0                
3.3                            0.039850360901708 69.6210001281468 0.991451331902727 -9.0987869465329 0.991451331902726 -9.09878694653283 0.0398527969893179 69.6095797296392 
! Gamma         0                0                0                0                
! Port Impedance         50               0                50               0                
3.4                            0.0409723951379383 69.5496417878676 0.99132429040553 -9.371656862846  0.991324290405529 -9.37165686284593 0.0409749312901351 69.5379560281507 
! Gamma         0                0                0                0                
! Port Impedance         50               0                50               0                
3.5                            0.0420924963952943 69.4652811206723 0.991194784463565 -9.64439905334054 0.991194784463564 -9.64439905334047 0.0420951381927937 69.4533242934797 
! Gamma         0                0                0                0                
! Port Impedance         50               0                50               0                
3.6                            0.0432105167510273 69.3690076298403 0.991062878044629 -9.91700989617868 0.991062878044628 -9.9170098961786 0.0432132696656484 69.3567740715537 
! Gamma         0                0                0                0                
! Port Impedance         50               0                50               0                
3.7                            0.0443263202709763 69.2618037780284 0.990928636851584 -10.1894861357282 0.990928636851583 -10.1894861357282 0.0443291896620101 69.2492878821046 
! Gamma         0                0                0                0                
! Port Impedance         50               0                50               0                
3.8                            0.0454397818855496 69.1445574917557 0.990792127901545 -10.4618248545527 0.990792127901545 -10.4618248545526 0.0454427729962539 69.1317537199768 
! Gamma         0                0                0                0                
! Port Impedance         50               0                50               0                
3.9                            0.0465507864096524 69.0180729791695 0.990653419162548 -10.7340234486133 0.990653419162547 -10.7340234486133 0.046553904363907 69.00497587044   
! Gamma         0                0                0                0                
! Port Impedance         50               0                50               0                
4                              0.047659227684606 68.8830801147339 0.990512579237913 -11.0060796051501 0.990512579237912 -11.00607960515  0.0476624774837596 68.8696842919773 
! Gamma         0                0                0                0                
! Port Impedance         50               0                50               0                
4.1                            0.0487650078236794 68.740242603073  0.990369677090599 -11.2779912828046 0.990369677090598 -11.2779912828046 0.0487683943436228 68.7265427786474 
! Gamma         0                0                0                0                
! Port Impedance         50               0                50               0                
4.2                            0.0498680365458323 68.590165099971  0.990224781801394 -11.5497566936311 0.990224781801393 -11.549756693631 0.0498715645343295 68.5761560799256 
! Gamma         0                0                0                0                
! Port Impedance         50               0                50               0                
4.3                            0.050968230584741 68.433399440193  0.990077962356033 -11.821374286702 0.990077962356033 -11.821374286702 0.0509719046590471 68.4190761276118 
! Gamma         0                0                0                0                
! Port Impedance         50               0                50               0                
4.4                            0.0520655131622337 68.2704500982818 0.989929287457275 -12.0928427330723 0.989929287457275 -12.0928427330722 0.0520693378070248 68.2558074959007 
! Gamma         0                0                0                0                
! Port Impedance         50               0                50               0                
4.5                            0.0531598135169782 68.1017789889408 0.989778825358695 -12.3641609119028 0.989778825358694 -12.3641609119028 0.0531637930826154 68.0868122011814 
! Gamma         0                0                0                0                
! Port Impedance         50               0                50               0                
4.6                            0.0542510664806939 67.9278096973277 0.989626643717558 -12.6353278975848 0.989626643717557 -12.6353278975848 0.0542552051818385 67.9125139318589 
! Gamma         0                0                0                0                
! Port Impedance         50               0                50               0                
4.7                            0.0553392120953548 67.7489312159865 0.989472809464576 -12.9063429477305 0.989472809464575 -12.9063429477305 0.0553435140099496 67.7333017848942 
! Gamma         0                0                0                0                
! Port Impedance         50               0                50               0                
4.8                            0.0564241952658526 67.5655012537527 0.989317388688719 -13.1772054919215 0.989317388688719 -13.1772054919215 0.0564286643344788 67.5495335743834 
! Gamma         0                0                0                0                
! Port Impedance         50               0                50               0                
4.9                            0.0575059654434283 67.3778491724146 0.989160446535544 -13.4479151211242 0.989160446535544 -13.4479151211242 0.0575106054690442 67.3615387679403 
! Gamma         0                0                0                0                
! Port Impedance         50               0                50               0                
5                              0.0585844763358865 67.18627859887   0.989002047117723 -13.7184715776981 0.989002047117722 -13.7184715776981 0.0585892909839512 67.1696210986107 
! Gamma         0                0                0                0                
! Port Impedance         50               0                50               0                
5.1                            0.0596596856411998 66.9910697537365 0.988842253436654 -13.9888747459349 0.988842253436654 -13.9888747459348 0.0596646784401822 66.9740608932691 
! Gamma         0                0                0                0                
! Port Impedance         50               0                50               0                
5.2                            0.0607315548016152 66.7924815316393 0.988681127314179 -14.2591246430773 0.988681127314178 -14.2591246430773 0.0607367291438837 66.7751171527135 
! Gamma         0                0                0                0                
! Port Impedance         50               0                50               0                
5.3                            0.061800048775794 66.5907533635406 0.988518729333533 -14.5292214107762 0.988518729333533 -14.5292214107761 0.0618054079188829 66.5730294138182 
! Gamma         0                0                0                0                
! Port Impedance         50               0                50               0                
5.4                            0.0628651358268797 66.3861068873433 0.988355118788798 -14.7991653069492 0.988355118788798 -14.7991653069491 0.0628706828951221 66.3680194199741 
! Gamma         0                0                0                0                
! Port Impedance         50               0                50               0                
5.5                            0.0639267873246882 66.1787474494883 0.988190353642154 -15.068956698013 0.988190353642153 -15.0689566980129 0.0639325253112051 66.1602926225327 
! Gamma         0                0                0                0                
! Port Impedance         50               0                50               0                
5.6                            0.0649849775604755 65.9688654572598 0.988024490488333 -15.3385960514641 0.988024490488333 -15.338596051464 0.0649909093295094 65.9500395329647 
! Gamma         0                0                0                0                
! Port Impedance         50               0                50               0                
5.7                            0.0660396835729565 65.7566375989446 0.987857584525723 -15.6080839287871 0.987857584525723 -15.6080839287871 0.0660458118625339 65.7374369428823 
! Gamma         0                0                0                0                
! Port Impedance         50               0                50               0                
5.8                            0.0670908849844352 65.5422279467918 0.987689689533595 -15.8774209786739 0.987689689533595 -15.8774209786739 0.0670972124093426 65.5226490268644 
! Gamma         0                0                0                0                
! Port Impedance         50               0                50               0                
5.9                            0.0681385638460654 65.3257889558226 0.987520857855008 -16.1466079305381 0.987520857855008 -16.1466079305381 0.068145092901121 65.3058283411395 
! Gamma         0                0                0                0                
! Port Impedance         50               0                50               0                
6                              0.0691827044913966 65.1074623699118 0.987351140384941 -16.4156455883123 0.987351140384941 -16.4156455883123 0.0691894375550002 65.0871167295447 
! Gamma         0                0                0                0                
! Port Impedance         50               0                50               0                
6.1                            0.0702232933974758 64.8873800451552 0.987180586563248 -16.6845348245173 0.987180586563248 -16.6845348245172 0.0702302327354161 64.8666461467751 
! Gamma         0                0                0                0                
! Port Impedance         50               0                50               0                
6.2                            0.0712603190528744 64.6656646993212 0.98700924437207 -16.9532765745926 0.98700924437207 -16.9532765745926 0.071267466822375 64.644539407722  
! Gamma         0                0                0                0                
! Port Impedance         50               0                50               0                
6.3                            0.072293771832093 64.442430595127  0.986837160337325 -17.2218718314808 0.986837160337325 -17.2218718314808 0.0723011300860759 64.4209108706415 
! Gamma         0                0                0                0                
! Port Impedance         50               0                50               0                
6.4                            0.0733236438758703 64.2177841641694 0.986664379533967 -17.4903216404567 0.986664379533967 -17.4903216404566 0.0733312145674155 64.195867060981  
! Gamma         0                0                0                0                
! Port Impedance         50               0                50               0                
6.5                            0.0743499289769829 63.9918245775379 0.98649094559468 -17.7586270941941 0.98649094559468 -17.7586270941941 0.0743577139639629 63.9695072418954 
! Gamma         0                0                0                0                
! Port Impedance         50               0                50               0                
6.6                            0.0753726224711748 63.7646442684492 0.986316900721714 -18.0267893280647 0.986316900721714 -18.0267893280647 0.0753806235210432 63.7419239367876 
! Gamma         0                0                0                0                
! Port Impedance         50               0                50               0                
6.7                            0.076391721132902 63.5363294116305 0.986142285701581 -18.2948095156607 0.986142285701581 -18.2948095156607 0.076399939927614 63.5132034086048 
! Gamma         0                0                0                0                
! Port Impedance         50               0                50               0                
6.8                            0.0774072230756134 63.3069603636539 0.985967139922352 -18.5626888645365 0.985967139922352 -18.5626888645365 0.0774156612166574 63.2834261000909 
! Gamma         0                0                0                0                
! Port Impedance         50               0                50               0                
6.9                            0.0784191276563255 63.076612067955  0.985791501393285 -18.8304286121627 0.985791501393285 -18.8304286121626 0.0784277866698436 63.052667038729  
! Gamma         0                0                0                0                
! Port Impedance         50               0                50               0                
7                              0.0794274353842715 62.8453544278639 0.985615406766566 -19.0980300220872 0.985615406766566 -19.0980300220872 0.0794363167262504 62.8209962097016 
! Gamma         0                0                0                0                
! Port Impedance         50               0                50               0                
7.1                            0.0804321478334337 62.6132526506173 0.985438891360928 -19.3654943802971 0.985438891360928 -19.3654943802971 0.0804412528949433 62.5884788998394 
! Gamma         0                0                0                0                
! Port Impedance         50               0                50               0                
7.2                            0.0814332675587854 62.3803675650048 0.985261989186931 -19.6328229917758 0.985261989186931 -19.6328229917758 0.0814425976712469 62.3551760152079 
! Gamma         0                0                0                0                
! Port Impedance         50               0                50               0                
7.3                            0.0824307980160871 62.1467559150223 0.985084732973717 -19.9000171772499 0.985084732973717 -19.9000171772499 0.0824403544565505 62.1211443747095 
! Gamma         0                0                0                0                
! Port Impedance         50               0                50               0                
7.4                            0.0834247434850955 61.9124706316631 0.984907154197038 -20.1670782701199 0.984907154197038 -20.1670782701199 0.083434527481508 61.8864369818282 
! Gamma         0                0                0                0                
! Port Impedance         50               0                50               0                
7.5                            0.0844151089960571 61.6775610847557 0.98472928310839 -20.4340076135698 0.984729283108389 -20.4340076135698 0.0844251217325049 61.6511032764268 
! Gamma         0                0                0                0                
! Port Impedance         50               0                50               0                
7.6                            0.0854019002593677 61.4420733165657 0.984551148765078 -20.7008065578487 0.984551148765078 -20.7008065578487 0.0854121428812739 61.4151893683151 
! Gamma         0                0                0                0                
! Port Impedance         50               0                50               0                
7.7                            0.0863851235982894 61.2060502587102 0.984372779061067 -20.9674764577201 0.984372779061067 -20.9674764577201 0.0863955972175508 61.178738254136  
! Gamma         0                0                0                0                
! Port Impedance         50               0                50               0                
7.8                            0.0873647858846223 60.9695319337768 0.984194200758465 -21.234018670072 0.984194200758465 -21.234018670072 0.0873754915846703 60.9417900189623 
! Gamma         0                0                0                0                
! Port Impedance         50               0                50               0                
7.9                            0.0883408944772372 60.7325556429081 0.984015439519504 -21.5004345516839 0.984015439519504 -21.500434551684 0.0883518333180077 60.7043820238649 
! Gamma         0                0                0                0                
! Port Impedance         50               0                50               0                
8                              0.089313457163377 60.4951561404896 0.983836519938896 -21.7667254571429 0.983836519938896 -21.766725457143 0.0893246301861752 60.4665490805889 
! Gamma         0                0                0                0                
! Port Impedance         50               0                50               0                
8.1                            0.0902824821026445 60.2573657969708 0.983657465576451 -22.0328927369052 0.983657465576451 -22.0328927369052 0.0902938903348919 60.2283236143707 
! Gamma         0                0                0                0                
! Port Impedance         50               0                50               0                
8.2                            0.0912479777735925 60.0192147507563 0.98347829898983 -22.2989377354963 0.98347829898983 -22.2989377354963 0.0912596222334427 59.9897358158275 
! Gamma         0                0                0                0                
! Port Impedance         50               0                50               0                
8.3                            0.0922099529228399 59.7807310500128 0.983299041767361 -22.5648617898453 0.98329904176736 -22.5648617898453 0.0922218346236533 59.750813782771  
! Gamma         0                0                0                0                
! Port Impedance         50               0                50               0                
8.4                            0.0931684165166371 59.5419407851664 0.9831197145608  -22.8306662277472 0.983119714560799 -22.8306662277473 0.0931805364713027 59.5115836527135 
! Gamma         0                0                0                0                
! Port Impedance         50               0                50               0                
8.5                            0.0941233776948091 59.3028682127901 0.98294033711797 -23.0963523664478 0.98294033711797 -23.0963523664478 0.0941357369199045 59.2720697267711 
! Gamma         0                0                0                0                
! Port Impedance         50               0                50               0                
8.6                            0.095074845727005 59.0635358715235 0.982760928315192 -23.361921511346 0.982760928315192 -23.361921511346 0.0950874452467848 59.032294585602  
! Gamma         0                0                0                0                
! Port Impedance         50               0                50               0                
8.7                            0.096022829971184 58.8239646906079 0.982581506189442 -23.6273749548095 0.982581506189441 -23.6273749548095 0.0960356708213902 58.7922791979663 
! Gamma         0                0                0                0                
! Port Impedance         50               0                50               0                
8.8                            0.0969673398342727 58.5841740915721 0.982402087970163 -23.8927139750961 0.982402087970163 -23.8927139750961 0.0969804230657578 58.5520430224387 
! Gamma         0                0                0                0                
! Port Impedance         50               0                50               0                
8.9                            0.0979083847349253 58.3441820835564 0.982222690110695 -24.1579398353783 0.982222690110694 -24.1579398353783 0.0979217114170833 58.3116041027653 
! Gamma         0                0                0                0                
! Port Impedance         50               0                50               0                
9                              0.0988459740683245 58.1040053527237 0.982043328319235 -24.4230537828645 0.982043328319235 -24.4230537828645 0.098859545292323 58.0709791573092 
! Gamma         0                0                0                0                
! Port Impedance         50               0                50               0                
9.1                            0.099780117172957 57.8636593461683 0.981864017589324 -24.688057048013 0.981864017589324 -24.688057048013 0.0997939340547673 57.830183662999  
! Gamma         0                0                0                0                
! Port Impedance         50               0                50               0                
9.2                            0.100710823299304 57.6231583506991 0.981684772229786 -24.9529508438335 0.981684772229785 -24.9529508438335 0.100724886982523 57.5892319341539 
! Gamma         0                0                0                0                
! Port Impedance         50               0                50               0                
9.3                            0.101638101580385 57.3825155668459 0.981505605894098 -25.2177363652715 0.981505605894097 -25.2177363652715 0.101652413238845 57.3481371965347 
! Gamma         0                0                0                0                
! Port Impedance         50               0                50               0                
9.4                            0.10256196100409 57.141743178406  0.981326531609166 -25.4824147886721 0.981326531609165 -25.4824147886721 0.102576521844257 57.1069116569392 
! Gamma         0                0                0                0                
! Port Impedance         50               0                50               0                
9.5                            0.10348241038725 56.9008524178281 0.98114756180346 -25.7469872713173 0.981147561803459 -25.7469872713173 0.103497221650409 56.8655665686359 
! Gamma         0                0                0                0                
! Port Impedance         50               0                50               0                
9.6                            0.10439945835138 56.6598536277037 0.980968708334507 -26.0114549510341 0.980968708334507 -26.0114549510341 0.104414521315593 56.6241122929086 
! Gamma         0                0                0                0                
! Port Impedance         50               0                50               0                
9.7                            0.105313113300038 56.4187563186183 0.980789982515711 -26.2758189458685 0.98078998251571 -26.2758189458685 0.105328429281898 56.3825583569622 
! Gamma         0                0                0                0                
! Port Impedance         50               0                50               0                
9.8                            0.10622338339775 56.1775692235938 0.980611395142479 -26.540080353822 0.980611395142479 -26.5400803538221 0.106238953753905 56.1409135084224 
! Gamma         0                0                0                0                
! Port Impedance         50               0                50               0                
9.9                            0.107130276550436 55.9363003493375 0.980432956517665 -26.8042402526462 0.980432956517664 -26.8042402526462 0.107146102678899 55.899185766643  
! Gamma         0                0                0                0                
! Port Impedance         50               0                50               0                
10                             0.10803380038729 55.6949570244987 0.980254676476284 -27.0682996996921 0.980254676476284 -27.0682996996921 0.108049883728536 55.6573824710225 
! Gamma         0                0                0                0                
! Port Impedance         50               0                50               0                
10.1                           0.108933962244063 55.4535459451147 0.980076564409534 -27.3322597318117 0.980076564409533 -27.3322597318118 0.108950304281902 55.4155103265118 
! Gamma         0                0                0                0                
! Port Impedance         50               0                50               0                
10.2                           0.109830769147685 55.2120732174222 0.97989862928808 -27.5961213653066 0.979898629288079 -27.5961213653066 0.109847371409926 55.1735754464878 
! Gamma         0                0                0                0                
! Port Impedance         50               0                50               0                
10.3                           0.110724227802187 54.97054439819   0.979720879684629 -27.8598855959214 0.979720879684628 -27.8598855959215 0.11074109186109 54.93158339315   
! Gamma         0                0                0                0                
! Port Impedance         50               0                50               0                
10.4                           0.11161434457587 54.7289645327255 0.979543323795784 -28.1235533988798 0.979543323795783 -28.1235533988798 0.111631472048384 54.689539215591  
! Gamma         0                0                0                0                
! Port Impedance         50               0                50               0                
10.5                           0.112501125489668 54.4873381906901 0.979365969463174 -28.3871257289579 0.979365969463173 -28.387125728958 0.112518518037463 54.4474474856768 
! Gamma         0                0                0                0                
! Port Impedance         50               0                50               0                
10.6                           0.113384576206657 54.2456694998559 0.979188824193878 -28.6506035205949 0.979188824193877 -28.6506035205949 0.113402235535959 54.2053123318692 
! Gamma         0                0                0                0                
! Port Impedance         50               0                50               0                
10.7                           0.114264702022675 54.0039621779226 0.979011895180137 -28.9139876880357 0.979011895180136 -28.9139876880357 0.114282629883891 53.963137471108  
! Gamma         0                0                0                0                
! Port Impedance         50               0                50               0                
10.8                           0.115141507857988 53.7622195625071 0.978835189318365 -29.1772791255054 0.978835189318364 -29.1772791255054 0.115159706045142 53.7209262388668 
! Gamma         0                0                0                0                
! Port Impedance         50               0                50               0                
10.9                           0.116014998249976 53.520444639413  0.978658713227472 -29.4404787074109 0.978658713227471 -29.4404787074109 0.116033468599949 53.4786816174883 
! Gamma         0                0                0                0                
! Port Impedance         50               0                50               0                
11                             0.116885177346784 53.2786400692763 0.978482473266496 -29.703587288569 0.978482473266495 -29.7035872885691 0.116903921738368 53.2364062628958 
! Gamma         0                0                0                0                
! Port Impedance         50               0                50               0                
11.1                           0.117752048901901 53.0368082126813 0.978306475551574 -29.9666057044582 0.978306475551573 -29.9666057044582 0.11777106925467 52.9941025297751 
! Gamma         0                0                0                0                
! Port Impedance         50               0                50               0                
11.2                           0.118615616269626 52.7949511538333 0.978130725972245 -30.2295347714915 0.978130725972244 -30.2295347714915 0.118634914542627 52.7517724953117 
! Gamma         0                0                0                0                
! Port Impedance         50               0                50               0                
11.3                           0.119475882401374 52.5530707228671 0.977955230207103 -30.4923752873096 0.977955230207102 -30.4923752873096 0.119495460591649 52.5094179815656 
! Gamma         0                0                0                0                
! Port Impedance         50               0                50               0                
11.4                           0.120332849842802 52.3111685168711 0.97777999373882 -30.755128031091 0.977779993738818 -30.755128031091 0.120352709983733 52.2670405765581 
! Gamma         0                0                0                0                
! Port Impedance         50               0                50               0                
11.5                           0.121186520731689 52.0692459196947 0.977605021868546 -31.017793763879 0.977605021868544 -31.017793763879 0.121206664891191 52.0246416541446 
! Gamma         0                0                0                0                
! Port Impedance         50               0                50               0                
11.6                           0.122036896796564 51.8273041206092 0.977430319729697 -31.2803732289217 0.977430319729695 -31.2803732289217 0.122057327075114 51.7822223927378 
! Gamma         0                0                0                0                
! Port Impedance         50               0                50               0                
11.7                           0.122883979356023 51.5853441318839 0.977255892301153 -31.5428671520261 0.977255892301152 -31.5428671520262 0.122904697884538 51.5397837929459 
! Gamma         0                0                0                0                
! Port Impedance         50               0                50               0                
11.8                           0.123727769318714 51.3433668053372 0.977081744419875 -31.8052762419222 0.977081744419874 -31.8052762419223 0.123748778256286 51.2973266941857 
! Gamma         0                0                0                0                
! Port Impedance         50               0                50               0                
11.9                           0.124568267183956 51.1013728479185 0.976907880792961 -32.0676011906376 0.97690788079296 -32.0676011906376 0.12458956871544 51.0548517903252 
! Gamma         0                0                0                0                
! Port Impedance         50               0                50               0                
12                             0.125405473042953 50.8593628363745 0.976734306009146 -32.3298426738801 0.976734306009144 -32.3298426738801 0.125427069376427 50.812359644409  
! Gamma         0                0                0                0                
! Port Impedance         50               0                50               0                
12.1                           0.126239386580576 50.6173372310482 0.976561024549774 -32.5920013514284 0.976561024549773 -32.5920013514284 0.126261279944671 50.5698507025162 
! Gamma         0                0                0                0                
! Port Impedance         50               0                50               0                
12.2                           0.127070007077695 50.3752963888589 0.976388040799254 -32.8540778675276 0.976388040799253 -32.8540778675277 0.127092199718796 50.327325306798  
! Gamma         0                0                0                0                
! Port Impedance         50               0                50               0                
12.3                           0.127897333414005 50.1332405755063 0.976215359055003 -33.1160728512912 0.976215359055001 -33.1160728512912 0.127919827593347 50.084783707738  
! Gamma         0                0                0                0                
! Port Impedance         50               0                50               0                
12.4                           0.128721364071352 49.891169976941  0.976042983536906 -33.3779869171055 0.976042983536905 -33.3779869171055 0.128744162061991 49.8422260756778 
! Gamma         0                0                0                0                
! Port Impedance         50               0                50               0                
12.5                           0.129542097137501 49.6490847101404 0.975870918396309 -33.6398206650386 0.975870918396308 -33.6398206650386 0.129565201221192 49.5996525116478 
! Gamma         0                0                0                0                
! Port Impedance         50               0                50               0                
12.6                           0.130359530310346 49.4069848332281 0.975699167724543 -33.9015746812505 0.975699167724542 -33.9015746812505 0.130382942774312 49.3570630575383 
! Gamma         0                0                0                0                
! Port Impedance         50               0                50               0                
12.7                           0.131173660902521 49.1648703549701 0.975527735561011 -34.1632495384051 0.975527735561009 -34.1632495384051 0.131197384036137 49.114457705648  
! Gamma         0                0                0                0                
! Port Impedance         50               0                50               0                
12.8                           0.131984485846392 48.9227412436834 0.975356625900846 -34.4248457960826 0.975356625900845 -34.4248457960826 0.132008521937775 48.8718364076427 
! Gamma         0                0                0                0                
! Port Impedance         50               0                50               0                
12.9                           0.132792001699415 48.6805974355863 0.97518584270216 -34.6863640011919 0.975185842702159 -34.6863640011919 0.132816353031938 48.6291990829547 
! Gamma         0                0                0                0                
! Port Impedance         50               0                50               0                
13                             0.133596204649825 48.4384388426213 0.97501538989288 -34.9478046883823 0.975015389892879 -34.9478046883823 0.133620873498552 48.3865456266531 
! Gamma         0                0                0                0                
! Port Impedance         50               0                50               0                
13.1                           0.13439709052265 48.1962653597782 0.974845271377215 -35.2091683804538 0.974845271377213 -35.2091683804538 0.1344220791507  48.1438759168138 
! Gamma         0                0                0                0                
! Port Impedance         50               0                50               0                
13.2                           0.135194654786012 47.9540768719443 0.974675491041739 -35.4704555887653 0.974675491041737 -35.4704555887653 0.135219965440865 47.9011898214143 
! Gamma         0                0                0                0                
! Port Impedance         50               0                50               0                
13.3                           0.135988892557716 47.7118732603065 0.974506052761125 -35.731666813641 0.974506052761124 -35.731666813641 0.136014527467453 47.6584872047798 
! Gamma         0                0                0                0                
! Port Impedance         50               0                50               0                
13.4                           0.136779798612092 47.4696544083292 0.974336960403529 -35.9928025447731 0.974336960403528 -35.9928025447731 0.136805759981587 47.4157679336033 
! Gamma         0                0                0                0                
! Port Impedance         50               0                50               0                
13.5                           0.137567367387078 47.227420207331  0.974168217835642 -36.2538632616223 0.97416821783564 -36.2538632616223 0.137593657394141 47.1730318825634 
! Gamma         0                0                0                0                
! Port Impedance         50               0                50               0                
13.6                           0.138351592991532 46.9851705616809 0.973999828927426 -36.5148494338133 0.973999828927425 -36.5148494338133 0.13837821378301 46.9302789395603 
! Gamma         0                0                0                0                
! Port Impedance         50               0                50               0                
13.7                           0.139132469212748 46.7429053936344 0.973831797556545 -36.7757615215275 0.973831797556543 -36.7757615215276 0.139159422900592 46.6875090105901 
! Gamma         0                0                0                0                
! Port Impedance         50               0                50               0                
13.8                           0.139909989524165 46.5006246478289 0.973664127612492 -37.0365999758907 0.973664127612491 -37.0365999758907 0.139937278181461 46.4447220242773 
! Gamma         0                0                0                0                
! Port Impedance         50               0                50               0                
13.9                           0.140684147093257 46.2583282954568 0.973496823000449 -37.297365239356 0.973496823000448 -37.297365239356 0.140711772750237 46.2019179360836 
! Gamma         0                0                0                0                
! Port Impedance         50               0                50               0                
14                             0.141454934789582 46.0160163381323 0.973329887644858 -37.5580577460827 0.973329887644856 -37.5580577460827 0.141482899429611 45.959096732209  
! Gamma         0                0                0                0                
! Port Impedance         50               0                50               0                
14.1                           0.142222345192987 45.7736888114698 0.973163325492744 -37.8186779223091 0.973163325492742 -37.8186779223091 0.142250650748533 45.7162584332037 
! Gamma         0                0                0                0                
! Port Impedance         50               0                50               0                
14.2                           0.142986370601939 45.5313457883882 0.972997140516785 -38.0792261867205 0.972997140516784 -38.0792261867205 0.143015018950534 45.4734030973036 
! Gamma         0                0                0                0                
! Port Impedance         50               0                50               0                
14.3                           0.143747003041992 45.288987382156  0.972831336718144 -38.3397029508116 0.972831336718143 -38.3397029508116 0.143775996002192 45.2305308235064 
! Gamma         0                0                0                0                
! Port Impedance         50               0                50               0                
14.4                           0.144504234274364 45.0466137491922 0.972665918129067 -38.6001086192432 0.972665918129066 -38.6001086192432 0.144533573601696 44.9876417544012 
! Gamma         0                0                0                0                
! Port Impedance         50               0                50               0                
14.5                           0.145258055804604 44.8042250916335 0.972500888815268 -38.8604435901932 0.972500888815267 -38.8604435901932 0.145287743187531 44.7447360787646 
! Gamma         0                0                0                0                
! Port Impedance         50               0                50               0                
14.6                           0.146008458891367 44.5618216596837 0.972336252878103 -39.1207082557016 0.972336252878102 -39.1207082557016 0.146038495947249 44.5018140339359 
! Gamma         0                0                0                0                
! Port Impedance         50               0                50               0                
14.7                           0.146755434555256 44.3194037537546 0.972172014456541 -39.3809030020096 0.972172014456539 -39.3809030020096 0.146785822826332 44.2588759079839 
! Gamma         0                0                0                0                
! Port Impedance         50               0                50               0                
14.8                           0.147498973587737 44.0769717264101 0.972008177728946 -39.6410282098923 0.972008177728945 -39.6410282098923 0.147529714537119 44.0159220416758 
! Gamma         0                0                0                0                
! Port Impedance         50               0                50               0                
14.9                           0.148239066560117 43.8345259841255 0.971844746914677 -39.9010842549859 0.971844746914676 -39.9010842549859 0.148270161567809 43.7729528302593 
! Gamma         0                0                0                0                
! Port Impedance         50               0                50               0                
15                             0.148975703832572 43.5920669888704 0.97168172627551 -40.1610715081079 0.971681726275508 -40.1610715081079 0.149007154191514 43.5299687250672 
! Gamma         0                0                0                0                
! Port Impedance         50               0                50               0                
15.1                           0.14970887556322 43.349595259526  0.971519120116895 -40.4209903355717 0.971519120116893 -40.4209903355717 0.149740682475357 43.286970234956  
! Gamma         0                0                0                0                
! Port Impedance         50               0                50               0                
15.2                           0.150438571717221 43.1071113731443 0.971356932789057 -40.6808410994946 0.971356932789055 -40.6808410994946 0.150470736289613 43.0439579275849 
! Gamma         0                0                0                0                
! Port Impedance         50               0                50               0                
15.3                           0.151164782075917 42.8646159660607 0.971195168687939 -40.9406241580997 0.971195168687938 -40.9406241580997 0.151197305316881 42.800932430547  
! Gamma         0                0                0                0                
! Port Impedance         50               0                50               0                
15.4                           0.15188749624598 42.6221097348646 0.971033832256011 -41.2003398660113 0.971033832256009 -41.2003398660113 0.151920379061274 42.557894432357  
! Gamma         0                0                0                0                
! Port Impedance         50               0                50               0                
15.5                           0.152606703668577 42.3795934372387 0.970872927982928 -41.4599885745445 0.970872927982926 -41.4599885745445 0.152639946857632 42.3148446833078 
! Gamma         0                0                0                0                
! Port Impedance         50               0                50               0                
15.6                           0.15332239362854 42.1370678926725 0.97071246040607 -41.7195706319878 0.970712460406068 -41.7195706319878 0.15335599788074 42.0717839961989 
! Gamma         0                0                0                0                
! Port Impedance         50               0                50               0                
15.7                           0.15403455526354 41.8945339830581 0.970552434110951 -41.9790863838804 0.970552434110949 -41.9790863838804 0.154068521154546 41.828713246947  
! Gamma         0                0                0                0                
! Port Impedance         50               0                50               0                
15.8                           0.154743177573241 41.6519926531743 0.970392853731511 -42.2385361732825 0.97039285373151 -42.2385361732824 0.154777505561383 41.5856333750832 
! Gamma         0                0                0                0                
! Port Impedance         50               0                50               0                
15.9                           0.155448249428456 41.4094449110652 0.970233723950297 -42.49792034104  0.970233723950296 -42.49792034104  0.155482939851175 41.3425453841446 
! Gamma         0                0                0                0                
! Port Impedance         50               0                50               0                
16                             0.156149759580273 41.16689182832   0.970075049498535 -42.7572392260429 0.970075049498534 -42.7572392260429 0.156184812650625 41.0994503419651 
! Gamma         0                0                0                0                
! Port Impedance         50               0                50               0                
16.1                           0.156847696669165 40.9243345402586 0.969916835156104 -43.0164931654775 0.969916835156103 -43.0164931654775 0.156883112472393 40.8563493808723 
! Gamma         0                0                0                0                
! Port Impedance         50               0                50               0                
16.2                           0.157542049234062 40.6817742460295 0.969759085751412 -43.2756824950731 0.96975908575141 -43.275682495073 0.157577827724234 40.6132436977943 
! Gamma         0                0                0                0                
! Port Impedance         50               0                50               0                
16.3                           0.158232805721399 40.4392122086237 0.96960180616118 -43.534807549342 0.969601806161179 -43.534807549342 0.158268946718116 40.370134554283  
! Gamma         0                0                0                0                
! Port Impedance         50               0                50               0                
16.4                           0.158919954494117 40.1966497548109 0.969445001310145 -43.7938686618149 0.969445001310144 -43.7938686618148 0.158956457679294 40.127023276458  
! Gamma         0                0                0                0                
! Port Impedance         50               0                50               0                
16.5                           0.159603483840625 39.9540882750015 0.969288676170677 -44.0528661652687 0.969288676170676 -44.0528661652686 0.159640348755347 39.883911254876  
! Gamma         0                0                0                0                
! Port Impedance         50               0                50               0                
16.6                           0.160283381983709 39.7115292230392 0.969132835762318 -44.3118003919505 0.969132835762317 -44.3118003919504 0.160320608025169 39.6407999443289 
! Gamma         0                0                0                0                
! Port Impedance         50               0                50               0                
16.7                           0.160959637089399 39.4689741159279 0.968977485151254 -44.5706716737947 0.968977485151253 -44.5706716737947 0.160997223507913 39.3976908635775 
! Gamma         0                0                0                0                
! Port Impedance         50               0                50               0                
16.8                           0.161632237275769 39.2264245334976 0.968822629449712 -44.8294803426352 0.96882262944971 -44.8294803426352 0.161670183171874 39.1545855950205 
! Gamma         0                0                0                0                
! Port Impedance         50               0                50               0                
16.9                           0.162301170621687 38.983882118012  0.968668273815296 -45.0882267304115 0.968668273815295 -45.0882267304115 0.162339474943326 38.9114857843077 
! Gamma         0                0                0                0                
! Port Impedance         50               0                50               0                
17                             0.162966425175493 38.7413485737225 0.968514423450262 -45.3469111693703 0.968514423450261 -45.3469111693703 0.163005086715286 38.6683931398953 
! Gamma         0                0                0                0                
! Port Impedance         50               0                50               0                
17.1                           0.163627988963619 38.4988256663698 0.968361083600734 -45.6055339922609 0.968361083600733 -45.6055339922609 0.163667006356225 38.4253094325517 
! Gamma         0                0                0                0                
! Port Impedance         50               0                50               0                
17.2                           0.164285849999135 38.2563152226395 0.968208259555865 -45.864095532526 0.968208259555864 -45.864095532526 0.1643252217187  38.182236494814  
! Gamma         0                0                0                0                
! Port Impedance         50               0                50               0                
17.3                           0.164939996290218 38.0138191295717 0.96805595664695 -46.1225961244873 0.968055956646949 -46.1225961244873 0.164979720647926 37.9391762203982 
! Gamma         0                0                0                0                
! Port Impedance         50               0                50               0                
17.4                           0.165590415848554 37.7713393339284 0.967904180246487 -46.3810361035256 0.967904180246487 -46.3810361035256 0.16563049099026 37.6961305635681 
! Gamma         0                0                0                0                
! Port Impedance         50               0                50               0                
17.5                           0.166237096697655 37.5288778415226 0.967752935767202 -46.6394158062567 0.967752935767201 -46.6394158062567 0.166277520601625 37.4531015384633 
! Gamma         0                0                0                0                
! Port Impedance         50               0                50               0                
17.6                           0.166880026881091 37.2864367165099 0.967602228661017 -46.8977355707019 0.967602228661017 -46.8977355707018 0.166920797355835 37.2100912183901 
! Gamma         0                0                0                0                
! Port Impedance         50               0                50               0                
17.7                           0.167519194470649 37.0440180806458 0.967452064417997 -47.1559957364537 0.967452064417996 -47.1559957364537 0.167560309152852 36.9671017350773 
! Gamma         0                0                0                0                
! Port Impedance         50               0                50               0                
17.8                           0.168154587574391 36.8016241125112 0.967302448565243 -47.4141966448373 0.967302448565242 -47.4141966448373 0.168196043926949 36.7241352778996 
! Gamma         0                0                0                0                
! Port Impedance         50               0                50               0                
17.9                           0.168786194344634 36.5592570467077 0.967153386665763 -47.6723386390674 0.967153386665762 -47.6723386390674 0.168827989654786 36.4811940930703 
! Gamma         0                0                0                0                
! Port Impedance         50               0                50               0                
18                             0.169414002985831 36.3169191730259 0.967004884317308 -47.9304220643997 0.967004884317307 -47.9304220643997 0.169456134363401 36.2382804828059 
! Gamma         0                0                0                0                
! Port Impedance         50               0                50               0                
18.1                           0.170038001762359 36.0746128355864 0.966856947151173 -48.1884472682794 0.966856947151172 -48.1884472682794 0.170080466138095 35.9953968044639 
! Gamma         0                0                0                0                
! Port Impedance         50               0                50               0                
18.2                           0.170658179006217 35.8323404319583 0.966709580830979 -48.446414600484 0.966709580830978 -48.446414600484 0.170700973130239 35.7525454696565 
! Gamma         0                0                0                0                
! Port Impedance         50               0                50               0                
18.3                           0.171274523124613 35.5901044122547 0.966562791051423 -48.704324413263 0.966562791051422 -48.704324413263 0.171317643564966 35.5097289433413 
! Gamma         0                0                0                0                
! Port Impedance         50               0                50               0                
18.4                           0.171887022607465 35.3479072782079 0.966416583537006 -48.9621770614728 0.966416583537005 -48.9621770614728 0.171930465748778 35.2669497428913 
! Gamma         0                0                0                0                
! Port Impedance         50               0                50               0                
18.5                           0.172495666034787 35.1057515822253 0.966270964040743 -49.2199729027075 0.966270964040742 -49.2199729027075 0.172539428077039 35.0242104371448 
! Gamma         0                0                0                0                
! Port Impedance         50               0                50               0                
18.6                           0.173100442083979 34.8636399264283 0.966125938342847 -49.4777122974264 0.966125938342847 -49.4777122974263 0.173144519041374 34.7815136454381 
! Gamma         0                0                0                0                
! Port Impedance         50               0                50               0                
18.7                           0.173701339537008 34.6215749616751 0.965981512249401 -49.7353956090766 0.965981512249401 -49.7353956090766 0.173745727236957 34.5388620366214 
! Gamma         0                0                0                0                
! Port Impedance         50               0                50               0                
18.8                           0.174298347287481 34.3795593865684 0.965837691591007 -49.9930232042132 0.965837691591006 -49.9930232042132 0.174343041369691 34.2962583280594 
! Gamma         0                0                0                0                
! Port Impedance         50               0                50               0                
18.9                           0.174891454347606 34.1375959464507 0.965694482221422 -50.2505954526142 0.965694482221421 -50.2505954526142 0.174936450263285 34.0537052846187 
! Gamma         0                0                0                0                
! Port Impedance         50               0                50               0                
19                             0.175480649855049 33.8956874323861 0.965551890016186 -50.5081127273929 0.965551890016186 -50.5081127273929 0.175525942866213 33.8112057176421 
! Gamma         0                0                0                0                
! Port Impedance         50               0                50               0                
19.1                           0.176065923079674 33.6538366801324 0.965409920871229 -50.7655754051062 0.965409920871229 -50.7655754051062 0.176111508258563 33.5687624839117 
! Gamma         0                0                0                0                
! Port Impedance         50               0                50               0                
19.2                           0.176647263430167 33.4120465691029 0.96526858070147 -51.0229838658601 0.965268580701469 -51.0229838658601 0.176693135658776 33.3263784846019 
! Gamma         0                0                0                0                
! Port Impedance         50               0                50               0                
19.3                           0.177224660460545 33.1703200213186 0.965127875439407 -51.2803384934107 0.965127875439407 -51.2803384934107 0.177270814430262 33.0840566642229 
! Gamma         0                0                0                0                
! Port Impedance         50               0                50               0                
19.4                           0.177798103876556 32.9286600003542 0.9649878110337  -51.5376396752629 0.9649878110337  -51.5376396752629 0.177844534087908 32.8418000095567 
! Gamma         0                0                0                0                
! Port Impedance         50               0                50               0                
19.5                           0.17836758354195 32.6870695102759 0.96484839344774 -51.7948878027654 0.96484839344774 -51.7948878027654 0.17841428430446 32.599611548585  
! Gamma         0                0                0                0                
! Port Impedance         50               0                50               0                
19.6                           0.178933089484639 32.4455515945736 0.964709628658218 -52.0520832712028 0.964709628658218 -52.0520832712028 0.178980054916788 32.3574943494114 
! Gamma         0                0                0                0                
! Port Impedance         50               0                50               0                
19.7                           0.179494611902732 32.2041093350882 0.964571522653683 -52.3092264798839 0.964571522653683 -52.3092264798839 0.179541835932036 32.115451519178  
! Gamma         0                0                0                0                
! Port Impedance         50               0                50               0                
19.8                           0.18005214117045 31.9627458509348 0.964434081433101 -52.5663178322282 0.964434081433102 -52.5663178322282 0.180099617533639 31.8734862029778 
! Gamma         0                0                0                0                
! Port Impedance         50               0                50               0                
19.9                           0.180605667843916 31.7214642974217 0.964297311004404 -52.8233577358482 0.964297311004404 -52.8233577358482 0.180653390087226 31.6316015827624 
! Gamma         0                0                0                0                
! Port Impedance         50               0                50               0                
20                             0.181155182666831 31.4802678649673 0.964161217383038 -53.0803466026295 0.964161217383038 -53.0803466026295 0.181203144146397 31.3898008762478 
! Gamma         -0               -0               -0               -0               
! Port Impedance         50               0                50               0                
