! Touchstone file exported from HFSS 2026.1.0
!        File:           C:/ffzhzh/LocalFiles/Ansys_Project_Files/temp_train_BSMRDL_797_1783169641_55132.aedt
!        Generated:      08:55:15 PM Jul  4, 2026
!        Design:         BSMRDL
!        Project:        temp_train_BSMRDL_797_1783169641_55132
!
! Variables:
!        h_bsmrdl = 3.86um
!        h_ox = 20um
!        h_rdl = 5um
!        h_sub = 80um
!        h_tmrdl = 5um
!        h_tsv = 80um
!        h_via = 3um
!        l_bsmrdl = 448.26um
!        l_sub = 848.26um
!        l_tmrdl = 200um
!        m_sub = 200um
!        pitch = 51.76um
!        r_tsv = 6um
!        s_tmrdl = 10um
!        w_bsmrdl = 29.89um
!        w_sub = 500um
!        w_tmrdl = 12um
!        x_tsv_center1 = 206um
!        x_tsv_center2 = 684.15um
!        x_tsv_center3 = 896.15um
!        x_tsv_center4 = 1374.3um
!        x_tsv_center5 = 1586.3um
!        x_tsv_center6 = 2064.45um
!
# GHz S MA R 50.000000
! Terminal data exported
! Port[1] = BSM_RDL1_1_T1
! Port[2] = BSM_RDL1_1_T2
0.1                            0.00225128064979207 43.3662308579541 0.9983667728997  -0.170661228047737 0.998366772899696 -0.17066122804774 0.00225127856136539 43.3661071805563 
! Gamma         0                0                0                0                
! Port Impedance         50               0                50               0                
0.2                            0.00349003736506463 59.1583088813908 0.998221974872912 -0.335561916453759 0.998221974872908 -0.335561916453713 0.0034900851380786 59.1590188360119 
! Gamma         0                0                0                0                
! Port Impedance         50               0                50               0                
0.3                            0.00477604109949097 66.0612978845472 0.998091783113561 -0.495819922216762 0.998091783113557 -0.495819922216669 0.00477617646598168 66.0614572296355 
! Gamma         0                0                0                0                
! Port Impedance         50               0                50               0                
0.4                            0.00605748594494962 70.1193848524865 0.997995409243029 -0.654139036432163 0.997995409243026 -0.65413903643205 0.00605767425391999 70.1187498354374 
! Gamma         0                0                0                0                
! Port Impedance         50               0                50               0                
0.5                            0.00734155992555704 72.8768069354326 0.997924297206147 -0.811943246595091 0.997924297206144 -0.811943246594978 0.00734176354233794 72.8755731901572 
! Gamma         0                0                0                0                
! Port Impedance         50               0                50               0                
0.6                            0.0086333855958629 74.8758392377915 0.997868266952492 -0.969747716230146 0.997868266952489 -0.96974771623004 0.00863358126559069 74.8742196564591 
! Gamma         0                0                0                0                
! Port Impedance         50               0                50               0                
0.7                            0.00993382455285756 76.3756329817488 0.997820399702035 -1.12769649768731 0.997820399702033 -1.12769649768722 0.00993400041012623 76.3737730518288 
! Gamma         0                0                0                0                
! Port Impedance         50               0                50               0                
0.8                            0.0112419499396436 77.5257673292239 0.997776474521463 -1.28580573879352 0.997776474521461 -1.28580573879344 0.0112421007046758 77.5237542770582 
! Gamma         0                0                0                0                
! Port Impedance         50               0                50               0                
0.9                            0.0125563841514813 78.4214895924697 0.997733951002614 -1.44405283028636 0.997733951002613 -1.4440528302863 0.0125565079841504 78.4193728626155 
! Gamma         0                0                0                0                
! Port Impedance         50               0                50               0                
1                              0.0138757993005619 79.1268700423158 0.997691277986071 -1.6024068714597 0.99769127798607 -1.60240687145964 0.013875896068833 79.1246765418739 
! Gamma         0                0                0                0                
! Port Impedance         50               0                50               0                
1.1                            0.015199059591206 79.6865968307658 0.997647487877251 -1.76083837969102 0.99764748787725 -1.76083837969098 0.0151991299688511 79.6843403945266 
! Gamma         0                0                0                0                
! Port Impedance         50               0                50               0                
1.2                            0.0165252341370461 80.1327122184272 0.997601964820936 -1.91932183662024 0.997601964820935 -1.9193218366202 0.016525279142743 80.1303991746334 
! Gamma         0                0                0                0                
! Port Impedance         50               0                50               0                
1.3                            0.0178535702500756 80.4887239952593 0.997554310947737 -2.07783585822108 0.997554310947736 -2.07783585822106 0.0178535910149471 80.4863563909744 
! Gamma         0                0                0                0                
! Port Impedance         50               0                50               0                
1.4                            0.0191834596101894 80.7722247556639 0.997504267465282 -2.23636266932216 0.997504267465281 -2.23636266932214 0.0191834572629129 80.7698022258571 
! Gamma         0                0                0                0                
! Port Impedance         50               0                50               0                
1.5                            0.0205144077171183 80.9966138951231 0.997451666858746 -2.39488745941114 0.997451666858745 -2.39488745941113 0.0205143833295426 80.9941347507862 
! Gamma         0                0                0                0                
! Port Impedance         50               0                50               0                
1.6                            0.0218460090543255 81.1722589176529 0.997396403138601 -2.5533978016391 0.9973964031386  -2.5533978016391 0.0218459636181329 81.1697207820084 
! Gamma         0                0                0                0                
! Port Impedance         50               0                50               0                
1.7                            0.0231779277313952 81.3072959511237 0.997338412823402 -2.71188317733041 0.997338412823401 -2.71188317733042 0.0231778621504859 81.3046961319574 
! Gamma         0                0                0                0                
! Port Impedance         50               0                50               0                
1.8                            0.0245098826530284 81.4081923860894 0.997277662470837 -2.87033460177953 0.997277662470836 -2.87033460177954 0.0245097977436127 81.4055280925077 
! Gamma         0                0                0                0                
! Port Impedance         50               0                50               0                
1.9                            0.025841636215555 81.4801493211387 0.997214140301146 -3.02874433435044 0.997214140301145 -3.02874433435045 0.0258415327097579 81.4774177878305 
! Gamma         0                0                0                0                
! Port Impedance         50               0                50               0                
2                              0.0271729856834786 81.5273940627766 0.997147850437455 -3.18710565486809 0.997147850437453 -3.18710565486811 0.0271728642342827 81.524592618973  
! Gamma         0                0                0                0                
! Port Impedance         50               0                50               0                
2.1                            0.0285037565814228 81.5533958533589 0.997078808855962 -3.34541269084007 0.997078808855961 -3.3454126908401 0.0285036177678475 81.5505219586702 
! Gamma         0                0                0                0                
! Port Impedance         50               0                50               0                
2.2                            0.0298337975978664 81.5610271361863 0.997007040476194 -3.50366028323258 0.997007040476193 -3.50366028323261 0.0298336419298589 81.5580783966764 
! Gamma         0                0                0                0                
! Port Impedance         50               0                50               0                
2.3                            0.0311629766248081 81.55268561623   0.996932577026101 -3.6618438813875 0.9969325770261  -3.66184388138753 0.0311628045476267 81.5496597888388 
! Gamma         0                0                0                0                
! Port Impedance         50               0                50               0                
2.4                            0.0324911776543707 81.5303877165801 0.996855455443469 -3.81995945997609 0.996855455443468 -3.81995945997613 0.0324909895523989 81.5272827068401 
! Gamma         0                0                0                0                
! Port Impedance         50               0                50               0                
2.5                            0.0338182983252989 81.4958409016776 0.996775716655158 -3.97800345266193 0.996775716655156 -3.97800345266197 0.0338180945253117 81.4926547577477 
! Gamma         0                0                0                0                
! Port Impedance         50               0                50               0                
2.6                            0.0351442479652738 81.4505002042421 0.996693404627117 -4.13597269848364 0.996693404627115 -4.13597269848367 0.0351440287392131 81.4472311090971 
! Gamma         0                0                0                0                
! Port Impedance         50               0                50               0                
2.7                            0.0364689460138765 81.3956128163274 0.996608565611835 -4.29386439796636 0.996608565611833 -4.29386439796639 0.0364687115812068 81.3922590792115 
! Gamma         0                0                0                0                
! Port Impedance         50               0                50               0                
2.8                            0.0377923207396553 81.3322535697773 0.996521247542223 -4.45167607671278 0.996521247542221 -4.45167607671282 0.0377920712693735 81.3288136175756 
! Gamma         0                0                0                0                
! Port Impedance         50               0                50               0                
2.9                            0.039114308185892 81.2613533965151 0.996431499536014 -4.60940555477665 0.996431499536012 -4.60940555477669 0.0391140437982587 81.2578257654153 
! Gamma         0                0                0                0                
! Port Impedance         50               0                50               0                
3                              0.0404348512953428 81.1837223313182 0.996339371485089 -4.76705092053358 0.996339371485087 -4.76705092053362 0.0404345720633992 81.1801056589591 
! Gamma         0                0                0                0                
! Port Impedance         50               0                50               0                
3.1                            0.0417538991759399 81.1000682364867 0.996244913711217 -4.92461050807246 0.996244913711215 -4.9246105080725 0.0417536051268616 81.0963612546845 
! Gamma         0                0                0                0                
! Port Impedance         50               0                50               0                
3.2                            0.0430714064782236 81.0110121466433 0.996148176674724 -5.08208287736263 0.996148176674722 -5.08208287736267 0.0430710975945586 81.0072136747194 
! Gamma         0                0                0                0                
! Port Impedance         50               0                50               0                
3.3                            0.0443873328619177 80.9171009235984 0.996049210726079 -5.23946679662767 0.996049210726077 -5.23946679662772 0.0443870090827458 80.9132098622966 
! Gamma         0                0                0                0                
! Port Impedance         50               0                50               0                
3.4                            0.0457016425341017 80.8188177554779 0.995948065892932 -5.39676122648931 0.99594806589293 -5.39676122648935 0.0457013037561471 80.8148330814367 
! Gamma         0                0                0                0                
! Port Impedance         50               0                50               0                
3.5                            0.047014303845293 80.7165909168679 0.995844791696895 -5.55396530554689 0.995844791696894 -5.55396530554693 0.0470139499240154 80.712511677603  
! Gamma         0                0                0                0                
! Port Impedance         50               0                50               0                
3.6                            0.0483252889327147 80.610801117431  0.995739436995718 -5.71107833713508 0.995739436995716 -5.71107833713512 0.0483249196833984 80.6066264267792 
! Gamma         0                0                0                0                
! Port Impedance         50               0                50               0                
3.7                            0.0496345734023143 80.5017876980287 0.995632049847403 -5.86809977706231 0.9956320498474  -5.86809977706235 0.0496341886011711 80.4975167320054 
! Gamma         0                0                0                0                
! Port Impedance         50               0                50               0                
3.8                            0.0509421360428761 80.3898538805761 0.995522677393553 -6.02502922217802 0.995522677393551 -6.02502922217805 0.0509417354281731 80.3854858735982 
! Gamma         0                0                0                0                
! Port Impedance         50               0                50               0                
3.9                            0.0522479585669568 80.2752712368058 0.995411365759731 -6.18186639965205 0.995411365759728 -6.18186639965209 0.0522475418401773 80.2708054782387 
! Gamma         0                0                0                0                
! Port Impedance         50               0                50               0                
4                              0.0535520253744571 80.1582835090092 0.995298159971008 -6.33861115687685 0.995298159971006 -6.33861115687688 0.0535515922014995 80.1537193399968 
! Gamma         0                0                0                0                
! Port Impedance         50               0                50               0                
4.1                            0.0548543233354928 80.0391098905399 0.995183103881171 -6.49526345192351 0.995183103881169 -6.49526345192354 0.0548538733479108 80.0344467010848 
! Gamma         0                0                0                0                
! Port Impedance         50               0                50               0                
4.2                            0.0561548415899004 79.9179478538458 0.995066240114263 -6.65182334449926 0.99506624011426 -6.65182334449929 0.0561543743861849 79.9131850801066 
! Gamma         0                0                0                0                
! Port Impedance         50               0                50               0                
4.3                            0.0574535713612401 79.7949755978467 0.994947610017313 -6.80829098736562 0.994947610017311 -6.80829098736565 0.0574530865081419 79.7901127196271 
! Gamma         0                0                0                0                
! Port Impedance         50               0                50               0                
4.4                            0.0587505057835758 79.6703541737091 0.994827253623248 -6.96466661818608 0.994827253623246 -6.9646666181861 0.0587500028174671 79.6653907121137 
! Gamma         0                0                0                0                
! Port Impedance         50               0                50               0                
4.5                            0.0600456397396431 79.5442293377899 0.994705209623041 -7.12095055177897 0.994705209623039 -7.120950551779  0.0600451181679147 79.5391648530283 
! Gamma         0                0                0                0                
! Port Impedance         50               0                50               0                
4.6                            0.0613389697092769 79.4167331722099 0.994581515346297 -7.2771431727564 0.994581515346295 -7.27714317275642 0.0613384290117665 79.4115672615297 
! Gamma         0                0                0                0                
! Port Impedance         50               0                50               0                
4.7                            0.0626304936271764 79.2879855067618 0.994456206749488 -7.43324492853377 0.994456206749486 -7.43324492853379 0.062629933257624 79.2827178024972 
! Gamma         0                0                0                0                
! Port Impedance         50               0                50               0                
4.8                            0.06392021074925 79.1580951703441 0.99432931841113 -7.58925632269734 0.994329318411128 -7.58925632269736 0.0639196301367745 79.152725338066  
! Gamma         0                0                0                0                
! Port Impedance         50               0                50               0                
4.9                            0.0652081215269075 79.027161095591  0.994200883533255 -7.74517790871894 0.994200883533253 -7.74517790871896 0.0652075200775004 79.0216888323491 
! Gamma         0                0                0                0                
! Port Impedance         50               0                50               0                
5                              0.0664942274887746 78.8952732966486 0.994070933948538 -7.9010102840083 0.994070933948536 -7.90101028400832 0.0664936045868034 78.8896983292954 
! Gamma         0                0                0                0                
! Port Impedance         50               0                50               0                
5.1                            0.0677785311293771 78.7625137369712 0.993939500132527 -8.05675408429429 0.993939500132525 -8.0567540842943 0.067777886139094 78.7568358205615 
! Gamma         0                0                0                0                
! Port Impedance         50               0                50               0                
5.2                            0.0690610358044097 78.6289571014625 0.993806611220404 -8.21240997832648 0.993806611220402 -8.21240997832649 0.0690603680714602 78.6231760177205 
! Gamma         0                0                0                0                
! Port Impedance         50               0                50               0                
5.3                            0.0703417456322505 78.4946714851601 0.993672295027797 -8.36797866288913 0.993672295027795 -8.36797866288914 0.0703410544851755 78.4887870410101 
! Gamma         0                0                0                0                
! Port Impedance         50               0                50               0                
5.4                            0.0716206654014203 78.3597190088884 0.99353657807514 -8.52346085811897 0.993536578075138 -8.52346085811897 0.0716199501531473 78.3537310350438 
! Gamma         0                0                0                0                
! Port Impedance         50               0                50               0                
5.5                            0.0728978004837153 78.2241563708179 0.99339948561515 -8.67885730311876 0.993399485615148 -8.67885730311877 0.0728970604330333 78.2180647204254 
! Gamma         0                0                0                0                
! Port Impedance         50               0                50               0                
5.6                            0.0741731567527644 78.0880353416153 0.993261041662993 -8.83416875185779 0.993261041662992 -8.8341687518578 0.0741723911857775 78.0818398889509 
! Gamma         0                0                0                0                
! Port Impedance         50               0                50               0                
5.7                            0.0754467405077776 77.9514032098155 0.993121269028759 -8.9893959693505 0.993121269028757 -8.9893959693505 0.0754459486993339 77.9451038490292 
! Gamma         0                0                0                0                
! Port Impedance         50               0                50               0                
5.8                            0.07671855840227 77.8143031831486 0.992980189351866 -9.14453972810418 0.992980189351864 -9.14453972810418 0.0767177396173608 77.8078998270575 
! Gamma         0                0                0                0                
! Port Impedance         50               0                50               0                
5.9                            0.077988617377551 77.6767747508017 0.992837823137082 -9.29960080482635 0.99283782313708 -9.29960080482635 0.0779877708726764 77.6702673297271 
! Gamma         0                0                0                0                
! Port Impedance         50               0                50               0                
6                              0.0792569246007784 77.5388540109435 0.992694189791826 -9.45457997738215 0.992694189791824 -9.45457997738214 0.0792560496252775 77.5322424715931 
! Gamma         0                0                0                0                
! Port Impedance         50               0                50               0                
6.1                            0.0805234874073859 77.4005739672914 0.992549307664479 -9.60947802199201 0.992549307664477 -9.609478021992  0.0805225832047265 77.3938582716829 
! Gamma         0                0                0                0                
! Port Impedance         50               0                50               0                
6.2                            0.0817883132476931 77.2619647980266 0.99240319408344 -9.76429571065974 0.992403194083438 -9.76429571065973 0.08178737905672 77.2551449224537 
! Gamma         0                0                0                0                
! Port Impedance         50               0                50               0                
6.3                            0.0830514096375146 77.1230540999574 0.99225586539668 -9.91903380882082 0.992255865396679 -9.91903380882081 0.0830504446936537 77.116130033996  
! Gamma         0                0                0                0                
! Port Impedance         50               0                50               0                
6.4                            0.0843127841125891 76.9838671104818 0.99210733701158 -10.073693073201 0.992107337011579 -10.0736930732009 0.0843117876490047 76.9768388560354 
! Gamma         0                0                0                0                
! Port Impedance         50               0                50               0                
6.5                            0.0855724441866497 76.8444269095972 0.991957623434857 -10.2282742498747 0.991957623434855 -10.2282742498747 0.0855714154353544 76.8372944799818 
! Gamma         0                0                0                0                
! Port Impedance         50               0                50               0                
6.6                            0.0868303973129632 76.7047546039463 0.991806738312387 -10.3827780725143 0.991806738312386 -10.3827780725143 0.0868293355058792 76.6975180230123 
! Gamma         0                0                0                0                
! Port Impedance         50               0                50               0                
6.7                            0.0880866508491695 76.5648694946595 0.991654694468793 -10.5372052608181 0.991654694468792 -10.5372052608181 0.0880855552191388 76.5575287959516 
! Gamma         0                0                0                0                
! Port Impedance         50               0                50               0                
6.8                            0.0893412120252515 76.4247892305578 0.991501503946615 -10.69155651911  0.991501503946614 -10.69155651911  0.0893400818069968 76.4173444565115 
! Gamma         0                0                0                0                
! Port Impedance         50               0                50               0                
6.9                            0.0905940879144771 76.2845299481092 0.991347178044976 -10.8458325350987 0.991347178044975 -10.8458325350987 0.0905929223455108 76.2769811492821 
! Gamma         0                0                0                0                
! Port Impedance         50               0                50               0                
7                              0.0918452854071503 76.1441063993788 0.991191727357606 -11.0000339787884 0.991191727357604 -11.0000339787884 0.0918440837286327 76.1364536337181 
! Gamma         0                0                0                0                
! Port Impedance         50               0                50               0                
7.1                            0.0930948111870185 76.0035320690837 0.99103516181014 -11.1541615015312 0.991035161810139 -11.1541615015312 0.0930935726445649 75.9957754012271 
! Gamma         0                0                0                0                
! Port Impedance         50               0                50               0                
7.2                            0.0943426717101856 75.8628192817462 0.99087749069661 -11.3082157352122 0.990877490696609 -11.3082157352122 0.0943413955546225 75.8549587823566 
! Gamma         0                0                0                0                
! Port Impedance         50               0                50               0                
7.3                            0.0955888731863816 75.7219792998373 0.990718722715047 -11.4621972915588 0.990718722715046 -11.4621972915588 0.0955875586744529 75.7140150449705 
! Gamma         0                0                0                0                
! Port Impedance         50               0                50               0                
7.4                            0.0968334215624505 75.5810224137137 0.990558866002151 -11.6161067615653 0.99055886600215 -11.6161067615653 0.0968320679574737 75.5729544842177 
! Gamma         0                0                0                0                
! Port Impedance         50               0                50               0                
7.5                            0.0980763225079157 75.4399580240693 0.990397928166964 -11.7699447150257 0.990397928166964 -11.7699447150257 0.0980749290803898 75.4317865050146 
! Gamma         0                0                0                0                
! Port Impedance         50               0                50               0                
7.6                            0.0993175814024926 75.2987947175548 0.990235916323528 -11.9237117001652 0.990235916323527 -11.9237117001652 0.0993161474306576 75.2905196976953 
! Gamma         0                0                0                0                
! Port Impedance         50               0                50               0                
7.7                            0.10055720332542 75.1575403361527 0.99007283712247 -12.0774082433645 0.990072837122469 -12.0774082433645 0.100555728095769 75.149161907416  
! Gamma         0                0                0                0                
! Port Impedance         50               0                50               0                
7.8                            0.101795193046485 75.016202040844  0.989908696781522 -12.2310348489691 0.98990869678152 -12.2310348489691 0.101793675854235 75.0077202978496 
! Gamma         0                0                0                0                
! Port Impedance         50               0                50               0                
7.9                            0.103031555018632 74.8747863700466 0.98974350111494 -12.3845919991764 0.989743501114939 -12.3845919991764 0.103029995168143 74.8662014096529 
! Gamma         0                0                0                0                
! Port Impedance         50               0                50               0                
8                              0.10426629337203 74.7332992932679 0.989577255561823 -12.5380801539952 0.989577255561822 -12.5380801539952 0.104264690177185 74.7246112141446 
! Gamma         0                0                0                0                
! Port Impedance         50               0                50               0                
8.1                            0.105499411909502 74.5917462603681 0.989409965213323 -12.69149975127  0.989409965213322 -12.6914997512699 0.105497764694049 74.5829551625956 
! Gamma         0                0                0                0                
! Port Impedance         50               0                50               0                
8.2                            0.10673091410321 74.4501322467992 0.989241634838761 -12.8448512067653 0.98924163483876 -12.8448512067653 0.106729222201058 74.4412382314923 
! Gamma         0                0                0                0                
! Port Impedance         50               0                50               0                
8.3                            0.107960803092496 74.3084617951501 0.989072268910642 -12.9981349143047 0.989072268910641 -12.9981349143047 0.107959065847971 74.2994649641058 
! Gamma         0                0                0                0                
! Port Impedance         50               0                50               0                
8.4                            0.109189081682783 74.1667390532999 0.98890187162859 -13.1513512459582 0.98890187162859 -13.1513512459582 0.109187298450857 74.1576395086687 
! Gamma         0                0                0                0                
! Port Impedance         50               0                50               0                
8.5                            0.110415752345467 74.0249678094555 0.988730446942213 -13.3045005522744 0.988730446942213 -13.3045005522744 0.110413922491938 74.0157656534342 
! Gamma         0                0                0                0                
! Port Impedance         50               0                50               0                
8.6                            0.111640817218682 73.8831515243258 0.988557998572919 -13.4575831625516 0.988557998572919 -13.4575831625516 0.111638940120331 73.8738468588724 
! Gamma         0                0                0                0                
! Port Impedance         50               0                50               0                
8.7                            0.112864278108898 73.7412933606631 0.9883845300347  -13.610599385145 0.988384530034699 -13.610599385145 0.112862353153606 73.7318862872317 
! Gamma         0                0                0                0                
! Port Impedance         50               0                50               0                
8.8                            0.114086136493251 73.5993962103837 0.988210044653911 -13.7635495078046 0.988210044653911 -13.7635495078046 0.114084163080088 73.589886829679  
! Gamma         0                0                0                0                
! Port Impedance         50               0                50               0                
8.9                            0.115306393522539 73.4574627194607 0.988034545588069 -13.9164337980413 0.988034545588068 -13.9164337980413 0.115304371061822 73.4478511312111 
! Gamma         0                0                0                0                
! Port Impedance         50               0                50               0                
9                              0.116525050024835 73.3154953107672 0.987858035843687 -14.0692525035166 0.987858035843687 -14.0692525035166 0.116522977938162 73.305781613516  
! Gamma         0                0                0                0                
! Port Impedance         50               0                50               0                
9.1                            0.117742106509633 73.1734962050336 0.987680518293191 -14.2220058524533 0.987680518293191 -14.2220058524533 0.117739984229883 73.1636804959469 
! Gamma         0                0                0                0                
! Port Impedance         50               0                50               0                
9.2                            0.118957563172486 73.0314674400677 0.987501995690924 -14.3746940540645 0.987501995690923 -14.3746940540645 0.118955390143798 73.0215498147586 
! Gamma         0                0                0                0                
! Port Impedance         50               0                50               0                
9.3                            0.120171419900071 72.8894108883766 0.987322470688289 -14.5273172989976 0.987322470688289 -14.5273172989976 0.120169195577801 72.879391440745  
! Gamma         0                0                0                0                
! Port Impedance         50               0                50               0                
9.4                            0.12138367627564 72.7473282733163 0.987141945848045 -14.6798757597903 0.987141945848045 -14.6798757597903 0.121381400126291 72.7372070954025 
! Gamma         0                0                0                0                
! Port Impedance         50               0                50               0                
9.5                            0.1225943315848  72.6052211838856 0.98696042365779 -14.8323695913381 0.98696042365779 -14.8323695913381 0.122592003085936 72.594998365739  
! Gamma         0                0                0                0                
! Port Impedance         50               0                50               0                
9.6                            0.123803384821592 72.463091088272  0.986777906542661 -14.9847989313685 0.986777906542661 -14.9847989313685 0.123801003461727 72.4527667178317 
! Gamma         0                0                0                0                
! Port Impedance         50               0                50               0                
9.7                            0.125010834694815 72.3209393462483 0.986594396877289 -15.1371639009225 0.986594396877289 -15.1371639009225 0.125008399973284 72.3105135092368 
! Gamma         0                0                0                0                
! Port Impedance         50               0                50               0                
9.8                            0.12621667963456 72.17876722051   0.986409896997021 -15.2894646048398 0.986409896997021 -15.2894646048398 0.126214191061378 72.1682400003383 
! Gamma         0                0                0                0                
! Port Impedance         50               0                50               0                
9.9                            0.127420917798931 72.0365758870387 0.986224409208456 -15.4417011322467 0.986224409208456 -15.4417011322467 0.127418374894631 72.0259473647228 
! Gamma         0                0                0                0                
! Port Impedance         50               0                50               0                
10                             0.12862354708091 71.8943664445678 0.986037935799312 -15.5938735570454 0.986037935799312 -15.5938735570454 0.128620949376364 71.8836366986549 
! Gamma         0                0                0                0                
! Port Impedance         50               0                50               0                
10.1                           0.129824565115329 71.7521399232218 0.985850479047663 -15.745981938403 0.985850479047663 -15.745981938403 0.12982191215156 71.741309029727  
! Gamma         0                0                0                0                
! Port Impedance         50               0                50               0                
10.2                           0.13102396928595 71.6098972923958 0.985662041230561 -15.8980263212393 0.98566204123056 -15.8980263212393 0.131021260613929 71.5989653247476 
! Gamma         0                0                0                0                
! Port Impedance         50               0                50               0                
10.3                           0.13222175673259 71.4676394679339 0.985472624632084 -16.0500067367114 0.985472624632084 -16.0500067367114 0.132218991913021 71.4566064969283 
! Gamma         0                0                0                0                
! Port Impedance         50               0                50               0                
10.4                           0.133417924358309 71.3253673186649 0.98528223155083 -16.2019232026959 0.98528223155083 -16.2019232026959 0.133415102961399 71.3142334124278 
! Gamma         0                0                0                0                
! Port Impedance         50               0                50               0                
10.5                           0.1346124688366  71.1830816723441 0.985090864306877 -16.3537757242655 0.985090864306877 -16.3537757242655 0.134609590441827 71.1718468963011 
! Gamma         0                0                0                0                
! Port Impedance         50               0                50               0                
10.6                           0.135805386618595 71.0407833210515 0.984898525248249 -16.5055642941615 0.984898525248249 -16.5055642941615 0.135802450814461 71.0294477379044 
! Gamma         0                0                0                0                
! Port Impedance         50               0                50               0                
10.7                           0.136996673940252 70.8984730260878 0.984705216756898 -16.6572888932597 0.984705216756899 -16.6572888932597 0.136993680324028 70.8870366957983 
! Gamma         0                0                0                0                
! Port Impedance         50               0                50               0                
10.8                           0.138186326829512 70.7561515224103 0.984510941254239 -16.8089494910302 0.984510941254239 -16.8089494910302 0.138183275006975 70.7446145021895 
! Gamma         0                0                0                0                
! Port Impedance         50               0                50               0                
10.9                           0.139374341113414 70.6138195226462 0.984315701206243 -16.9605460459897 0.984315701206243 -16.9605460459897 0.13937123069858 70.6021818669496 
! Gamma         0                0                0                0                
! Port Impedance         50               0                50               0                
11                             0.140560712425149 70.4714777207158 0.984119499128133 -17.1120785061472 0.984119499128133 -17.1120785061472 0.140557543039998 70.4597394812437 
! Gamma         0                0                0                0                
! Port Impedance         50               0                50               0                
11.1                           0.141745436211052 70.3291267951001 0.983922337588687 -17.2635468094408 0.983922337588688 -17.2635468094408 0.141742207485245 70.3172880208029 
! Gamma         0                0                0                0                
! Port Impedance         50               0                50               0                
11.2                           0.142928507737514 70.1867674117801 0.98372421921417 -17.4149508841668 0.983724219214171 -17.4149508841669 0.14292521930811 70.1748281488682 
! Gamma         0                0                0                0                
! Port Impedance         50               0                50               0                
11.3                           0.144109922097805 70.0444002268762 0.983525146691924 -17.5662906494006 0.983525146691925 -17.5662906494006 0.144106573608969 70.0323605188337 
! Gamma         0                0                0                0                
! Port Impedance         50               0                50               0                
11.4                           0.145289674218805 69.9020258890119 0.983325122773629 -17.7175660154078 0.98332512277363 -17.7175660154078 0.145286265321516 69.8898857766143 
! Gamma         0                0                0                0                
! Port Impedance         50               0                50               0                
11.5                           0.146467758867635 69.7596450414246 0.983124150278251 -17.868776884048 0.983124150278251 -17.868776884048 0.146464289219389 69.7474045627602 
! Gamma         0                0                0                0                
! Port Impedance         50               0                50               0                
11.6                           0.14764417065818 69.6172583238467 0.982922232094696 -18.0199231491677 0.982922232094697 -18.0199231491677 0.147640639922688 69.6049175143407 
! Gamma         0                0                0                0                
! Port Impedance         50               0                50               0                
11.7                           0.148818904057493 69.4748663741737 0.982719371184196 -18.1710046969858 0.982719371184196 -18.1710046969858 0.148815311904384 69.4624252666156 
! Gamma         0                0                0                0                
! Port Impedance         50               0                50               0                
11.8                           0.149991953392096 69.3324698299399 0.982515570582419 -18.3220214064682 0.982515570582419 -18.3220214064682 0.149988299496608 69.3199284545134 
! Gamma         0                0                0                0                
! Port Impedance         50               0                50               0                
11.9                           0.151163312854148 69.1900693296168 0.98231083340135 -18.4729731496946 0.98231083340135 -18.4729731496946 0.151159596896826 69.177427713932  
! Gamma         0                0                0                0                
! Port Impedance         50               0                50               0                
12                             0.152332976507496 69.0476655137506 0.982105162830929 -18.623859792215 0.982105162830929 -18.623859792215 0.152329198173885 69.0349236828786 
! Gamma         0                0                0                0                
! Port Impedance         50               0                50               0                
12.1                           0.153500938293598 68.9052590259526 0.981898562140477 -18.7746811933975 0.981898562140477 -18.7746811933975 0.153497097273938 68.8924170024617 
! Gamma         0                0                0                0                
! Port Impedance         50               0                50               0                
12.2                           0.154667192037318 68.7628505137548 0.981691034679917 -18.9254372067665 0.981691034679917 -18.9254372067665 0.154663288026236 68.7499083177487 
! Gamma         0                0                0                0                
! Port Impedance         50               0                50               0                
12.3                           0.155831731452599 68.6204406293441 0.981482583880803 -19.076127680332 0.981482583880803 -19.076127680332 0.155827764148802 68.6073982785016 
! Gamma         0                0                0                0                
! Port Impedance         50               0                50               0                
12.4                           0.156994550147994 68.4780300301855 0.981273213257168 -19.2267524569097 0.981273213257168 -19.2267524569097 0.156990519253962 68.4648875398011 
! Gamma         0                0                0                0                
! Port Impedance         50               0                50               0                
12.5                           0.158155641632075 68.3356193795438 0.981062926406206 -19.3773113744319 0.981062926406207 -19.377311374432 0.158151546853758 68.3223767625703 
! Gamma         0                0                0                0                
! Port Impedance         50               0                50               0                
12.6                           0.15931499931871 68.1932093469146 0.980851727008795 -19.5278042662503 0.980851727008796 -19.5278042662503 0.159310840365222 68.1798666140061 
! Gamma         0                0                0                0                
! Port Impedance         50               0                50               0                
12.7                           0.160472616532209 68.0508006083725 0.980639618829869 -19.6782309614287 0.98063961882987 -19.6782309614287 0.160468393115524 68.0373577679281 
! Gamma         0                0                0                0                
! Port Impedance         50               0                50               0                
12.8                           0.161628486512342 67.9083938468435 0.980426605718659 -19.8285912850282 0.980426605718659 -19.8285912850282 0.16162419834699 67.8948509050524 
! Gamma         0                0                0                0                
! Port Impedance         50               0                50               0                
12.9                           0.162782602419221 67.7659897523108 0.980212691608796 -19.9788850583837 0.980212691608796 -19.9788850583837 0.162778249221992 67.7523467131976 
! Gamma         0                0                0                0                
! Port Impedance         50               0                50               0                
13                             0.163934957338064 67.6235890219597 0.979997880518302 -20.1291120993714 0.979997880518302 -20.1291120993715 0.163930538827705 67.6098458874301 
! Gamma         0                0                0                0                
! Port Impedance         50               0                50               0                
13.1                           0.165085544283826 67.4811923602668 0.979782176549467 -20.279272222669 0.979782176549467 -20.279272222669 0.165081060180745 67.4673491301539 
! Gamma         0                0                0                0                
! Port Impedance         50               0                50               0                
13.2                           0.166234356205702 67.3388004790415 0.979565583888616 -20.4293652400069 0.979565583888616 -20.4293652400069 0.166229806231676 67.3248571511522 
! Gamma         0                0                0                0                
! Port Impedance         50               0                50               0                
13.3                           0.167381385991515 67.1964140974221 0.979348106805785 -20.5793909604126 0.979348106805785 -20.5793909604126 0.167376769869397 67.182370667584  
! Gamma         0                0                0                0                
! Port Impedance         50               0                50               0                
13.4                           0.168526626471974 67.0540339418344 0.979129749654305 -20.7293491904466 0.979129749654306 -20.7293491904466 0.168521943925399 67.039890403942  
! Gamma         0                0                0                0                
! Port Impedance         50               0                50               0                
13.5                           0.169670070424812 66.9116607459139 0.978910516870304 -20.879239734431 0.978910516870304 -20.879239734431 0.169665321177916 66.8974170919757 
! Gamma         0                0                0                0                
! Port Impedance         50               0                50               0                
13.6                           0.170811710578812 66.7692952503982 0.978690412972126 -21.0290623946707 0.978690412972127 -21.0290623946707 0.170806894355943 66.7549514705833 
! Gamma         0                0                0                0                
! Port Impedance         50               0                50               0                
13.7                           0.171951539617708 66.626938202992  0.978469442559689 -21.1788169716676 0.978469442559689 -21.1788169716676 0.171946656143147 66.6124942856767 
! Gamma         0                0                0                0                
! Port Impedance         50               0                50               0                
13.8                           0.17308955018398 66.484590358208  0.978247610313762 -21.3285032643276 0.978247610313762 -21.3285032643276 0.173084599181659 66.470046290022  
! Gamma         0                0                0                0                
! Port Impedance         50               0                50               0                
13.9                           0.174225734882528 66.3422524771875 0.978024920995198 -21.4781210701609 0.978024920995198 -21.4781210701609 0.174220716075758 66.32760824306   
! Gamma         0                0                0                0                
! Port Impedance         50               0                50               0                
14                             0.175360086284248 66.1999253275023 0.977801379444098 -21.6276701854753 0.977801379444098 -21.6276701854753 0.175354999395444 66.1851809107077 
! Gamma         0                0                0                0                
! Port Impedance         50               0                50               0                
14.1                           0.176492596929485 66.0576096829415 0.977576990578927 -21.7771504055635 0.977576990578927 -21.7771504055635 0.176487441679899 66.0427650651452 
! Gamma         0                0                0                0                
! Port Impedance         50               0                50               0                
14.2                           0.177623259331398 65.9153063232857 0.97735175939559 -21.926561524884 0.97735175939559 -21.926561524884 0.17761803544085 65.9003614845885 
! Gamma         0                0                0                0                
! Port Impedance         50               0                50               0                
14.3                           0.178752065979209 65.7730160340683 0.977125690966453 -22.0759033372352 0.977125690966453 -22.0759033372352 0.178746773165825 65.7579709530517 
! Gamma         0                0                0                0                
! Port Impedance         50               0                50               0                
14.4                           0.179879009341355 65.6307396063301 0.976898790439334 -22.2251756359246 0.976898790439334 -22.2251756359246 0.179873647321309 65.6155942600998 
! Gamma         0                0                0                0                
! Port Impedance         50               0                50               0                
14.5                           0.181004081868547 65.4884778363642 0.976671063036455 -22.3743782139313 0.976671063036455 -22.3743782139313 0.180998650355803 65.4732322005941 
! Gamma         0                0                0                0                
! Port Impedance         50               0                50               0                
14.6                           0.182127275996724 65.3462315254563 0.976442514053362 -22.5235108640632 0.976442514053363 -22.5235108640632 0.182121774702787 65.3308855744316 
! Gamma         0                0                0                0                
! Port Impedance         50               0                50               0                
14.7                           0.183248584149926 65.2040014796203 0.976213148857819 -22.6725733791087 0.976213148857819 -22.6725733791087 0.183243012783586 65.1885551862799 
! Gamma         0                0                0                0                
! Port Impedance         50               0                50               0                
14.8                           0.18436799874306 65.0617885093301 0.975982972888665 -22.8215655519834 0.975982972888665 -22.8215655519834 0.184362357010154 65.046241845309  
! Gamma         0                0                0                0                
! Port Impedance         50               0                50               0                
14.9                           0.185485512184594 64.9195934292504 0.975751991654667 -22.9704871758708 0.975751991654667 -22.9704871758708 0.18547979978776 64.9039463649206 
! Gamma         0                0                0                0                
! Port Impedance         50               0                50               0                
15                             0.186601116879149 64.7774170579654 0.975520210733331 -23.1193380443588 0.975520210733331 -23.1193380443588 0.186595333517588 64.7616695624771 
! Gamma         0                0                0                0                
! Port Impedance         50               0                50               0                
15.1                           0.187714805230022 64.6352602177084 0.975287635769713 -23.268117951571 0.975287635769713 -23.268117951571 0.187708950599264 64.6194122590301 
! Gamma         0                0                0                0                
! Port Impedance         50               0                50               0                
15.2                           0.188826569641613 64.4931237340911 0.975054272475201 -23.4168266922933 0.975054272475201 -23.4168266922933 0.188820643433286 64.4771752790494 
! Gamma         0                0                0                0                
! Port Impedance         50               0                50               0                
15.3                           0.189936402521782 64.3510084358356 0.974820126626289 -23.5654640620958 0.97482012662629 -23.5654640620958 0.189930404423385 64.3349594501537 
! Gamma         0                0                0                0                
! Port Impedance         50               0                50               0                
15.4                           0.191044296284126 64.2089151545072 0.974585204063342 -23.7140298574506 0.974585204063342 -23.7140298574506 0.191038225978802 64.1927656028439 
! Gamma         0                0                0                0                
! Port Impedance         50               0                50               0                
15.5                           0.192150243350177 64.0668447242514 0.974349510689342 -23.8625238758451 0.974349510689342 -23.8625238758451 0.192144100516498 64.0505945702384 
! Gamma         0                0                0                0                
! Port Impedance         50               0                50               0                
15.6                           0.193254236151534 63.9247979815329 0.974113052468636 -24.0109459158909 0.974113052468636 -24.0109459158909 0.193248020463279 63.9084471878117 
! Gamma         0                0                0                0                
! Port Impedance         50               0                50               0                
15.7                           0.194356267131915 63.7827757648789 0.973875835425671 -24.1592957774291 0.973875835425671 -24.1592957774291 0.194349978257862 63.7663242931377 
! Gamma         0                0                0                0                
! Port Impedance         50               0                50               0                
15.8                           0.195456328749149 63.6407789146265 0.973637865643727 -24.3075732616317 0.973637865643727 -24.3075732616317 0.195449966352863 63.6242267256357 
! Gamma         0                0                0                0                
! Port Impedance         50               0                50               0                
15.9                           0.196554413477093 63.4988082726744 0.973399149263643 -24.4557781710986 0.973399149263643 -24.4557781710986 0.196547977216721 63.4821553263217 
! Gamma         0                0                0                0                
! Port Impedance         50               0                50               0                
16                             0.197650513807489 63.3568646822392 0.973159692482545 -24.6039103099514 0.973159692482546 -24.6039103099514 0.197644003335559 63.3401109375643 
! Gamma         0                0                0                0                
! Port Impedance         50               0                50               0                
16.1                           0.198744622251757 63.2149489876172 0.972919501552572 -24.751969483924 0.972919501552572 -24.751969483924 0.19873803721498 63.1980944028454 
! Gamma         0                0                0                0                
! Port Impedance         50               0                50               0                
16.2                           0.199836731342725 63.0730620339508 0.972678582779598 -24.8999555004489 0.972678582779598 -24.8999555004489 0.199830071381798 63.0561065665264 
! Gamma         0                0                0                0                
! Port Impedance         50               0                50               0                
16.3                           0.200926833636299 62.9312046670006 0.972436942521958 -25.0478681687409 0.972436942521958 -25.0478681687409 0.200920098385719 62.9141482736196 
! Gamma         0                0                0                0                
! Port Impedance         50               0                50               0                
16.4                           0.202014921713079 62.7893777329228 0.972194587189183 -25.1957072998774 0.972194587189183 -25.1957072998773 0.20200811080095 62.7722203695645 
! Gamma         0                0                0                0                
! Port Impedance         50               0                50               0                
16.5                           0.203100988179914 62.6475820780527 0.971951523240722 -25.343472706875 0.971951523240722 -25.343472706875 0.203094101227767 62.6303237000114 
! Gamma         0                0                0                0                
! Port Impedance         50               0                50               0                
16.6                           0.204185025671408 62.505818548693  0.971707757184682 -25.4911642047643 0.971707757184682 -25.4911642047643 0.204178062294021 62.4884591106089 
! Gamma         0                0                0                0                
! Port Impedance         50               0                50               0                
16.7                           0.205267026851368 62.3640879909092 0.97146329557657 -25.6387816106606 0.97146329557657 -25.6387816106605 0.205259986656587 62.3466274467979 
! Gamma         0                0                0                0                
! Port Impedance         50               0                50               0                
16.8                           0.206346984414204 62.2223912503291 0.971218145018032 -25.7863247438322 0.971218145018032 -25.7863247438322 0.206339867002773 62.2048295536119 
! Gamma         0                0                0                0                
! Port Impedance         50               0                50               0                
16.9                           0.207424891086279 62.0807291719501 0.970972312155611 -25.9337934257664 0.970972312155612 -25.9337934257664 0.207417696051669 62.0630662754823 
! Gamma         0                0                0                0                
! Port Impedance         50               0                50               0                
17                             0.208500739627214 61.9391025999502 0.9707258036795  -26.0811874802323 0.9707258036795  -26.0811874802323 0.208493466555457 61.9213384560503 
! Gamma         0                0                0                0                
! Port Impedance         50               0                50               0                
17.1                           0.209574522831136 61.7975123775069 0.970478626322308 -26.2285067333409 0.970478626322308 -26.2285067333409 0.209567171300664 61.7796469379837 
! Gamma         0                0                0                0                
! Port Impedance         50               0                50               0                
17.2                           0.210646233527895 61.6559593466202 0.970230786857834 -26.3757510136035 0.970230786857834 -26.3757510136035 0.21063880310938 61.6379925628004 
! Gamma         0                0                0                0                
! Port Impedance         50               0                50               0                
17.3                           0.211715864584229 61.5144443479423 0.969982292099846 -26.5229201519872 0.969982292099847 -26.5229201519871 0.211708354840428 61.4963761706973 
! Gamma         0                0                0                0                
! Port Impedance         50               0                50               0                
17.4                           0.212783408904886 61.3729682206126 0.969733148900874 -26.6700139819676 0.969733148900874 -26.6700139819676 0.212775819390489 61.3547986003845 
! Gamma         0                0                0                0                
! Port Impedance         50               0                50               0                
17.5                           0.213848859433709 61.2315318020988 0.969483364151002 -26.8170323395808 0.969483364151002 -26.8170323395807 0.213841189695189 61.2132606889261 
! Gamma         0                0                0                0                
! Port Impedance         50               0                50               0                
17.6                           0.214912209154677 61.0901359280425 0.969232944776682 -26.963975063471 0.969232944776682 -26.963975063471 0.214904458730151 61.0717632715855 
! Gamma         0                0                0                0                
! Port Impedance         50               0                50               0                
17.7                           0.215973451092915 60.9487814321115 0.968981897739548 -27.1108419949384 0.968981897739548 -27.1108419949384 0.215965619511993 60.9303071816767 
! Gamma         0                0                0                0                
! Port Impedance         50               0                50               0                
17.8                           0.217032578315656 60.8074691458571 0.968730230035244 -27.2576329779832 0.968730230035244 -27.2576329779831 0.217024665099308 60.7888932504213 
! Gamma         0                0                0                0                
! Port Impedance         50               0                50               0                
17.9                           0.218089583933173 60.6661998985759 0.96847794869226 -27.4043478593483 0.96847794869226 -27.4043478593483 0.218081588593596 60.6475223068102 
! Gamma         0                0                0                0                
! Port Impedance         50               0                50               0                
18                             0.219144461099679 60.524974517178  0.968225060770784 -27.5509864885608 0.968225060770784 -27.5509864885608 0.219136383140161 60.5061951774706 
! Gamma         0                0                0                0                
! Port Impedance         50               0                50               0                
18.1                           0.220197203014185 60.3837938260597 0.967971573361556 -27.6975487179704 0.967971573361556 -27.6975487179704 0.220189041928978 60.3649126865388 
! Gamma         0                0                0                0                
! Port Impedance         50               0                50               0                
18.2                           0.221247802921333 60.2426586469809 0.967717493584737 -27.8440344027867 0.967717493584737 -27.8440344027867 0.221239558195526 60.2236756555372 
! Gamma         0                0                0                0                
! Port Impedance         50               0                50               0                
18.3                           0.222296254112189 60.1015697989483 0.967462828588794 -27.9904434011151 0.967462828588794 -27.9904434011151 0.22228792522159 60.0824849032565 
! Gamma         0                0                0                0                
! Port Impedance         50               0                50               0                
18.4                           0.223342549925013 59.9605280981025 0.967207585549386 -28.1367755739902 0.967207585549386 -28.1367755739902 0.223334136336028 59.9413412456425 
! Gamma         0                0                0                0                
! Port Impedance         50               0                50               0                
18.5                           0.224386683745995 59.8195343576099 0.966951771668271 -28.2830307854085 0.966951771668271 -28.2830307854085 0.224378184915512 59.8002454956885 
! Gamma         0                0                0                0                
! Port Impedance         50               0                50               0                
18.6                           0.225428649009962 59.6785893875599 0.966695394172214 -28.4292089023588 0.966695394172214 -28.4292089023588 0.225420064385237 59.6591984633306 
! Gamma         0                0                0                0                
! Port Impedance         50               0                50               0                
18.7                           0.226468439201058 59.5376939948657 0.966438460311919 -28.5753097948512 0.966438460311919 -28.5753097948512 0.226459768219609 59.5182009553494 
! Gamma         0                0                0                0                
! Port Impedance         50               0                50               0                
18.8                           0.227506047853394 59.3968489831697 0.966180977360961 -28.7213333359454 0.966180977360961 -28.7213333359454 0.227497289942894 59.3772537752741 
! Gamma         0                0                0                0                
! Port Impedance         50               0                50               0                
18.9                           0.228541468551677 59.2560551527534 0.965922952614735 -28.8672794017766 0.965922952614735 -28.8672794017766 0.228532623129849 59.2363577232924 
! Gamma         0                0                0                0                
! Port Impedance         50               0                50               0                
19                             0.22957469493181 59.1153133004509 0.965664393389416 -29.0131478715805 0.965664393389416 -29.0131478715805 0.229565761406327 59.095513596164  
! Gamma         0                0                0                0                
! Port Impedance         50               0                50               0                
19.1                           0.230605720681464 58.9746242195671 0.965405307020934 -29.158938627717 0.965405307020934 -29.158938627717 0.230596698449854 58.9547221871374 
! Gamma         0                0                0                0                
! Port Impedance         50               0                50               0                
19.2                           0.231634539540634 58.8339886997989 0.965145700863949 -29.3046515556927 0.965145700863948 -29.3046515556927 0.231625427990184 58.813984285872  
! Gamma         0                0                0                0                
! Port Impedance         50               0                50               0                
19.3                           0.232661145302163 58.6934075271609 0.964885582290852 -29.4502865441816 0.964885582290852 -29.4502865441816 0.232651943809827 58.6733006783623 
! Gamma         0                0                0                0                
! Port Impedance         50               0                50               0                
19.4                           0.233685531812249 58.5528814839147 0.964624958690769 -29.5958434850456 0.96462495869077 -29.5958434850456 0.233676239744563 58.5326721468677 
! Gamma         0                0                0                0                
! Port Impedance         50               0                50               0                
19.5                           0.234707692970932 58.4124113485012 0.964363837468581 -29.7413222733527 0.964363837468581 -29.7413222733526 0.234698309683926 58.392099469844  
! Gamma         0                0                0                0                
! Port Impedance         50               0                50               0                
19.6                           0.235727622732549 58.2719978954769 0.964102226043949 -29.886722807395 0.964102226043949 -29.886722807395 0.235718147571665 58.2515834218796 
! Gamma         0                0                0                0                
! Port Impedance         50               0                50               0                
19.7                           0.236745315106185 58.1316418954533 0.963840131850358 -30.0320449887051 0.963840131850358 -30.0320449887051 0.236735747406197 58.1111247736346 
! Gamma         0                0                0                0                
! Port Impedance         50               0                50               0                
19.8                           0.237760764156086 57.9913441150399 0.96357756233417 -30.1772887220718 0.96357756233417 -30.1772887220718 0.237751103241024 57.9707242917832 
! Gamma         0                0                0                0                
! Port Impedance         50               0                50               0                
19.9                           0.238773964002068 57.8511053167895 0.963314524953685 -30.3224539155542 0.963314524953685 -30.3224539155542 0.238764209185144 57.8303827389592 
! Gamma         0                0                0                0                
! Port Impedance         50               0                50               0                
20                             0.239784908819897 57.7109262591477 0.963051027178218 -30.4675404804955 0.963051027178218 -30.4675404804955 0.239775059403433 57.6901008737047 
! Gamma         0                0                0                0                
! Port Impedance         50               0                50               0                
