! Touchstone file exported from HFSS 2026.1.0
!        File:           C:/ffzhzh/LocalFiles/Ansys_Project_Files/temp_train_BSMRDL_936_1783172016_55132.aedt
!        Generated:      09:34:48 PM Jul  4, 2026
!        Design:         BSMRDL
!        Project:        temp_train_BSMRDL_936_1783172016_55132
!
! Variables:
!        h_bsmrdl = 5.11um
!        h_ox = 20um
!        h_rdl = 5um
!        h_sub = 80um
!        h_tmrdl = 5um
!        h_tsv = 80um
!        h_via = 3um
!        l_bsmrdl = 297.83um
!        l_sub = 697.83um
!        l_tmrdl = 200um
!        m_sub = 200um
!        pitch = 25.35um
!        r_tsv = 6um
!        s_tmrdl = 10um
!        w_bsmrdl = 10.99um
!        w_sub = 500um
!        w_tmrdl = 12um
!        x_tsv_center1 = 206um
!        x_tsv_center2 = 514.82um
!        x_tsv_center3 = 726.82um
!        x_tsv_center4 = 1035.64um
!        x_tsv_center5 = 1247.64um
!        x_tsv_center6 = 1556.46um
!
# GHz S MA R 50.000000
! Terminal data exported
! Port[1] = BSM_RDL1_1_T1
! Port[2] = BSM_RDL1_1_T2
0.1                            0.00222423573418396 27.7169981143196 0.998032406930587 -0.108520222428994 0.998032406930588 -0.108520222428993 0.00222423568230619 27.7170535261546 
! Gamma         0                0                0                0                
! Port Impedance         50               0                50               0                
0.2                            0.00287809572950652 45.1300569766689 0.997976257692062 -0.215490284185587 0.997976257692063 -0.215490284185621 0.00287808977018875 45.1298156896329 
! Gamma         0                0                0                0                
! Port Impedance         50               0                50               0                
0.3                            0.00367287535045197 55.1046321727708 0.997911680383855 -0.320655252044983 0.997911680383856 -0.320655252045066 0.0036728441407756 55.1044271869334 
! Gamma         0                0                0                0                
! Port Impedance         50               0                50               0                
0.4                            0.0045182267494404 61.333420992862  0.99785258492873 -0.424588150921882 0.997852584928731 -0.424588150922  0.00451817083501653 61.3334906468518 
! Gamma         0                0                0                0                
! Port Impedance         50               0                50               0                
0.5                            0.00538810799182045 65.5835751764407 0.997802018185265 -0.527880964477919 0.997802018185265 -0.52788096447805 0.00538803676366353 65.583945988392  
! Gamma         0                0                0                0                
! Port Impedance         50               0                50               0                
0.6                            0.00627400251401987 68.6636168559245 0.997758449557754 -0.630897070116757 0.997758449557753 -0.630897070116887 0.00627392488329748 68.664234836714  
! Gamma         0                0                0                0                
! Port Impedance         50               0                50               0                
0.7                            0.00717177216094481 70.9861944630365 0.997719484338252 -0.733817167740512 0.997719484338251 -0.733817167740629 0.00717169415716332 70.9869982008784 
! Gamma         0                0                0                0                
! Port Impedance         50               0                50               0                
0.8                            0.00807864081450325 72.7869991778359 0.997683081968332 -0.836719796324029 0.99768308196833 -0.836719796324128 0.00807856592878282 72.7879408619035 
! Gamma         0                0                0                0                
! Port Impedance         50               0                50               0                
0.9                            0.0089925078308155 74.2124582325379 0.997647749539549 -0.939633386761883 0.997647749539547 -0.939633386761961 0.0089924378318442 74.2135050298636 
! Gamma         0                0                0                0                
! Port Impedance         50               0                50               0                
1                              0.00991173889217832 75.3590739382595 0.997612451586542 -1.04256337231389 0.99761245158654 -1.04256337231395 0.00991167448334135 75.3602045576904 
! Gamma         0                0                0                0                
! Port Impedance         50               0                50               0                
1.1                            0.010835054976887 76.2932197200858 0.997576483260829 -1.14550525542435 0.997576483260826 -1.14550525542438 0.0108349962280824 76.294420834845  
! Gamma         0                0                0                0                
! Port Impedance         50               0                50               0                
1.2                            0.011761450710786 77.0620621203435 0.997539367791322 -1.24845069840564 0.997539367791319 -1.24845069840565 0.0117613973227448 77.0633256680007 
! Gamma         0                0                0                0                
! Port Impedance         50               0                50               0                
1.3                            0.0126901305329028 77.7000125256359 0.997500784036075 -1.35139029473975 0.997500784036073 -1.35139029473975 0.0126900819948469 77.7013338646533 
! Gamma         0                0                0                0                
! Port Impedance         50               0                50               0                
1.4                            0.0136204593977786 78.2327359817658 0.997460517531886 -1.45431478432572 0.997460517531884 -1.4543147843257 0.0136204150808313 78.2341126798674 
! Gamma         0                0                0                0                
! Port Impedance         50               0                50               0                
1.5                            0.0145519253535464 78.6797405458464 0.997418427799127 -1.55721554518682 0.997418427799124 -1.55721554518678 0.014551884566218 78.6811715941378 
! Gamma         0                0                0                0                
! Port Impedance         50               0                50               0                
1.6                            0.0154841114211185 79.0561024700822 0.997374426431827 -1.66008475338727 0.997374426431825 -1.66008475338721 0.0154840734425231 79.0575877743078 
! Gamma         0                0                0                0                
! Port Impedance         50               0                50               0                
1.7                            0.0164166745331241 79.3736456540952 0.997328462259645 -1.76291539569073 0.997328462259643 -1.76291539569067 0.0164166386331051 79.3751857041862 
! Gamma         0                0                0                0                
! Port Impedance         50               0                50               0                
1.8                            0.0173493297367541 79.6417660188755 0.997280511154636 -1.86570122166766 0.997280511154634 -1.86570122166758 0.0173492951882811 79.6433616730706 
! Gamma         0                0                0                0                
! Port Impedance         50               0                50               0                
1.9                            0.018281838289489 79.8680189645908 0.99723056891409 -1.9684366754599 0.997230568914088 -1.96843667545981 0.0182818043764685 79.8696713074831 
! Gamma         0                0                0                0                
! Port Impedance         50               0                50               0                
2                              0.019213998628003 80.0585452744715 0.997178646204319 -2.07111682521292 0.997178646204317 -2.07111682521282 0.0192139646503503 80.0602555230722 
! Gamma         0                0                0                0                
! Port Impedance         50               0                50               0                
2.1                            0.0201456394615491 80.218384718406  0.997124764903715 -2.17373729761369 0.997124764903713 -2.17373729761358 0.0201456047386073 80.2201541596326 
! Gamma         0                0                0                0                
! Port Impedance         50               0                50               0                
2.2                            0.0210766144428085 80.3517102401689 0.997068955409395 -2.27629422001136 0.997068955409393 -2.27629422001125 0.021076578315757 80.3535401890653 
! Gamma         0                0                0                0                
! Port Impedance         50               0                50               0                
2.3                            0.0220067980165947 80.4620051029344 0.997011254617121 -2.37878417035515 0.997011254617119 -2.37878417035503 0.0220067598502207 80.4638968746727 
! Gamma         0                0                0                0                
! Port Impedance         50               0                50               0                
2.4                            0.0229360821536627 80.5521984789097 0.99695170437872 -2.48120413425371 0.996951704378719 -2.48120413425359 0.0229360413377133 80.5541533700257 
! Gamma         0                0                0                0                
! Port Impedance         50               0                50               0                
2.5                            0.0238643737541822 80.6247703685032 0.996890350303322 -2.58355146815322 0.996890350303321 -2.5835514681531 0.0238643297044215 80.6267896443612 
! Gamma         0                0                0                0                
! Port Impedance         50               0                50               0                
2.6                            0.0247915925614534 80.6818336100654 0.996827240810035 -2.68582386760853 0.996827240810034 -2.68582386760841 0.0247915447204922 80.6839184965581 
! Gamma         0                0                0                0                
! Port Impedance         50               0                50               0                
2.7                            0.0257176694671818 80.7251985864485 0.996762426367469 -2.78801933971841 0.996762426367468 -2.78801933971829 0.0257176173051166 80.7273502645943 
! Gamma         0                0                0                0                
! Port Impedance         50               0                50               0                
2.8                            0.0266425451194135 80.7564247273704 0.996695958874395 -2.890136178931  0.996695958874395 -2.89013617893088 0.0266424881342925 80.7586443299121 
! Gamma         0                0                0                0                
! Port Impedance         50               0                50               0                
2.9                            0.0275661687661313 80.7768618383917 0.996627891148866 -2.99217294556492 0.996627891148866 -2.9921729455648 0.0275661064842568 80.7791504477867 
! Gamma         0                0                0                0                
! Port Impedance         50               0                50               0                
3                              0.0284884972837175 80.7876835210555 0.996558276502129 -3.0941284465167 0.996558276502129 -3.09412844651658 0.0284884292597885 80.7900421684453 
! Gamma         0                0                0                0                
! Port Impedance         50               0                50               0                
3.1                            0.0294094943515561 80.7899143928214 0.996487168380028 -3.1960017177339 0.996487168380028 -3.19600171773378 0.0294094201686535 80.792344057698  
! Gamma         0                0                0                0                
! Port Impedance         50               0                50               0                
3.2                            0.0303291297430861 80.784452407819  0.996414620059062 -3.29779200812262 0.996414620059062 -3.29779200812251 0.0303290490125038 80.7869540181958 
! Gamma         0                0                0                0                
! Port Impedance         50               0                50               0                
3.3                            0.0312473787104355 80.7720872776147 0.996340684387493 -3.3994987646316 0.996340684387493 -3.39949876463149 0.0312472910713615 80.7746617105665 
! Gamma         0                0                0                0                
! Port Impedance         50               0                50               0                
3.4                            0.0321642214449293 80.7535157655884 0.996265413564185 -3.50112161831355 0.996265413564185 -3.50112161831344 0.0321641265639828 80.7561638480697 
! Gamma         0                0                0                0                
! Port Impedance         50               0                50               0                
3.5                            0.033079642599703 80.729354458424  0.99618885894954 -3.6026603712111 0.996188858949541 -3.602660371211  0.0330795401703341 80.7320769682989 
! Gamma         0                0                0                0                
! Port Impedance         50               0                50               0                
3.6                            0.0339936308636681 80.70015048891   0.996111070904109 -3.70411498395157 0.99611107090411 -3.70411498395148 0.0339935206054297 80.7029481561476 
! Gamma         0                0                0                0                
! Port Impedance         50               0                50               0                
3.7                            0.0349061785783907 80.6663905851784 0.996032098651355 -3.80548556396332 0.996032098651356 -3.80548556396324 0.0349060602360924 80.6692640931798 
! Gamma         0                0                0                0                
! Port Impedance         50               0                50               0                
3.8                            0.0358172813912366 80.628508745049  0.995951990161715 -3.90677235424883 0.995951990161716 -3.90677235424874 0.035817154733993 80.6314587320799 
! Gamma         0                0                0                0                
! Port Impedance         50               0                50               0                
3.9                            0.0367269379395202 80.5868927747249 0.995870792055584 -4.00797572266669 0.995870792055585 -4.00797572266661 0.0367268027597039 80.5899198354342 
! Gamma         0                0                0                0                
! Port Impedance         50               0                50               0                
4                              0.0376351495614667 80.5418898845972 0.995788549523239 -4.10909615168773 0.99578854952324 -4.10909615168767 0.0376350056735814 80.5449945716047 
! Gamma         0                0                0                0                
! Port Impedance         50               0                50               0                
4.1                            0.0385419200306383 80.493811498323  0.995705306259982 -4.21013422860005 0.995705306259983 -4.21013422859999 0.0385417672701235 80.4969943238628 
! Gamma         0                0                0                0                
! Port Impedance         50               0                50               0                
4.2                            0.0394472553111221 80.4429374023586 0.995621104415019 -4.31109063614494 0.99562110441502 -4.31109063614489 0.0394470935331024 80.4461988399668 
! Gamma         0                0                0                0                
! Port Impedance         50               0                50               0                
4.3                            0.0403511633312866 80.3895193400558 0.995535984552734 -4.41196614357086 0.995535984552735 -4.41196614357081 0.0403509924092804 80.39285982629   
! Gamma         0                0                0                0                
! Port Impedance         50               0                50               0                
4.4                            0.0412536537743117 80.3337841359454 0.995449985625184 -4.5127615980959 0.995449985625185 -4.51276159809586 0.0412534735989105 80.337204072128  
! Gamma         0                0                0                0                
! Port Impedance         50               0                50               0                
4.5                            0.0421547378840045 80.275936420965  0.995363144954721 -4.61347791677179 0.995363144954722 -4.61347791677176 0.0421545483615358 80.2794361749388 
! Gamma         0                0                0                0                
! Port Impedance         50               0                50               0                
4.6                            0.0430544282846551 80.2161610173567 0.995275498225751 -4.71411607874342 0.995275498225752 -4.7141160787434 0.0430542293358406 80.2197409252453 
! Gamma         0                0                0                0                
! Port Impedance         50               0                50               0                
4.7                            0.0439527388138771 80.1546250321912 0.995187079484721 -4.81467711789892 0.995187079484722 -4.8146771178989 0.0439525303724963 80.1582854001554 
! Gamma         0                0                0                0                
! Port Impedance         50               0                50               0                
4.8                            0.044849684367521 80.0914797004943 0.995097921147474 -4.91516211590516 0.995097921147475 -4.91516211590515 0.0448494663790919 80.0952208064766 
! Gamma         0                0                0                0                
! Port Impedance         50               0                50               0                
4.9                            0.0457452807558696 80.0268620124156 0.995008054013194 -5.01557219562352 0.995008054013195 -5.01557219562352 0.045745053176354 80.0306841078652 
! Gamma         0                0                0                0                
! Port Impedance         50               0                50               0                
5                              0.046639544570408 79.9608961534934 0.994917507284191 -5.11590851489998 0.994917507284192 -5.11590851489998 0.0466393073649506 79.9647994650657 
! Gamma         0                0                0                0                
! Port Impedance         50               0                50               0                
5.1                            0.0475324930605372 79.8936947826231 0.994826308590849 -5.21617226072321 0.994826308590851 -5.21617226072322 0.0475322462022464 79.8976795138461 
! Gamma         0                0                0                0                
! Port Impedance         50               0                50               0                
5.2                            0.0484241440196542 79.825360168644  0.994734484021098 -5.31636464374337 0.994734484021099 -5.31636464374339 0.0484238874884289 79.8294265015472 
! Gamma         0                0                0                0                
! Port Impedance         50               0                50               0                
5.3                            0.0493145156800642 79.755985203385  0.994642058153797 -5.41648689314369 0.994642058153798 -5.41648689314371 0.049314249461475 79.7601333000844 
! Gamma         0                0                0                0                
! Port Impedance         50               0                50               0                
5.4                            0.0502036266162304 79.6856543064394 0.994549054095496 -5.51654025185588 0.994549054095496 -5.51654025185591 0.0502033507004569 79.6898843106753 
! Gamma         0                0                0                0                
! Port Impedance         50               0                50               0                
5.5                            0.051091495655892 79.6144442347864 0.994455493520044 -5.61652597211001 0.994455493520045 -5.61652597211004 0.0510912100367224 79.6187562734088 
! Gamma         0                0                0                0                
! Port Impedance         50               0                50               0                
5.6                            0.0519781417986095 79.5424248085579 0.994361396710582 -5.71644531130842 0.994361396710582 -5.71644531130846 0.0519778464725032 79.546818992957  
! Gamma         0                0                0                0                
! Port Impedance         50               0                50               0                
5.7                            0.0528635841413131 79.4696595627201 0.994266782603461 -5.81629952821296 0.994266782603461 -5.816299528213  0.0528632791065299 79.4741359901989 
! Gamma         0                0                0                0                
! Port Impedance         50               0                50               0                
5.8                            0.053747841810452 79.3962063331411 0.99417166883371 -5.91608987943403 0.99417166883371 -5.91608987943408 0.0537475270662481 79.4007650882273 
! Gamma         0                0                0                0                
! Port Impedance         50               0                50               0                
5.9                            0.0546309339003563 79.3221177844084 0.994076071781656 -6.01581761620973 0.994076071781656 -6.01581761620978 0.054630609446249 79.3267589401049 
! Gamma         0                0                0                0                
! Port Impedance         50               0                50               0                
6                              0.05551287941744 79.2474418858232 0.993980006620378 -6.11548398146286 0.993980006620379 -6.11548398146291 0.0555125452525396 79.2521655047945 
! Gamma         0                0                0                0                
! Port Impedance         50               0                50               0                
6.1                            0.056393697229886 79.1722223411891 0.993883487363684 -6.21509020712343 0.993883487363684 -6.21509020712349 0.0563933533522953 79.1770284768849 
! Gamma         0                0                0                0                
! Port Impedance         50               0                50               0                
6.2                            0.0572734060224698 79.096498977326  0.993786526914329 -6.31463751170406 0.993786526914329 -6.31463751170412 0.0572730524287503 79.1013876750392 
! Gamma         0                0                0                0                
! Port Impedance         50               0                50               0                
6.3                            0.0581520242561906 79.020308095641  0.993689137112234 -6.41412709811565 0.993689137112234 -6.41412709811571 0.058151660940893 79.0252793935025 
! Gamma         0                0                0                0                
! Port Impedance         50               0                50               0                
6.4                            0.0590295701323912 78.943682790578  0.993591328782479 -6.51356015171074 0.993591328782479 -6.5135601517108 0.0590291970876496 78.9487367204874 
! Gamma         0                0                0                0                
! Port Impedance         50               0                50               0                
6.5                            0.059906061561064 78.8666532383228 0.993493111782876 -6.61293783854191 0.993493111782876 -6.61293783854198 0.0599056787762496 78.8717898268162 
! Gamma         0                0                0                0                
! Port Impedance         50               0                50               0                
6.6                            0.0607815161330481 78.7892469587539 0.993394495050944 -6.71226130382295 0.993394495050944 -6.71226130382302 0.0607811235944824 78.7944662278098 
! Gamma         0                0                0                0                
! Port Impedance         50               0                50               0                
6.7                            0.0616559510958408 78.7114890532943 0.99329548665014 -6.81153167058046 0.993295486650139 -6.81153167058053 0.0616555487865638 78.7167910210798 
! Gamma         0                0                0                0                
! Port Impedance         50               0                50               0                
6.8                            0.0625293833327571 78.6334024210278 0.993196093815204 -6.91075003848405 0.993196093815203 -6.91075003848412 0.0625289712323474 78.6387871025848 
! Gamma         0                0                0                0                
! Port Impedance         50               0                50               0                
6.9                            0.0634018293451812 78.5550079551837 0.993096322996525 -7.00991748284347 0.993096322996524 -7.00991748284353 0.0634014074296266 78.5604753630591 
! Gamma         0                0                0                0                
! Port Impedance         50               0                50               0                
7                              0.0642733052376728 78.4763247218729 0.992996179903406 -7.10903505376136 0.992996179903405 -7.10903505376142 0.0642728734792866 78.4818748666937 
! Gamma         0                0                0                0                
! Port Impedance         50               0                50               0                
7.1                            0.0651438267056955 78.397370122759  0.992895669546172 -7.20810377543071 0.992895669546171 -7.20810377543078 0.0651433850730762 78.4030030137536 
! Gamma         0                0                0                0                
! Port Impedance         50               0                50               0                
7.2                            0.0660134090257549 78.3181600431711 0.992794796277038 -7.3071246455665 0.992794796277037 -7.30712464556656 0.066012957483785 78.3238756886414 
! Gamma         0                0                0                0                
! Port Impedance         50               0                50               0                
7.3                            0.066882067047738 78.2387089870169 0.992693563829704 -7.40609863496136 0.992693563829703 -7.40609863496142 0.0668816055576203 78.2445073947608 
! Gamma         0                0                0                0                
! Port Impedance         50               0                50               0                
7.4                            0.0677498151892649 78.1590301997116 0.992591975357614 -7.50502668715567 0.992591975357613 -7.50502668715573 0.0677493437085915 78.1649113774    
! Gamma         0                0                0                0                
! Port Impedance         50               0                50               0                
7.5                            0.0686166674318696 78.0791357802222 0.992490033470874 -7.60390971821273 0.992490033470873 -7.60390971821279 0.068616185914721 78.0850997357327 
! Gamma         0                0                0                0                
! Port Impedance         50               0                50               0                
7.6                            0.0694826373188395 77.9990367832167 0.992387740271796 -7.7027486165903 0.992387740271795 -7.70274861659036 0.0694821457159109 78.0050835249256 
! Gamma         0                0                0                0                
! Port Impedance         50               0                50               0                
7.7                            0.0703477379545566 77.9187433122111 0.99228509738906 -7.8015442431001 0.992285097389059 -7.80154424310015 0.0703472362133077 77.9248728492471 
! Gamma         0                0                0                0                
! Port Impedance         50               0                50               0                
7.8                            0.0712119820051886 77.8382646045238 0.992182106010494 -7.90029743094735 0.992182106010493 -7.9002974309474 0.0712114700700145 77.8444769469854 
! Gamma         0                0                0                0                
! Port Impedance         50               0                50               0                
7.9                            0.0720753817005931 77.7576091087688 0.99207876691448 -7.999008985843  0.992078766914478 -7.99900898584305 0.0720748595130135 77.7639042679076 
! Gamma         0                0                0                0                
! Port Impedance         50               0                50               0                
8                              0.072937948837305 77.676784555549  0.991975080499987 -8.09767968618142 0.991975080499986 -8.09767968618146 0.0729374163361685 77.6831625439216 
! Gamma         0                0                0                0                
! Port Impedance         50               0                50               0                
8.1                            0.0737996947824867 77.5957980219535 0.991871046815262 -8.19631028327714 0.99187104681526 -8.19631028327718 0.0737991519041877 77.6022588535439 
! Gamma         0                0                0                0                
! Port Impedance         50               0                50               0                
8.2                            0.0746606304787302 77.514655990402  0.991766665585179 -8.29490150165429 0.991766665585178 -8.29490150165433 0.0746600771574365 77.5211996807177 
! Gamma         0                0                0                0                
! Port Impedance         50               0                50               0                
8.3                            0.075520766449608 77.4333644023344 0.991661936237301 -8.39345403938309 0.991661936237299 -8.39345403938312 0.0755202026174959 77.4399909684767 
! Gamma         0                0                0                0                
! Port Impedance         50               0                50               0                
8.4                            0.0763801128058771 77.3519287071947 0.991556857926644 -8.49196856845778 0.991556857926642 -8.49196856845782 0.0763795383933731 77.3586381679071 
! Gamma         0                0                0                0                
! Port Impedance         50               0                50               0                
8.5                            0.0772386792522501 77.2703539071213 0.991451429559216 -8.59044573521127 0.991451429559213 -8.5904457352113 0.0772380941882751 77.2771462828163 
! Gamma         0                0                0                0                
! Port Impedance         50               0                50               0                
8.6                            0.0780964750946509 77.1886445977149 0.991345649814328 -8.68888616076145 0.991345649814326 -8.68888616076147 0.0780958793068674 77.195519910483  
! Gamma         0                0                0                0                
! Port Impedance         50               0                50               0                
8.7                            0.0789535092478831 77.1068050052271 0.991239517165741 -8.78729044148519 0.991239517165739 -8.78729044148521 0.0789529026629419 77.1137632788281 
! Gamma         0                0                0                0                
! Port Impedance         50               0                50               0                
8.8                            0.0798097902436417 77.0248390204774 0.991133029901657 -8.88565914951578 0.991133029901655 -8.88565914951579 0.0798091727874272 77.0318802803167 
! Gamma         0                0                0                0                
! Port Impedance         50               0                50               0                
8.9                            0.0806653262388083 76.9427502297831 0.991026186143626 -8.98399283326021 0.991026186143624 -8.98399283326023 0.080664697836681 76.9498745028745 
! Gamma         0                0                0                0                
! Port Impedance         50               0                50               0                
9                              0.0815201250239722 76.8605419431596 0.99091898386437 -9.08229201793294 0.990918983864368 -9.08229201793295 0.0815194856010064 76.8677492580764 
! Gamma         0                0                0                0                
! Port Impedance         50               0                50               0                
9.1                            0.0823741940321274 76.7782172200268 0.990811420904597 -9.18055720610288 0.990811420904595 -9.18055720610288 0.0823735435133439 76.7855076068419 
! Gamma         0                0                0                0                
! Port Impedance         50               0                50               0                
9.2                            0.0832275403474986 76.6957788926367 0.990703494988819 -9.27878887825092 0.990703494988817 -9.27878887825092 0.0832268786580907 76.703152382854  
! Gamma         0                0                0                0                
! Port Impedance         50               0                50               0                
9.3                            0.0840801707144558 76.613229587419  0.990595203740227 -9.37698749333525 0.990595203740225 -9.37698749333524 0.084079497780007 76.6206862138971 
! Gamma         0                0                0                0                
! Port Impedance         50               0                50               0                
9.4                            0.0849320915464775 76.5305717444237 0.990486544694658 -9.47515348936217 0.990486544694656 -9.47515348936216 0.0849314072931719 76.5381115412928 
! Gamma         0                0                0                0                
! Port Impedance         50               0                50               0                
9.5                            0.0857833089351326 76.4478076350256 0.990377515313689 -9.57328728396021 0.990377515313686 -9.5732872839602 0.0857826132899551 76.4554306375991 
! Gamma         0                0                0                0                
! Port Impedance         50               0                50               0                
9.6                            0.0866338286590469 76.3649393780394 0.990268112996904 -9.67138927495556 0.990268112996902 -9.67138927495555 0.0866331215499739 76.3726456227213 
! Gamma         0                0                0                0                
! Port Impedance         50               0                50               0                
9.7                            0.0874836561928304 76.2819689543845 0.990158335093367 -9.76945984094716 0.990158335093365 -9.76945984094714 0.0874829375490107 76.2897584785732 
! Gamma         0                0                0                0                
! Port Impedance         50               0                50               0                
9.8                            0.0883327967159407 76.1988982204226 0.990048178912329 -9.86749934187976 0.990048178912326 -9.86749934187973 0.0883320664678646 76.2067710624125 
! Gamma         0                0                0                0                
! Port Impedance         50               0                50               0                
9.9                            0.0891812551214608 76.115728920085  0.989937641733225 -9.9655081196135 0.989937641733223 -9.96550811961347 0.089180513201119 76.1236851189662 
! Gamma         0                0                0                0                
! Port Impedance         50               0                50               0                
10                             0.0900290360247745 76.032462695893  0.989826720814978 -10.063486498489 0.989826720814976 -10.0634864984889 0.090028282365805 76.0405022914504 
! Gamma         0                0                0                0                
! Port Impedance         50               0                50               0                
10.1                           0.0908761437721224 75.9491010989678 0.989715413404648 -10.1614347858863 0.989715413404646 -10.1614347858862 0.0908753783099457 75.9572241315797 
! Gamma         0                0                0                0                
! Port Impedance         50               0                50               0                
10.2                           0.0917225824490246 75.8656455981181 0.989603716745466 -10.2593532727774 0.989603716745464 -10.2593532727773 0.0917218051209678 75.8738521086557 
! Gamma         0                0                0                0                
! Port Impedance         50               0                50               0                
10.3                           0.0925683558885595 75.7820975880856 0.989491628084276 -10.3572422342708 0.989491628084274 -10.3572422342708 0.0925675666339677 75.7903876178129 
! Gamma         0                0                0                0                
! Port Impedance         50               0                50               0                
10.4                           0.0934134676794868 75.6984583970213 0.989379144678419 -10.4551019301479 0.989379144678417 -10.4551019301478 0.0934126664398234 75.706831987497  
! Gamma         0                0                0                0                
! Port Impedance         50               0                50               0                
10.5                           0.0942579211742081 75.6147292932606 0.989266263802094 -10.5529326053899 0.989266263802092 -10.5529326053898 0.0942571078931431 75.6231864862418 
! Gamma         0                0                0                0                
! Port Impedance         50               0                50               0                
10.6                           0.0951017194965571 75.5309114914585 0.989152982752213 -10.6507344906953 0.989152982752211 -10.6507344906953 0.0951008941200438 75.5394523288067 
! Gamma         0                0                0                0                
! Port Impedance         50               0                50               0                
10.7                           0.0959448655494147 75.4470061581413 0.989039298853787 -10.7485078029876 0.989039298853785 -10.7485078029876 0.0959440280257545 75.4556306817311 
! Gamma         0                0                0                0                
! Port Impedance         50               0                50               0                
10.8                           0.0967873620221434 75.3630144167253 0.988925209464867 -10.8462527459117 0.988925209464865 -10.8462527459116 0.0967865123020401 75.3717226683564 
! Gamma         0                0                0                0                
! Port Impedance         50               0                50               0                
10.9                           0.0976292113978395 75.2789373520518 0.988810711981062 -10.9439695103198 0.98881071198106 -10.9439695103198 0.0976283494344419 75.2877293733639 
! Gamma         0                0                0                0                
! Port Impedance         50               0                50               0                
11                             0.0984704159603995 75.1947760144792 0.988695803839662 -11.0416582747469 0.98869580383966 -11.0416582747468 0.098469541709333 75.2036518468708 
! Gamma         0                0                0                0                
! Port Impedance         50               0                50               0                
11.1                           0.0993109778013995 75.1105314235731 0.988580482523389 -11.1393192058735 0.988580482523387 -11.1393192058734 0.0993100912207881 75.1194911081234 
! Gamma         0                0                0                0                
! Port Impedance         50               0                50               0                
11.2                           0.100150898826788 75.0262045714293 0.988464745563792 -11.2369524589781 0.98846474556379 -11.2369524589781 0.100149999877265 75.0352481488249 
! Gamma         0                0                0                0                
! Port Impedance         50               0                50               0                
11.3                           0.100990180763392 74.9417964256645 0.988348590544316 -11.3345581783779 0.988348590544314 -11.3345581783778 0.100989269408101 74.9509239361291 
! Gamma         0                0                0                0                
! Port Impedance         50               0                50               0                
11.4                           0.101828825165233 74.8573079321026 0.988232015103058 -11.4321364978571 0.988232015103057 -11.432136497857 0.101827901369822 74.8665194153314 
! Gamma         0                0                0                0                
! Port Impedance         50               0                50               0                
11.5                           0.102666833419665 74.7727400171855 0.988115016935236 -11.5296875410846 0.988115016935234 -11.5296875410845 0.102665897152266 74.7820355122835 
! Gamma         0                0                0                0                
! Port Impedance         50               0                50               0                
11.6                           0.103504206753323 74.6880935901338 0.987997593795376 -11.6272114220198 0.987997593795375 -11.6272114220197 0.103503257984528 74.6974731355584 
! Gamma         0                0                0                0                
! Port Impedance         50               0                50               0                
11.7                           0.104340946237892 74.6033695448792 0.987879743499255 -11.7247082453061 0.987879743499253 -11.7247082453061 0.104339984940717 74.6128331783869 
! Gamma         0                0                0                0                
! Port Impedance         50               0                50               0                
11.8                           0.105177052795699 74.5185687617911 0.987761463925591 -11.8221781066544 0.98776146392559 -11.8221781066543 0.105176078945544 74.5281165203882 
! Gamma         0                0                0                0                
! Port Impedance         50               0                50               0                
11.9                           0.106012527205128 74.4336921092149 0.987642753017524 -11.9196210932136 0.987642753017523 -11.9196210932135 0.106011540779726 74.4433240291131 
! Gamma         0                0                0                0                
! Port Impedance         50               0                50               0                
12                             0.106847370105864 74.3487404448416 0.987523608783874 -12.017037283931 0.987523608783873 -12.0170372839309 0.106846371085222 74.358456561417  
! Gamma         0                0                0                0                
! Port Impedance         50               0                50               0                
12.1                           0.107681582003964 74.2637146169231 0.987404029300209 -12.1144267499014 0.987404029300208 -12.1144267499013 0.107680570370303 74.2735149646794 
! Gamma         0                0                0                0                
! Port Impedance         50               0                50               0                
12.2                           0.108515163276769 74.1786154653477 0.987284012709735 -12.211789554705 0.987284012709734 -12.2117895547049 0.108514139014451 74.188500077884  
! Gamma         0                0                0                0                
! Port Impedance         50               0                50               0                
12.3                           0.109348114177646 74.0934438225909 0.98716355722401 -12.3091257547345 0.98716355722401 -12.3091257547344 0.109347077273101 74.1034127325729 
! Gamma         0                0                0                0                
! Port Impedance         50               0                50               0                
12.4                           0.110180434840581 74.0082005145518 0.987042661123504 -12.4064353995124 0.987042661123503 -12.4064353995123 0.110179385282223 74.018253753687  
! Gamma         0                0                0                0                
! Port Impedance         50               0                50               0                
12.5                           0.11101212528461 73.922886361287  0.986921322758008 -12.5037185319967 0.986921322758007 -12.5037185319966 0.111011063062751 73.9330239603036 
! Gamma         0                0                0                0                
! Port Impedance         50               0                50               0                
12.6                           0.111843185418102 73.8375021776519 0.986799540546911 -12.6009751888777 0.986799540546911 -12.6009751888776 0.111842110524864 73.8477241662818 
! Gamma         0                0                0                0                
! Port Impedance         50               0                50               0                
12.7                           0.112673615042901 73.7520487738588 0.986677312979353 -12.6982054008641 0.986677312979352 -12.698205400864 0.112672527472117 73.7623551808239 
! Gamma         0                0                0                0                
! Port Impedance         50               0                50               0                
12.8                           0.113503413858319 73.6665269559605 0.986554638614249 -12.7954091929597 0.986554638614249 -12.7954091929596 0.113502313605438 73.6769178089622 
! Gamma         0                0                0                0                
! Port Impedance         50               0                50               0                
12.9                           0.114332581464996 73.5809375262656 0.986431516080223 -12.8925865847304 0.986431516080222 -12.8925865847303 0.114331468526976 73.591412851978  
! Gamma         0                0                0                0                
! Port Impedance         50               0                50               0                
13                             0.115161117368619 73.4952812836944 0.986307944075423 -12.9897375905623 0.986307944075422 -12.9897375905622 0.115159991743825 73.5058411077605 
! Gamma         0                0                0                0                
! Port Impedance         50               0                50               0                
13.1                           0.115989020983525 73.4095590240801 0.986183921367261 -13.0868622199103 0.986183921367261 -13.0868622199102 0.115987882671619 73.4202033711115 
! Gamma         0                0                0                0                
! Port Impedance         50               0                50               0                
13.2                           0.116816291636161 73.3237715404224 0.986059446792057 -13.1839604775385 0.986059446792057 -13.1839604775384 0.116815140637992 73.3345004340012 
! Gamma         0                0                0                0                
! Port Impedance         50               0                50               0                
13.3                           0.117642928568436 73.2379196230968 0.98593451925461 -13.2810323637516 0.98593451925461 -13.2810323637515 0.117641764885925 73.248733085781  
! Gamma         0                0                0                0                
! Port Impedance         50               0                50               0                
13.4                           0.118468930940945 73.1520040600269 0.985809137727694 -13.3780778746179 0.985809137727694 -13.3780778746179 0.118467754576976 73.1629021133584 
! Gamma         0                0                0                0                
! Port Impedance         50               0                50               0                
13.5                           0.119294297836088 73.0660256368219 0.985683301251498 -13.475097002185 0.985683301251498 -13.4750970021849 0.119293108794386 73.0770083013364 
! Gamma         0                0                0                0                
! Port Impedance         50               0                50               0                
13.6                           0.120119028261072 72.9799851368833 0.985557008932992 -13.5720897346864 0.985557008932992 -13.5720897346863 0.12011782654609 72.9910524321238 
! Gamma         0                0                0                0                
! Port Impedance         50               0                50               0                
13.7                           0.120943121150809 72.8938833414863 0.985430259945255 -13.6690560567414 0.985430259945255 -13.6690560567414 0.120941906767607 72.9050352860177 
! Gamma         0                0                0                0                
! Port Impedance         50               0                50               0                
13.8                           0.121766575370707 72.8077210298365 0.985303053526741 -13.7659959495478 0.985303053526741 -13.7659959495477 0.12176534832484 72.8189576412632 
! Gamma         0                0                0                0                
! Port Impedance         50               0                50               0                
13.9                           0.122589389719372 72.7214989791064 0.985175388980505 -13.8629093910661 0.985175388980505 -13.8629093910661 0.122588150016763 72.7328202740917 
! Gamma         0                0                0                0                
! Port Impedance         50               0                50               0                
14                             0.123411562931201 72.6352179644541 0.985047265673395 -13.9597963561984 0.985047265673395 -13.9597963561983 0.12341031057803 72.6466239587414 
! Gamma         0                0                0                0                
! Port Impedance         50               0                50               0                
14.1                           0.124233093678892 72.5488787590257 0.984918683035198 -14.056656816959 0.984918683035199 -14.0566568169589 0.124231828681473 72.5603694674615 
! Gamma         0                0                0                0                
! Port Impedance         50               0                50               0                
14.2                           0.12505398057586 72.462482133945  0.984789640557762 -14.1534907426399 0.984789640557763 -14.1534907426398 0.125052702940526 72.4740575705037 
! Gamma         0                0                0                0                
! Port Impedance         50               0                50               0                
14.3                           0.125874222178568 72.3760288582903 0.984660137794084 -14.2502980999688 0.984660137794085 -14.2502980999688 0.125872931911555 72.3876890361005 
! Gamma         0                0                0                0                
! Port Impedance         50               0                50               0                
14.4                           0.126693816988777 72.2895196990627 0.984530174357378 -14.3470788532617 0.984530174357379 -14.3470788532617 0.126692514096104 72.3012646304348 
! Gamma         0                0                0                0                
! Port Impedance         50               0                50               0                
14.5                           0.127512763455711 72.2029554211447 0.984399749920116 -14.4438329645692 0.984399749920117 -14.4438329645691 0.12751144794307 72.2147851176001 
! Gamma         0                0                0                0                
! Port Impedance         50               0                50               0                
14.6                           0.128331059978152 72.1163367872525 0.984268864213056 -14.5405603938171 0.984268864213057 -14.5405603938171 0.128329731850792 72.1282512595537 
! Gamma         0                0                0                0                
! Port Impedance         50               0                50               0                
14.7                           0.129148704906457 72.0296645578824 0.984137517024247 -14.6372610989419 0.984137517024248 -14.6372610989418 0.129147364169072 72.0416638160643 
! Gamma         0                0                0                0                
! Port Impedance         50               0                50               0                
14.8                           0.129965696544499 71.9429394912518 0.984005708198028 -14.7339350360201 0.984005708198029 -14.7339350360201 0.129964343201119 71.9550235446542 
! Gamma         0                0                0                0                
! Port Impedance         50               0                50               0                
14.9                           0.130782033151551 71.8561623432378 0.983873437634006 -14.8305821593932 0.983873437634007 -14.8305821593932 0.130780667205433 71.8683312005385 
! Gamma         0                0                0                0                
! Port Impedance         50               0                50               0                
15                             0.13159771294409 71.7693338673115 0.983740705286036 -14.9272024217872 0.983740705286037 -14.9272024217872 0.131596334397613 71.7815875365602 
! Gamma         0                0                0                0                
! Port Impedance         50               0                50               0                
15.1                           0.13241273409755 71.682454814471  0.983607511161181 -15.0237957744271 0.983607511161182 -15.023795774427 0.132411342952108 71.6947933031244 
! Gamma         0                0                0                0                
! Port Impedance         50               0                50               0                
15.2                           0.133227094748004 71.5955259331733 0.983473855318682 -15.1203621671473 0.983473855318683 -15.1203621671473 0.133225691003907 71.6079492481298 
! Gamma         0                0                0                0                
! Port Impedance         50               0                50               0                
15.3                           0.134040792993793 71.5085479692642 0.98333973786891 -15.2169015484973 0.983339737868911 -15.2169015484973 0.134039376650166 71.5210561169001 
! Gamma         0                0                0                0                
! Port Impedance         50               0                50               0                
15.4                           0.134853826897095 71.4215216659093 0.983205158972325 -15.3134138658426 0.983205158972326 -15.3134138658426 0.134852397951782 71.4341146521151 
! Gamma         0                0                0                0                
! Port Impedance         50               0                50               0                
15.5                           0.135666194485441 71.3344477635239 0.98307011883843 -15.4098990654618 0.983070118838431 -15.4098990654618 0.135664752934909 71.3471255937411 
! Gamma         0                0                0                0                
! Port Impedance         50               0                50               0                
15.6                           0.136477893753178 71.2473269997052 0.98293461772473 -15.5063570926398 0.982934617724731 -15.5063570926398 0.136476439592426 71.2600896789627 
! Gamma         0                0                0                0                
! Port Impedance         50               0                50               0                
15.7                           0.137288922662882 71.1601601091633 0.98279865593569 -15.6027878917569 0.982798655935691 -15.6027878917569 0.137287455885353 71.1730076421148 
! Gamma         0                0                0                0                
! Port Impedance         50               0                50               0                
15.8                           0.138099279146721 71.072947823655  0.982662233821697 -15.699191406374 0.982662233821699 -15.699191406374 0.138097799744215 71.0858802146164 
! Gamma         0                0                0                0                
! Port Impedance         50               0                50               0                
15.9                           0.138908961107774 70.9856908719191 0.982525351778029 -15.7955675793141 0.98252535177803 -15.7955675793141 0.138907469070363 70.9987081249056 
! Gamma         0                0                0                0                
! Port Impedance         50               0                50               0                
16                             0.139717966421301 70.8983899796122 0.982388010243823 -15.8919163527409 0.982388010243824 -15.8919163527409 0.139716461737251 70.9114920983758 
! Gamma         0                0                0                0                
! Port Impedance         50               0                50               0                
16.1                           0.140526292935973 70.8110458692477 0.982250209701058 -15.9882376682334 0.98225020970106 -15.9882376682334 0.140524775591669 70.8242328573144 
! Gamma         0                0                0                0                
! Port Impedance         50               0                50               0                
16.2                           0.141333938475064 70.7236592601365 0.982111950673539 -16.0845314668576 0.98211195067354 -16.0845314668576 0.141332408454928 70.7369311208434 
! Gamma         0                0                0                0                
! Port Impedance         50               0                50               0                
16.3                           0.142140900837589 70.6362308683292 0.981973233725889 -16.1807976892345 0.98197323372589 -16.1807976892345 0.142139358124017 70.6495876048617 
! Gamma         0                0                0                0                
! Port Impedance         50               0                50               0                
16.4                           0.142947177799423 70.5487614065615 0.981834059462554 -16.277036275606 0.981834059462556 -16.2770362756061 0.142945622372712 70.5622030219902 
! Gamma         0                0                0                0                
! Port Impedance         50               0                50               0                
16.5                           0.143752767114367 70.4612515842019 0.981694428526814 -16.3732471658974 0.981694428526816 -16.3732471658974 0.143751198952652 70.4747780815187 
! Gamma         0                0                0                0                
! Port Impedance         50               0                50               0                
16.6                           0.144557666515187 70.3737021072008 0.981554341599803 -16.4694302997765 0.981554341599804 -16.4694302997765 0.14455608559438 70.3873134893556 
! Gamma         0                0                0                0                
! Port Impedance         50               0                50               0                
16.7                           0.145361873714617 70.2861136780435 0.98141379939954 -16.5655856167112 0.981413799399542 -16.5655856167113 0.145360280008345 70.2998099479798 
! Gamma         0                0                0                0                
! Port Impedance         50               0                50               0                
16.8                           0.146165386406326 70.1984869957046 0.981272802679974 -16.6617130560237 0.981272802679975 -16.6617130560237 0.146163779885879 70.2122681563952 
! Gamma         0                0                0                0                
! Port Impedance         50               0                50               0                
16.9                           0.146968202265858 70.1108227556052 0.981131352230034 -16.7578125569422 0.981131352230035 -16.7578125569422 0.146966582900136 70.1246888100874 
! Gamma         0                0                0                0                
! Port Impedance         50               0                50               0                
17                             0.147770318951539 70.023121649573  0.980989448872696 -16.8538840586505 0.980989448872697 -16.8538840586506 0.147768686707002 70.0370726009828 
! Gamma         0                0                0                0                
! Port Impedance         50               0                50               0                
17.1                           0.148571734105354 69.9353843658041 0.98084709346406 -16.9499275003353 0.980847093464061 -16.9499275003353 0.148570088945977 69.9494202174109 
! Gamma         0                0                0                0                
! Port Impedance         50               0                50               0                
17.2                           0.149372445353798 69.8476115888282 0.980704286892435 -17.0459428212307 0.980704286892437 -17.0459428212308 0.149370787241027 69.8617323440681 
! Gamma         0                0                0                0                
! Port Impedance         50               0                50               0                
17.3                           0.150172450308696 69.7598039994751 0.980561030077446 -17.1419299606614 0.980561030077448 -17.1419299606615 0.150170779201412 69.774009661984  
! Gamma         0                0                0                0                
! Port Impedance         50               0                50               0                
17.4                           0.150971746568005 69.6719622748447 0.980417323969142 -17.2378888580831 0.980417323969144 -17.2378888580832 0.150970062422484 69.6862528484911 
! Gamma         0                0                0                0                
! Port Impedance         50               0                50               0                
17.5                           0.15177033171658 69.5840870882786 0.980273169547125 -17.3338194531212 0.980273169547127 -17.3338194531212 0.151768634486459 69.5984625771952 
! Gamma         0                0                0                0                
! Port Impedance         50               0                50               0                
17.6                           0.152568203326922 69.4961791093341 0.980128567819689 -17.4297216856076 0.98012856781969 -17.4297216856076 0.152566492963173 69.5106395179494 
! Gamma         0                0                0                0                
! Port Impedance         50               0                50               0                
17.7                           0.153365358959904 69.408239003761  0.979983519822969 -17.5255954956157 0.97998351982297 -17.5255954956158 0.153363635410803 69.4227843368299 
! Gamma         0                0                0                0                
! Port Impedance         50               0                50               0                
17.8                           0.154161796165471 69.3202674334795 0.979838026620113 -17.6214408234935 0.979838026620114 -17.6214408234936 0.154160059376577 69.3348976961135 
! Gamma         0                0                0                0                
! Port Impedance         50               0                50               0                
17.9                           0.15495751248332 69.2322650565615 0.979692089300453 -17.717257609895 0.979692089300454 -17.7172576098951 0.154955762397451 69.2469802542579 
! Gamma         0                0                0                0                
! Port Impedance         50               0                50               0                
18                             0.155752505443556 69.1442325272131 0.979545708978699 -17.8130457958099 0.9795457089787  -17.81304579581  0.155750742000773 69.1590326658837 
! Gamma         0                0                0                0                
! Port Impedance         50               0                50               0                
18.1                           0.156546772567335 69.056170495759  0.979398886794147 -17.908805322592 0.979398886794148 -17.908805322592 0.156544995704926 69.0710555817586 
! Gamma         0                0                0                0                
! Port Impedance         50               0                50               0                
18.2                           0.157340311367483 68.9680796086298 0.979251623909892 -18.0045361319856 0.979251623909893 -18.0045361319857 0.157338521019949 68.9830496487831 
! Gamma         0                0                0                0                
! Port Impedance         50               0                50               0                
18.3                           0.15813311934909 68.8799605083501 0.979103921512061 -18.1002381661513 0.979103921512062 -18.1002381661513 0.158131315448141 68.8950155099784 
! Gamma         0                0                0                0                
! Port Impedance         50               0                50               0                
18.4                           0.158925194010103 68.7918138335288 0.97895578080906 -18.1959113676889 0.97895578080906 -18.195911367689 0.158923376484644 68.8069538044763 
! Gamma         0                0                0                0                
! Port Impedance         50               0                50               0                
18.5                           0.159716532841883 68.7036402188517 0.978807203030826 -18.2915556796608 0.978807203030826 -18.2915556796608 0.159714701618014 68.7188651675104 
! Gamma         0                0                0                0                
! Port Impedance         50               0                50               0                
18.6                           0.160507133329756 68.6154402950748 0.978658189428103 -18.3871710456125 0.978658189428103 -18.3871710456126 0.160505288330772 68.6307502304092 
! Gamma         0                0                0                0                
! Port Impedance         50               0                50               0                
18.7                           0.161296992953548 68.5272146890199 0.978508741271724 -18.4827574095928 0.978508741271724 -18.4827574095929 0.161295134099937 68.5426096205906 
! Gamma         0                0                0                0                
! Port Impedance         50               0                50               0                
18.8                           0.162086109188096 68.4389640235712 0.978358859851907 -18.5783147161726 0.978358859851908 -18.5783147161727 0.162084236397548 68.4544439615584 
! Gamma         0                0                0                0                
! Port Impedance         50               0                50               0                
18.9                           0.162874479503758 68.3506889176745 0.978208546477566 -18.6738429104622 0.978208546477567 -18.6738429104622 0.162872592691165 68.3662538728999 
! Gamma         0                0                0                0                
! Port Impedance         50               0                50               0                
19                             0.163662101366891 68.2623899863362 0.978057802475632 -18.7693419381277 0.978057802475633 -18.7693419381277 0.163660200444363 68.2780399702848 
! Gamma         0                0                0                0                
! Port Impedance         50               0                50               0                
19.1                           0.164448972240333 68.1740678406249 0.977906629190391 -18.8648117454067 0.977906629190392 -18.8648117454067 0.164447057117203 68.189802865466  
! Gamma         0                0                0                0                
! Port Impedance         50               0                50               0                
19.2                           0.165235089583854 68.0857230876739 0.97775502798283 -18.9602522791225 0.97775502798283 -18.9602522791226 0.1652331601667  68.1015431662812 
! Gamma         0                0                0                0                
! Port Impedance         50               0                50               0                
19.3                           0.166020450854612 67.997356330685  0.977603000229996 -19.0556634866975 0.977603000229996 -19.0556634866975 0.166018507047264 68.013261476656  
! Gamma         0                0                0                0                
! Port Impedance         50               0                50               0                
19.4                           0.166805053507578 67.9089681689331 0.977450547324373 -19.1510453161653 0.977450547324374 -19.1510453161654 0.166803095211144 67.924958396608  
! Gamma         0                0                0                0                
! Port Impedance         50               0                50               0                
19.5                           0.167588894995964 67.8205591977729 0.977297670673266 -19.2463977161828 0.977297670673267 -19.2463977161828 0.167586922108848 67.8366345222525 
! Gamma         0                0                0                0                
! Port Impedance         50               0                50               0                
19.6                           0.16837197277163 67.7321300086453 0.977144371698196 -19.3417206360403 0.977144371698197 -19.3417206360404 0.168369985189555 67.7482904458085 
! Gamma         0                0                0                0                
! Port Impedance         50               0                50               0                
19.7                           0.169154284285484 67.643681189086  0.976990651834313 -19.4370140256717 0.976990651834313 -19.4370140256717 0.169152281901519 67.6599267556064 
! Gamma         0                0                0                0                
! Port Impedance         50               0                50               0                
19.8                           0.169935826987869 67.5552133227347 0.976836512529813 -19.5322778356632 0.976836512529813 -19.5322778356632 0.169933809692455 67.5715440360964 
! Gamma         0                0                0                0                
! Port Impedance         50               0                50               0                
19.9                           0.17071659832894 67.4667269893448 0.976681955245376 -19.6275120172616 0.976681955245376 -19.6275120172616 0.170714566009917 67.4831428678578 
! Gamma         0                0                0                0                
! Port Impedance         50               0                50               0                
20                             0.171496595759029 67.3782227647947 0.976526981453608 -19.7227165223821 0.976526981453608 -19.7227165223821 0.171494548301673 67.3947238276093 
! Gamma         0                0                0                0                
! Port Impedance         50               0                50               0                
