! Touchstone file exported from HFSS 2026.1.0
!        File:           C:/ffzhzh/LocalFiles/Ansys_Project_Files/temp_train_BSMRDL_911_1783171590_22436.aedt
!        Generated:      09:27:46 PM Jul  4, 2026
!        Design:         BSMRDL
!        Project:        temp_train_BSMRDL_911_1783171590_22436
!
! Variables:
!        h_bsmrdl = 5.61um
!        h_ox = 20um
!        h_rdl = 5um
!        h_sub = 80um
!        h_tmrdl = 5um
!        h_tsv = 80um
!        h_via = 3um
!        l_bsmrdl = 250.78um
!        l_sub = 650.78um
!        l_tmrdl = 200um
!        m_sub = 200um
!        pitch = 40.01um
!        r_tsv = 6um
!        s_tmrdl = 10um
!        w_bsmrdl = 21.85um
!        w_sub = 500um
!        w_tmrdl = 12um
!        x_tsv_center1 = 206um
!        x_tsv_center2 = 478.63um
!        x_tsv_center3 = 690.63um
!        x_tsv_center4 = 963.26um
!        x_tsv_center5 = 1175.26um
!        x_tsv_center6 = 1447.89um
!
# GHz S MA R 50.000000
! Terminal data exported
! Port[1] = BSM_RDL1_1_T1
! Port[2] = BSM_RDL1_1_T2
0.1                            0.00120882052527049 43.438339407141  0.999123289794902 -0.0950152571463712 0.999123289794903 -0.095015257146374 0.00120882071552184 43.4382672880775 
! Gamma         0                0                0                0                
! Port Impedance         50               0                50               0                
0.2                            0.00185475053703683 59.1625301414995 0.999052531195263 -0.186841733987824 0.999052531195264 -0.186841733988095 0.00185482866659207 59.1632782643971 
! Gamma         0                0                0                0                
! Port Impedance         50               0                50               0                
0.3                            0.00253199155532238 66.6725412749303 0.99899475960113 -0.276598895010122 0.998994759601128 -0.276598895010566 0.0025321217215906 66.6716402016298 
! Gamma         0                0                0                0                
! Port Impedance         50               0                50               0                
0.4                            0.00322598524321424 71.1754436338103 0.998953179538624 -0.365710129909121 0.998953179538618 -0.36571012990959 0.00322611689136725 71.1735205144092 
! Gamma         0                0                0                0                
! Port Impedance         50               0                50               0                
0.5                            0.00393273491876161 74.1439905619209 0.998921149593629 -0.454725804509093 0.998921149593621 -0.454725804509509 0.0039328464142503 74.1416545334964 
! Gamma         0                0                0                0                
! Port Impedance         50               0                50               0                
0.6                            0.00464827239879662 76.211824989355  0.998893639219024 -0.543787982172215 0.998893639219014 -0.54378798217255 0.00464835748010292 76.2093792038438 
! Gamma         0                0                0                0                
! Port Impedance         50               0                50               0                
0.7                            0.00536958760962271 77.7091396419656 0.998867766733754 -0.632911682163709 0.998867766733743 -0.632911682163957 0.00536964596165179 77.7067142514766 
! Gamma         0                0                0                0                
! Port Impedance         50               0                50               0                
0.8                            0.00609459600068107 78.8251209638081 0.998841953987352 -0.722079051680371 0.998841953987339 -0.722079051680535 0.0060946293976997 78.8227653307919 
! Gamma         0                0                0                0                
! Port Impedance         50               0                50               0                
0.9                            0.0068218671530274 79.6752652207689 0.998815334106714 -0.811266911258914 0.998815334106702 -0.811266911259  0.00682187800820372 79.6729924482101 
! Gamma         0                0                0                0                
! Port Impedance         50               0                50               0                
1                              0.00755040177417373 80.3336578583841 0.998787429406891 -0.900454070810345 0.998787429406878 -0.90045407081036 0.00755039260628123 80.331465085889  
! Gamma         0                0                0                0                
! Port Impedance         50               0                50               0                
1.1                            0.00827948377254996 80.8497993408306 0.998757982093575 -0.989622754644705 0.998757982093563 -0.989622754644656 0.00827945701746815 80.847676992336  
! Gamma         0                0                0                0                
! Port Impedance         50               0                50               0                
1.2                            0.00900858681500574 81.2579199237675 0.998726863562781 -1.07875841963371 0.99872686356277 -1.0787584196336 0.00900854476660382 81.2558559580903 
! Gamma         0                0                0                0                
! Port Impedance         50               0                50               0                
1.3                            0.00973731539748943 81.5823940351551 0.998694024054074 -1.16784923348797 0.998694024054062 -1.16784923348781 0.00973726019577932 81.5803758997116 
! Gamma         0                0                0                0                
! Port Impedance         50               0                50               0                
1.4                            0.0104653670992385 81.8410205269898 0.998659463548318 -1.25688556803352 0.998659463548307 -1.25688556803332 0.0104653007342352 81.8390360359303 
! Gamma         0                0                0                0                
! Port Impedance         50               0                50               0                
1.5                            0.0111925078541582 82.0470825701734 0.998623214230267 -1.34585958670686 0.998623214230257 -1.34585958670662 0.0111924321735298 82.0451202724164 
! Gamma         0                0                0                0                
! Port Impedance         50               0                50               0                
1.6                            0.0119185553275509 82.2106825109929 0.998585329474551 -1.43476492617935 0.998585329474542 -1.43476492617908 0.0119184720438997 82.2087318161212 
! Gamma         0                0                0                0                
! Port Impedance         50               0                50               0                
1.7                            0.0126433674296068 82.3396312465789 0.99854587664488 -1.52359645343023 0.99854587664487 -1.52359645342993 0.0126432781262735 82.3376824378693 
! Gamma         0                0                0                0                
! Port Impedance         50               0                50               0                
1.8                            0.0133668341470341 82.4400556142991 0.998504932202662 -1.61235007892441 0.998504932202653 -1.61235007892409 0.0133667402824605 82.4380998118532 
! Gamma         0                0                0                0                
! Port Impedance         50               0                50               0                
1.9                            0.0140888715602008 82.516822484169  0.998462578264969 -1.70102261029537 0.998462578264961 -1.70102261029502 0.014088774471253 82.5148515887395 
! Gamma         0                0                0                0                
! Port Impedance         50               0                50               0                
2                              0.0148094173284836 82.5738408338699 0.998418900105628 -1.7896116349915 0.998418900105621 -1.78961163499114 0.0148093182331923 82.5718474659429 
! Gamma         0                0                0                0                
! Port Impedance         50               0                50               0                
2.1                            0.015528427182282 82.6142808367252 0.998373984293218 -1.87811542366816 0.998373984293211 -1.87811542366779 0.0155283271823969 82.6122582774274 
! Gamma         0                0                0                0                
! Port Impedance         50               0                50               0                
2.2                            0.0162458721203942 82.6407353990339 0.998327917275694 -1.9665328485862 0.998327917275688 -1.96653284858583 0.0162457722040531 82.6386775354736 
! Gamma         0                0                0                0                
! Port Impedance         50               0                50               0                
2.3                            0.0169617361134592 82.6553410723698 0.998280784290068 -2.05486331305356 0.998280784290062 -2.05486331305318 0.0169616371581797 82.653242348104  
! Gamma         0                0                0                0                
! Port Impedance         50               0                50               0                
2.4                            0.0176760141800494 82.6598698186212 0.998232668517213 -2.14310668919261 0.998232668517208 -2.14310668919224 0.0176759169561665 82.6577251890679 
! Gamma         0                0                0                0                
! Port Impedance         50               0                50               0                
2.5                            0.0183887107450632 82.6557995471331 0.99818365042752 -2.23126326218167 0.998183650427515 -2.2312632621813 0.0183886159196688 82.653604439395  
! Gamma         0                0                0                0                
! Port Impedance         50               0                50               0                
2.6                            0.0190998382184928 82.6443689756501 0.998133807279257 -2.31933367971389 0.998133807279253 -2.31933367971352 0.0190997463598837 82.6421192521302 
! Gamma         0                0                0                0                
! Port Impedance         50               0                50               0                
2.7                            0.0198094157515496 82.6266207644548 0.998083212741774 -2.40731890582358 0.998083212741771 -2.40731890582321 0.0198093273341492 82.6243126896713 
! Gamma         0                0                0                0                
! Port Impedance         50               0                50               0                
2.8                            0.0205174681397642 82.6034357716772 0.998031936622433 -2.49522017850393 0.998031936622429 -2.49522017850357 0.02051738354946 82.6010659817665 
! Gamma         0                0                0                0                
! Port Impedance         50               0                50               0                
2.9                            0.0212240248511445 82.5755605096764 0.9979800446806  -2.58303897072247 0.997980044680598 -2.58303897072213 0.021223944390964 82.5731259841663 
! Gamma         0                0                0                0                
! Port Impedance         50               0                50               0                
3                              0.0219291191631591 82.5436293395751 0.997927598515152 -2.67077695455926 0.99792759851515 -2.67077695455892 0.0219290430592009 82.5411273750975 
! Gamma         0                0                0                0                
! Port Impedance         50               0                50               0                
3.1                            0.022632787396123 82.5081825526187 0.997874655514076 -2.75843596826735 0.997874655514074 -2.75843596826703 0.0226327158036541 82.5056107383095 
! Gamma         0                0                0                0                
! Port Impedance         50               0                50               0                
3.2                            0.0233350682331237 82.469681205877  0.997821268856439 -2.84601798610031 0.997821268856437 -2.84601798610001 0.0233350012427572 82.467037400274  
! Gamma         0                0                0                0                
! Port Impedance         50               0                50               0                
3.3                            0.0240360021183406 82.4285193740619 0.997767487558175 -2.93352509077624 0.997767487558174 -2.93352509077595 0.0240359397622127 82.4258016833606 
! Gamma         0                0                0                0                
! Port Impedance         50               0                50               0                
3.4                            0.0247356307267807 82.3850343271307 0.997713356554244 -3.02095944846006 0.997713356554244 -3.02095944845978 0.0247355729846529 82.3822410846961 
! Gamma         0                0                0                0                
! Port Impedance         50               0                50               0                
3.5                            0.025433996499252 82.3395150297916 0.997658916810499 -3.10832328614985 0.997658916810499 -3.10832328614959 0.0254339433044728 82.3366447768516 
! Gamma         0                0                0                0                
! Port Impedance         50               0                50               0                
3.6                            0.0261311422369653 82.2922092734772 0.997604205459421 -3.19561887135251 0.997604205459421 -3.19561887135227 0.0261310934822353 82.2892607409426 
! Gamma         0                0                0                0                
! Port Impedance         50               0                50               0                
3.7                            0.0268271107505796 82.2433296863168 0.997549255954515 -3.28284849393107 0.997549255954515 -3.28284849393085 0.0268270662934735 82.2403017776844 
! Gamma         0                0                0                0                
! Port Impedance         50               0                50               0                
3.8                            0.0275219445588424 82.1930588167769 0.997494098238798 -3.37001445000276 0.997494098238798 -3.37001445000255 0.02752190422705 82.189950592082  
! Gamma         0                0                0                0                
! Port Impedance         50               0                50               0                
3.9                            0.0282156856322628 82.1415534480998 0.997438758923363 -3.45711902776348 0.997438758923364 -3.45711902776329 0.0282156492285219 82.1383641088862 
! Gamma         0                0                0                0                
! Port Impedance         50               0                50               0                
4                              0.0289083751775155 82.0889482706359 0.997383261472546 -3.5441644951122 0.997383261472547 -3.54416449511203 0.0289083424842151 82.0856771459155 
! Gamma         0                0                0                0                
! Port Impedance         50               0                50               0                
4.1                            0.0296000534585249 82.0353590155846 0.997327626392671 -3.63115308894752 0.997327626392672 -3.63115308894737 0.0296000242419672 82.0320055487571 
! Gamma         0                0                0                0                
! Port Impedance         50               0                50               0                
4.2                            0.0302907596504199 81.9808851349987 0.99727187142182 -3.71808700600916 0.997271871421821 -3.71808700600903 0.0302907336647345 81.9774488716995 
! Gamma         0                0                0                0                
! Port Impedance         50               0                50               0                
4.3                            0.0309805317227961 81.9256120980355 0.997216011718454 -3.80496839513835 0.997216011718455 -3.80496839513823 0.0309805087135059 81.9220926748824 
! Gamma         0                0                0                0                
! Port Impedance         50               0                50               0                
4.4                            0.0316694063489634 81.8696133615058 0.997160060047088 -3.89179935083415 0.997160060047089 -3.89179935083404 0.0316693860562073 81.866010495708  
! Gamma         0                0                0                0                
! Port Impedance         50               0                50               0                
4.5                            0.0323574188381006 81.8129520631213 0.997104026959537 -3.9785819079865 0.997104026959538 -3.97858190798641 0.0323574009995209 81.8092655429156 
! Gamma         0                0                0                0                
! Port Impedance         50               0                50               0                
4.6                            0.0330446030874778 81.7556824779992 0.997047920970555 -4.06531803767151 0.997047920970556 -4.06531803767144 0.0330445874407846 81.7519121538757 
! Gamma         0                0                0                0                
! Port Impedance         50               0                50               0                
4.7                            0.0337309915521418 81.6978512725578 0.996991748726945 -4.15200964389997 0.996991748726946 -4.15200964389992 0.0337309778373678 81.693997049236  
! Gamma         0                0                0                0                
! Port Impedance         50               0                50               0                
4.8                            0.0344166152296876 81.6394985846497 0.996935515169436 -4.23865856121617 0.996935515169437 -4.23865856121612 0.034416603191151 81.6355604137653 
! Gamma         0                0                0                0                
! Port Impedance         50               0                50               0                
4.9                            0.0351015036579618 81.5806589544    0.996879223686828 -4.32526655305029 0.996879223686829 -4.32526655305026 0.0351014930459532 81.5766368278609 
! Gamma         0                0                0                0                
! Port Impedance         50               0                50               0                
5                              0.0357856849237481 81.5213621265693 0.996822876262079 -4.41183531073456 0.99682287626208 -4.41183531073454 0.0357856754959609 81.5172560705414 
! Gamma         0                0                0                0                
! Port Impedance         50               0                50               0                
5.1                            0.0364691856806903 81.4616337422165 0.996766473610152 -4.4983664530995 0.996766473610153 -4.4983664530995 0.0364691772034129 81.4574438116982 
! Gamma         0                0                0                0                
! Port Impedance         50               0                50               0                
5.2                            0.0371520311748884 81.4014959348669 0.996710015307546 -4.58486152657388 0.996710015307547 -4.58486152657389 0.0371520234239774 81.3972222088124 
! Gamma         0                0                0                0                
! Port Impedance         50               0                50               0                
5.3                            0.0378342452767819 81.3409678442336 0.996653499913575 -4.67132200571786 0.996653499913576 -4.67132200571788 0.0378342380384348 81.3366104211865 
! Gamma         0                0                0                0                
! Port Impedance         50               0                50               0                
5.4                            0.0385158505180939 81.2800660587054 0.996596925083496 -4.75774929412573 0.996596925083497 -4.75774929412576 0.0385158435894399 81.2756250529045 
! Gamma         0                0                0                0                
! Port Impedance         50               0                50               0                
5.5                            0.0391968681327565 81.218804996256  0.996540287673694 -4.84414472564017 0.996540287673695 -4.84414472564021 0.0391968613222828 81.2142805341769 
! Gamma         0                0                0                0                
! Port Impedance         50               0                50               0                
5.6                            0.0398773181008761 81.1571972321026 0.996483583839157 -4.93050956582616 0.996483583839158 -4.93050956582621 0.0398773112287065 81.1525894494004 
! Gamma         0                0                0                0                
! Port Impedance         50               0                50               0                
5.7                            0.0405572191949189 81.0952537803048 0.996426809123548 -5.01684501365771 0.996426809123548 -5.01684501365777 0.0405572120929615 81.0905628191242 
! Gamma         0                0                0                0                
! Port Impedance         50               0                50               0                
5.8                            0.0412365890274079 81.0329843355196 0.996369958542157 -5.10315220337605 0.996369958542158 -5.10315220337611 0.0412365815393868 81.0282103421411 
! Gamma         0                0                0                0                
! Port Impedance         50               0                50               0                
5.9                            0.0419154440995262 80.9703974802935 0.99631302665811 -5.18943220648224 0.99631302665811 -5.18943220648231 0.0419154360809102 80.9655406030861 
! Gamma         0                0                0                0                
! Port Impedance         50               0                50               0                
6                              0.042593799850106 80.9075008625492 0.996256007652153 -5.27568603383184 0.996256007652153 -5.27568603383192 0.0425937911679501 80.902561250201  
! Gamma         0                0                0                0                
! Port Impedance         50               0                50               0                
6.1                            0.0432716707045697 80.8443013473048 0.996198895386393 -5.36191463780308 0.996198895386393 -5.36191463780317 0.0432716612372791 80.839279147306  
! Gamma         0                0                0                0                
! Port Impedance         50               0                50               0                
6.2                            0.0439490701234538 80.7808051461249 0.99614168346234 -5.44811891451371 0.99614168346234 -5.4481189145138 0.0439490597604835 80.775700503478  
! Gamma         0                0                0                0                
! Port Impedance         50               0                50               0                
6.3                            0.0446260106502148 80.7170179273388 0.996084365273618 -5.534299706065  0.996084365273617 -5.5342997060651 0.0446259992917138 80.7118309834742 
! Gamma         0                0                0                0                
! Port Impedance         50               0                50               0                
6.4                            0.0453025039580675 80.6529449096599 0.996026934053684 -5.62045780279439 0.996026934053684 -5.62045780279449 0.0453024915144783 80.6476758015349 
! Gamma         0                0                0                0                
! Port Impedance         50               0                50               0                
6.5                            0.045978560895657 80.5885909414893 0.995969382918918 -5.70659394552093 0.995969382918918 -5.70659394552103 0.0459785472872777 80.5832398008516 
! Gamma         0                0                0                0                
! Port Impedance         50               0                50               0                
6.6                            0.0466541915314061 80.5239605678855 0.995911704907377 -5.79270882777013 0.995911704907377 -5.79270882777023 0.0466541766879244 80.5185275206837 
! Gamma         0                0                0                0                
! Port Impedance         50               0                50               0                
6.7                            0.0473294051964189 80.4590580869209 0.995853893013573 -5.87880309796701 0.995853893013573 -5.87880309796713 0.0473293890564228 80.4535432528447 
! Gamma         0                0                0                0                
! Port Impedance         50               0                50               0                
6.8                            0.0480042105258483 80.3938875969143 0.995795940219547 -5.96487736158801 0.995795940219547 -5.96487736158813 0.0480041930363223 80.3882910890498 
! Gamma         0                0                0                0                
! Port Impedance         50               0                50               0                
6.9                            0.0486786154986674 80.3284530358331 0.995737839522534 -6.05093218326408 0.995737839522534 -6.05093218326419 0.0486785966144774 80.3227749604198 
! Gamma         0                0                0                0                
! Port Impedance         50               0                50               0                
7                              0.0493526274758041 80.2627582139861 0.9956795839595  -6.13696808882891 0.9956795839595  -6.13696808882902 0.0493526071591773 80.256998670263  
! Gamma         0                0                0                0                
! Port Impedance         50               0                50               0                
7.1                            0.0500262532366192 80.1968068409776 0.995621166628801 -6.2229855673075 0.9956211666288  -6.22298556730762 0.050026231456623 80.1909659211062 
! Gamma         0                0                0                0                
! Port Impedance         50               0                50               0                
7.2                            0.0506994990137241 80.1306025477625 0.995562580709202 -6.30898507284129 0.995562580709201 -6.30898507284141 0.0506994757457477 80.1246803368179 
! Gamma         0                0                0                0                
! Port Impedance         50               0                50               0                
7.3                            0.0513723705261486 80.0641489045313 0.995503819476489 -6.39496702654728 0.995503819476488 -6.3949670265474 0.0513723457513901 80.0581454805506 
! Gamma         0                0                0                0                
! Port Impedance         50               0                50               0                
7.4                            0.0520448730108794 79.9974494350525 0.995444876317884 -6.48093181830924 0.995444876317883 -6.48093181830936 0.0520448467158426 79.9913648691336 
! Gamma         0                0                0                0                
! Port Impedance         50               0                50               0                
7.5                            0.0527170112528007 79.9305076280163 0.995385744744453 -6.56687980850006 0.995385744744452 -6.56687980850018 0.0527169834288023 79.9243419844584 
! Gamma         0                0                0                0                
! Port Impedance         50               0                50               0                
7.6                            0.0533887896130735 79.8633269458483 0.995326418401697 -6.65281132963464 0.995326418401696 -6.65281132963476 0.0533887602557641 79.8570802823275 
! Gamma         0                0                0                0                
! Port Impedance         50               0                50               0                
7.7                            0.0540602120559982 79.795910831397  0.995266891078493 -6.73872668795352 0.995266891078493 -6.73872668795364 0.0540601811648984 79.7895831991716 
! Gamma         0                0                0                0                
! Port Impedance         50               0                50               0                
7.8                            0.0547312821744087 79.7282627128431 0.995207156714543 -6.82462616493772 0.995207156714542 -6.82462616493784 0.0547312497524607 79.7218541569828 
! Gamma         0                0                0                0                
! Port Impedance         50               0                50               0                
7.9                            0.0554020032136477 79.6603860071297 0.995147209406465 -6.91051001875576 0.995147209406464 -6.91051001875588 0.0554019692667861 79.6538965667635 
! Gamma         0                0                0                0                
! Port Impedance         50               0                50               0                
8                              0.05607237809418 79.5922841221694 0.995087043412683 -6.99637848564401 0.995087043412682 -6.99637848564412 0.0560723426309192 79.5857138307491 
! Gamma         0                0                0                0                
! Port Impedance         50               0                50               0                
8.1                            0.0567424094328956 79.5239604580495 0.99502665315721 -7.08223178122192 0.995026653157209 -7.08223178122203 0.0567423724639376 79.5173093436233 
! Gamma         0                0                0                0                
! Port Impedance         50               0                50               0                
8.2                            0.0574120995631615 79.4554184074215 0.994966033232459 -7.16807010174371 0.994966033232458 -7.16807010174383 0.0574120611010228 79.4486864929159 
! Gamma         0                0                0                0                
! Port Impedance         50               0                50               0                
8.3                            0.0580814505536769 79.386661355236  0.994905178401171 -7.25389362528848 0.99490517840117 -7.25389362528859 0.0580814106123354 79.3798486587427 
! Gamma         0                0                0                0                
! Port Impedance         50               0                50               0                
8.4                            0.0587504642261879 79.3176926779597 0.994844083597565 -7.33970251289047 0.994844083597564 -7.33970251289057 0.0587504228207497 79.3107992130241 
! Gamma         0                0                0                0                
! Port Impedance         50               0                50               0                
8.5                            0.0594191421721181 79.248515742389  0.994782743927787 -7.42549690961179 0.994782743927786 -7.42549690961189 0.0594190993185048 79.2415415182999 
! Gamma         0                0                0                0                
! Port Impedance         50               0                50               0                
8.6                            0.0600874857681682 79.1791339041595 0.994721154669743 -7.51127694555943 0.994721154669742 -7.51127694555953 0.0600874414828233 79.1720789262354 
! Gamma         0                0                0                0                
! Port Impedance         50               0                50               0                
8.7                            0.060755496190938 79.1095505060314 0.994659311272389 -7.5970427368489 0.994659311272388 -7.597042736849  0.0607554504905545 79.1024147759049 
! Gamma         0                0                0                0                
! Port Impedance         50               0                50               0                
8.8                            0.0614231744306235 79.0397688760223 0.994597209354536 -7.68279438651645 0.994597209354535 -7.68279438651655 0.0614231273318894 79.0325523919184 
! Gamma         0                0                0                0                
! Port Impedance         50               0                50               0                
8.9                            0.0620905213038374 78.9697923254425 0.994534844703235 -7.76853198538217 0.994534844703234 -7.76853198538227 0.0620904728232017 78.9624950824515 
! Gamma         0                0                0                0                
! Port Impedance         50               0                50               0                
9                              0.0627575374656028 78.8996241468819 0.994472213271796 -7.85425561286598 0.994472213271795 -7.85425561286607 0.0627574876190594 78.892246137225  
! Gamma         0                0                0                0                
! Port Impedance         50               0                50               0                
9.1                            0.0634242234205654 78.829267612187  0.994409311177488 -7.93996533775862 0.994409311177487 -7.93996533775871 0.0634241722234556 78.8218088254739 
! Gamma         0                0                0                0                
! Port Impedance         50               0                50               0                
9.2                            0.0640905795334703 78.7587259704597 0.994346134698966 -8.02566121894974 0.994346134698965 -8.02566121894983 0.0640905270003032 78.7511863939376 
! Gamma         0                0                0                0                
! Port Impedance         50               0                50               0                
9.3                            0.0647566060389443 78.6880024461037 0.994282680273462 -8.11134330611504 0.99428268027346 -8.11134330611512 0.0647565521832338 78.6803820648978 
! Gamma         0                0                0                0                
! Port Impedance         50               0                50               0                
9.4                            0.0654223030506263 78.6171002369392 0.994218944493779 -8.1970116403644 0.994218944493778 -8.19701164036448 0.0654222478847453 78.6093990342827 
! Gamma         0                0                0                0                
! Port Impedance         50               0                50               0                
9.5                            0.0660876705696832 78.546022512401  0.994154924105122 -8.28266625485299 0.994154924105121 -8.28266625485307 0.0660876141047338 78.5382404698559 
! Gamma         0                0                0                0                
! Port Impedance         50               0                50               0                
9.6                            0.0667527084927498 78.4747724118323 0.994090616001784 -8.36830717535702 0.994090616001783 -8.3683071753571 0.0667526507384483 78.4669095095004 
! Gamma         0                0                0                0                
! Port Impedance         50               0                50               0                
9.7                            0.067417416619327 78.4033530428834 0.994026017223735 -8.45393442081614 0.994026017223734 -8.45393442081621 0.0674173575839042 78.3954092596063 
! Gamma         0                0                0                0                
! Port Impedance         50               0                50               0                
9.8                            0.0680817946586716 78.331767480021  0.993961124953111 -8.5395480038439 0.99396112495311 -8.53954800384397 0.0680817343487874 78.3237427935707 
! Gamma         0                0                0                0                
! Port Impedance         50               0                50               0                
9.9                            0.068745842236211 78.2600187631515 0.993895936510649 -8.62514793120818 0.993895936510649 -8.62514793120825 0.0687457806568814 78.2519131504106 
! Gamma         0                0                0                0                
! Port Impedance         50               0                50               0                
10                             0.0694095588995101 78.1881098963614 0.993830449352066 -8.71073420428305 0.993830449352066 -8.71073420428311 0.0694094960540484 78.1799233334927 
! Gamma         0                0                0                0                
! Port Impedance         50               0                50               0                
10.1                           0.0700729441238217 78.1160438467737 0.993764661064412 -8.79630681947342 0.993764661064412 -8.79630681947348 0.0700728800137909 78.1077763093807 
! Gamma         0                0                0                0                
! Port Impedance         50               0                50               0                
10.2                           0.0707359973172448 78.0438235435211 0.993698569362408 -8.88186576861422 0.993698569362408 -8.88186576861428 0.0707359319424217 78.0354750067975 
! Gamma         0                0                0                0                
! Port Impedance         50               0                50               0                
10.3                           0.0713987178255178 77.971451876832  0.993632172084779 -8.96741103934527 0.993632172084779 -8.96741103934533 0.0713986511838685 77.9630223157024 
! Gamma         0                0                0                0                
! Port Impedance         50               0                50               0                
10.4                           0.0720611049364697 77.8989316972286 0.993565467190601 -9.05294261546313 0.993565467190601 -9.05294261546318 0.0720610370241348 77.8904210864795 
! Gamma         0                0                0                0                
! Port Impedance         50               0                50               0                
10.5                           0.0727231578841513 77.8262658148318 0.993498452755661 -9.13846047725136 0.993498452755661 -9.13846047725141 0.0727230886954412 77.8176741292331 
! Gamma         0                0                0                0                
! Port Impedance         50               0                50               0                
10.6                           0.0733848758526691 77.7534569987707 0.993431126968851 -9.22396460179022 0.993431126968851 -9.22396460179027 0.073384805380068 77.7447842131886 
! Gamma         0                0                0                0                
! Port Impedance         50               0                50               0                
10.7                           0.0740462579797397 77.6805079766909 0.993363488128595 -9.309454963247  0.993363488128594 -9.30945496324704 0.0740461862139187 77.6717540661918 
! Gamma         0                0                0                0                
! Port Impedance         50               0                50               0                
10.8                           0.0747073033599855 77.607421434358  0.993295534639319 -9.39493153314804 0.993295534639319 -9.39493153314808 0.0747072302898231 77.598586374304  
! Gamma         0                0                0                0                
! Port Impedance         50               0                50               0                
10.9                           0.0753680110479878 77.5342000153506 0.993227265007974 -9.48039428063351 0.993227265007974 -9.48039428063355 0.075367936660598 77.5252837814873 
! Gamma         0                0                0                0                
! Port Impedance         50               0                50               0                
11                             0.0760283800611146 77.4608463208392 0.993158677840605 -9.56584317269584 0.993158677840604 -9.56584317269589 0.0760283043418817 77.4518488893751 
! Gamma         0                0                0                0                
! Port Impedance         50               0                50               0                
11.1                           0.0766884093821378 77.3873629094451 0.993089771838983 -9.6512781744028 0.993089771838983 -9.65127817440283 0.076688332314758 77.3782842571238 
! Gamma         0                0                0                0                
! Port Impedance         50               0                50               0                
11.2                           0.0773480979616551 77.3137522971741 0.993020545797301 -9.73669924910597 0.993020545797301 -9.736699249106  0.0773480195281836 77.3045924013393 
! Gamma         0                0                0                0                
! Port Impedance         50               0                50               0                
11.3                           0.0780074447203305 77.2400169574213 0.992950998598929 -9.82210635863566 0.992950998598929 -9.82210635863569 0.0780073649012338 77.2307757960751 
! Gamma         0                0                0                0                
! Port Impedance         50               0                50               0                
11.4                           0.0786664485509644 77.1661593210415 0.992881129213235 -9.9074994634828 0.992881129213236 -9.90749946348283 0.0786663673251781 77.1568368728956 
! Gamma         0                0                0                0                
! Port Impedance         50               0                50               0                
11.5                           0.0793251083204073 77.0921817764805 0.992810936692484 -9.99287852296871 0.992810936692484 -9.99287852296874 0.0793250256653977 77.0827780210015 
! Gamma         0                0                0                0                
! Port Impedance         50               0                50               0                
11.6                           0.0799834228713269 77.0180866699624 0.992740420168793 -10.0782434954034 0.992740420168793 -10.0782434954034 0.0799833387631575 77.0086015874112 
! Gamma         0                0                0                0                
! Port Impedance         50               0                50               0                
11.7                           0.0806413910238402 76.9438763057301 0.992669578851175 -10.1635943382329 0.992669578851176 -10.1635943382329 0.0806413054372405 76.9343098771954 
! Gamma         0                0                0                0                
! Port Impedance         50               0                50               0                
11.8                           0.0812990115770187 76.8695529463329 0.992598412022637 -10.2489310081769 0.992598412022637 -10.2489310081769 0.0812989244854578 76.8599051537594 
! Gamma         0                0                0                0                
! Port Impedance         50               0                50               0                
11.9                           0.0819562833102777 76.7951188129579 0.992526919037363 -10.3342534613559 0.992526919037364 -10.334253461356 0.0819561946860396 76.7853896391696 
! Gamma         0                0                0                0                
! Port Impedance         50               0                50               0                
12                             0.082613204984657 76.720576085802  0.992455099317966 -10.4195616534106 0.992455099317966 -10.4195616534106 0.0826131147989188 76.7107655145202 
! Gamma         0                0                0                0                
! Port Impedance         50               0                50               0                
12.1                           0.0832697753440013 76.6459269044795 0.99238295235281 -10.5048555396112 0.99238295235281 -10.5048555396112 0.0832696835669138 76.636034920337  
! Gamma         0                0                0                0                
! Port Impedance         50               0                50               0                
12.2                           0.0839259931160479 76.5711733684631 0.992310477693409 -10.5901350749603 0.992310477693409 -10.5901350749603 0.0839258997168179 76.5611999570136 
! Gamma         0                0                0                0                
! Port Impedance         50               0                50               0                
12.3                           0.0845818570134286 76.4963175375542 0.992237674951895 -10.6754002142871 0.992237674951896 -10.6754002142871 0.0845817619604024 76.4862626852777 
! Gamma         0                0                0                0                
! Port Impedance         50               0                50               0                
12.4                           0.0852373657345921 76.4213614323795 0.99216454379856 -10.7606509123349 0.992164543798561 -10.760650912335 0.0852372689953407 76.4112251266843 
! Gamma         0                0                0                0                
! Port Impedance         50               0                50               0                
12.5                           0.0858925179646529 76.3463070349109 0.992091083959463 -10.8458871238423 0.992091083959464 -10.8458871238423 0.0858924195060582 76.3360892641319 
! Gamma         0                0                0                0                
! Port Impedance         50               0                50               0                
12.6                           0.0865473123761726 76.2711562890068 0.992017295214115 -10.9311088036174 0.992017295214116 -10.9311088036174 0.0865472121645139 76.2608570424001 
! Gamma         0                0                0                0                
! Port Impedance         50               0                50               0                
12.7                           0.0872017476298788 76.1959111009702 0.991943177393224 -11.0163159066066 0.991943177393225 -11.0163159066066 0.0872016456309201 76.1855303687054 
! Gamma         0                0                0                0                
! Port Impedance         50               0                50               0                
12.8                           0.0878558223753262 76.1205733401236 0.991868730376515 -11.1015083879577 0.991868730376516 -11.1015083879577 0.0878557185544036 76.1101111132729 
! Gamma         0                0                0                0                
! Port Impedance         50               0                50               0                
12.9                           0.0885095352515043 76.0451448393964 0.991793954090614 -11.1866862030781 0.991793954090615 -11.1866862030781 0.0885094295736138 76.034601109921  
! Gamma         0                0                0                0                
! Port Impedance         50               0                50               0                
13                             0.0891628848873974 75.9696273959242 0.991718848506994 -11.2718493076873 0.991718848506995 -11.2718493076873 0.0891627773172816 75.9590021566583 
! Gamma         0                0                0                0                
! Port Impedance         50               0                50               0                
13.1                           0.0898158699024977 75.8940227716566 0.991643413639991 -11.3569976578657 0.991643413639992 -11.3569976578658 0.0898157604047334 75.8833160162894 
! Gamma         0                0                0                0                
! Port Impedance         50               0                50               0                
13.2                           0.0904684889072791 75.8183326939726 0.991567649544881 -11.4421312100986 0.991567649544882 -11.4421312100987 0.0904683774463631 75.8075444170279 
! Gamma         0                0                0                0                
! Port Impedance         50               0                50               0                
13.3                           0.0911207405036319 75.7425588563022 0.991491556316012 -11.5272499213161 0.991491556316014 -11.5272499213162 0.0911206270440671 75.7316890531163 
! Gamma         0                0                0                0                
! Port Impedance         50               0                50               0                
13.4                           0.0917726232852628 75.6667029187511 0.99141513408501 -11.6123537489295 0.991415134085011 -11.6123537489296 0.0917725077916426 75.655751585449  
! Gamma         0                0                0                0                
! Port Impedance         50               0                50               0                
13.5                           0.0924241358380634 75.5907665087286 0.991338383019028 -11.6974426508639 0.991338383019029 -11.6974426508639 0.092424018275156 75.579733642199  
! Gamma         0                0                0                0                
! Port Impedance         50               0                50               0                
13.6                           0.0930752767404497 75.5147512215771 0.991261303319064 -11.7825165855872 0.991261303319066 -11.7825165855873 0.0930751570732801 75.5036368194449 
! Gamma         0                0                0                0                
! Port Impedance         50               0                50               0                
13.7                           0.0937260445636743 75.4386586212005 0.991183895218332 -11.8675755121369 0.991183895218334 -11.8675755121369 0.0937259227576058 75.4274626817995 
! Gamma         0                0                0                0                
! Port Impedance         50               0                50               0                
13.8                           0.0943764378721146 75.3624902406928 0.991106158980685 -11.9526193901426 0.991106158980686 -11.9526193901426 0.0943763138929292 75.351212763036  
! Gamma         0                0                0                0                
! Port Impedance         50               0                50               0                
13.9                           0.0950264552235391 75.2862475829632 0.991028094899092 -12.0376481798469 0.991028094899094 -12.0376481798469 0.0950263290375153 75.2748885667132 
! Gamma         0                0                0                0                
! Port Impedance         50               0                50               0                
14                             0.0956760951693532 75.2099321213594 0.990949703294174 -12.1226618421231 0.990949703294176 -12.1226618421231 0.0956759667433433 75.1984915667972 
! Gamma         0                0                0                0                
! Port Impedance         50               0                50               0                
14.1                           0.0963253562548267 75.1335453002861 0.990870984512778 -12.2076603384906 0.99087098451278 -12.2076603384906 0.0963252255563317 75.1220232082791 
! Gamma         0                0                0                0                
! Port Impedance         50               0                50               0                
14.2                           0.0969742370193045 75.0570885358184 0.99079193892661 -12.2926436311282 0.990791938926612 -12.2926436311282 0.0969741040165478 75.0454849077887 
! Gamma         0                0                0                0                
! Port Impedance         50               0                50               0                
14.3                           0.0976227359964028 74.9805632163112 0.990712566930916 -12.377611682885 0.990712566930917 -12.377611682885 0.0976226006584015 74.968878054202  
! Gamma         0                0                0                0                
! Port Impedance         50               0                50               0                
14.4                           0.0982708517141908 74.9039707030008 0.9906328689432  -12.4625644572896 0.990632868943202 -12.4625644572896 0.0982707140108255 74.8922040092434 
! Gamma         0                0                0                0                
! Port Impedance         50               0                50               0                
14.5                           0.0989185826953608 74.8273123306005 0.990552845402003 -12.5475019185573 0.990552845402005 -12.5475019185574 0.0989184425974435 74.815464108081  
! Gamma         0                0                0                0                
! Port Impedance         50               0                50               0                
14.6                           0.0995659274573869 74.7505894078897 0.990472496765707 -12.6324240315958 0.990472496765709 -12.6324240315958 0.0995657849367265 74.7386596599146 
! Gamma         0                0                0                0                
! Port Impedance         50               0                50               0                
14.7                           0.100212884512674 74.6738032182941 0.990391823511401 -12.7173307620087 0.990391823511403 -12.7173307620087 0.10021273954214 74.6617919485562 
! Gamma         0                0                0                0                
! Port Impedance         50               0                50               0                
14.8                           0.100859452368697 74.5969550204584 0.990310826133772 -12.8022220760982 0.990310826133774 -12.8022220760982 0.100859304922281 74.5848622330032 
! Gamma         0                0                0                0                
! Port Impedance         50               0                50               0                
14.9                           0.101505629528133 74.5200460488112 0.990229505144051 -12.887097940866 0.990229505144053 -12.8870979408661 0.10150547958101 74.5078717480018 
! Gamma         0                0                0                0                
! Port Impedance         50               0                50               0                
15                             0.102151414488988 74.4430775141197 0.990147861068985 -12.9719583240134 0.990147861068987 -12.9719583240134 0.102151262017571 74.4308217046037 
! Gamma         0                0                0                0                
! Port Impedance         50               0                50               0                
15.1                           0.102796805744712 74.3660506040372 0.990065894449855 -13.0568031939391 0.990065894449858 -13.0568031939392 0.102796650726708 74.3537132907118 
! Gamma         0                0                0                0                
! Port Impedance         50               0                50               0                
15.2                           0.103441801784314 74.28896648364   0.989983605841532 -13.1416325197373 0.989983605841534 -13.1416325197374 0.103441644198778 74.2765476716187 
! Gamma         0                0                0                0                
! Port Impedance         50               0                50               0                
15.3                           0.104086401092471 74.2118262959557 0.989900995811561 -13.2264462711937 0.989900995811563 -13.2264462711937 0.104086240919856 74.1993259905341 
! Gamma         0                0                0                0                
! Port Impedance         50               0                50               0                
15.4                           0.104730602149628 74.1346311624816 0.989818064939286 -13.311244418781 0.989818064939288 -13.311244418781 0.104730439371835 74.1220493691045 
! Gamma         0                0                0                0                
! Port Impedance         50               0                50               0                
15.5                           0.105374403432104 74.0573821836933 0.98973481381501 -13.3960269336534 0.989734813815012 -13.3960269336534 0.105374238032525 74.0447189079214 
! Gamma         0                0                0                0                
! Port Impedance         50               0                50               0                
15.6                           0.106017803412183 73.9800804395445 0.989651243039181 -13.4807937876403 0.989651243039183 -13.4807937876404 0.10601763537575 73.9673356870217 
! Gamma         0                0                0                0                
! Port Impedance         50               0                50               0                
15.7                           0.10666080055821 73.9027269899555 0.989567353221615 -13.5655449532396 0.989567353221617 -13.5655449532396 0.106660629871434 73.8899007663767 
! Gamma         0                0                0                0                
! Port Impedance         50               0                50               0                
15.8                           0.107303393334685 73.8253228752934 0.989483144980749 -13.6502804036093 0.989483144980751 -13.6502804036093 0.107303219985697 73.8124151863723 
! Gamma         0                0                0                0                
! Port Impedance         50               0                50               0                
15.9                           0.10794558020235 73.747869116841  0.989398618942919 -13.7350001125598 0.989398618942922 -13.7350001125599 0.107945404180937 73.7348799682789 
! Gamma         0                0                0                0                
! Port Impedance         50               0                50               0                
16                             0.108587359618278 73.670366717257  0.989313775741676 -13.8197040545446 0.989313775741678 -13.8197040545446 0.10858718091592 73.657296114712  
! Gamma         0                0                0                0                
! Port Impedance         50               0                50               0                
16.1                           0.109228730035958 73.5928166610257 0.98922861601712 -13.9043922046509 0.989228616017122 -13.9043922046509 0.109228548645862 73.579664610082  
! Gamma         0                0                0                0                
! Port Impedance         50               0                50               0                
16.2                           0.109869689905385 73.5152199148971 0.989143140415265 -13.9890645385896 0.989143140415268 -13.9890645385897 0.109869505822513 73.5019864210352 
! Gamma         0                0                0                0                
! Port Impedance         50               0                50               0                
16.3                           0.110510237673138 73.4375774283172 0.989057349587436 -14.0737210326852 0.989057349587438 -14.0737210326853 0.110510050894241 73.4242624968848 
! Gamma         0                0                0                0                
! Port Impedance         50               0                50               0                
16.4                           0.111150371782472 73.3598901338486 0.988971244189678 -14.1583616638647 0.98897124418968 -14.1583616638647 0.111150182306113 73.3464937700318 
! Gamma         0                0                0                0                
! Port Impedance         50               0                50               0                
16.5                           0.111790090673395 73.2821589475818 0.988884824882201 -14.2429864096465 0.988884824882204 -14.2429864096465 0.111789898499974 73.2686811563768 
! Gamma         0                0                0                0                
! Port Impedance         50               0                50               0                
16.6                           0.112429392782755 73.2043847695364 0.988798092328848 -14.3275952481291 0.988798092328851 -14.3275952481292 0.112429197914535 73.1908255557222 
! Gamma         0                0                0                0                
! Port Impedance         50               0                50               0                
16.7                           0.113068276544322 73.1265684840533 0.988711047196576 -14.4121881579796 0.988711047196578 -14.4121881579796 0.113068078985447 73.1129278521649 
! Gamma         0                0                0                0                
! Port Impedance         50               0                50               0                
16.8                           0.113706740388872 73.0487109601777 0.988623690154971 -14.496765118421 0.988623690154973 -14.496765118421 0.113706540145387 73.0349889144797 
! Gamma         0                0                0                0                
! Port Impedance         50               0                50               0                
16.9                           0.114344782744271 72.9708130520326 0.988536021875777 -14.5813261092207 0.988536021875779 -14.5813261092208 0.114344579824139 72.9570095964938 
! Gamma         0                0                0                0                
! Port Impedance         50               0                50               0                
17                             0.114982402035556 72.8928755991835 0.988448043032449 -14.6658711106781 0.988448043032451 -14.6658711106782 0.114982196448673 72.878990737452  
! Gamma         0                0                0                0                
! Port Impedance         50               0                50               0                
17.1                           0.115619596685024 72.8148994269939 0.988359754299724 -14.7504001036116 0.988359754299727 -14.7504001036117 0.115619388443231 72.8009331623728 
! Gamma         0                0                0                0                
! Port Impedance         50               0                50               0                
17.2                           0.11625636511231 72.7368853469725 0.988271156353217 -14.8349130693464 0.988271156353219 -14.8349130693464 0.116256154229405 72.7228376823962 
! Gamma         0                0                0                0                
! Port Impedance         50               0                50               0                
17.3                           0.116892705734477 72.6588341571111 0.988182249869023 -14.9194099897013 0.988182249869025 -14.9194099897014 0.116892492226225 72.6447050951228 
! Gamma         0                0                0                0                
! Port Impedance         50               0                50               0                
17.4                           0.117528616966098 72.5807466422146 0.988093035523354 -15.0038908469765 0.988093035523356 -15.0038908469766 0.117528400850237 72.5665361849439 
! Gamma         0                0                0                0                
! Port Impedance         50               0                50               0                
17.5                           0.118164097219343 72.5026235742226 0.988003513992179 -15.0883556239401 0.988003513992181 -15.0883556239401 0.118163878515593 72.4883317233637 
! Gamma         0                0                0                0                
! Port Impedance         50               0                50               0                
17.6                           0.118799144904067 72.4244657125221 0.98791368595089 -15.1728043038152 0.987913685950892 -15.1728043038152 0.118798923634129 72.4100924693135 
! Gamma         0                0                0                0                
! Port Impedance         50               0                50               0                
17.7                           0.119433758427891 72.3462738042533 0.987823552073981 -15.2572368702672 0.987823552073983 -15.2572368702673 0.119433534615455 72.3318191694572 
! Gamma         0                0                0                0                
! Port Impedance         50               0                50               0                
17.8                           0.120067936196298 72.2680485846065 0.987733113034741 -15.3416533073908 0.987733113034743 -15.3416533073909 0.120067709867039 72.2535125584895 
! Gamma         0                0                0                0                
! Port Impedance         50               0                50               0                
17.9                           0.120701676612711 72.189790777112  0.987642369504967 -15.4260535996967 0.987642369504968 -15.4260535996967 0.120701447794292 72.1751733594263 
! Gamma         0                0                0                0                
! Port Impedance         50               0                50               0                
18                             0.121334978078589 72.1115010939221 0.987551322154686 -15.5104377320987 0.987551322154688 -15.5104377320988 0.121334746800658 72.0968022838871 
! Gamma         0                0                0                0                
! Port Impedance         50               0                50               0                
18.1                           0.121967838993513 72.0331802360856 0.987459971651898 -15.5948056899013 0.9874599716519  -15.5948056899013 0.121967605287696 72.0184000323705 
! Gamma         0                0                0                0                
! Port Impedance         50               0                50               0                
18.2                           0.122600257755276 71.9548288938151 0.987368318662326 -15.679157458786 0.987368318662328 -15.679157458786 0.122600021655174 71.9399672945225 
! Gamma         0                0                0                0                
! Port Impedance         50               0                50               0                
18.3                           0.123232232759972 71.8764477467479 0.987276363849183 -15.7634930247993 0.987276363849184 -15.7634930247993 0.123231994301154 71.8615047493969 
! Gamma         0                0                0                0                
! Port Impedance         50               0                50               0                
18.4                           0.123863762402086 71.7980374641987 0.987184107872951 -15.8478123743394 0.987184107872953 -15.8478123743394 0.12386352162208 71.7830130657098 
! Gamma         0                0                0                0                
! Port Impedance         50               0                50               0                
18.5                           0.124494845074587 71.7195987054066 0.987091551391175 -15.9321154941438 0.987091551391177 -15.9321154941439 0.124494602012872 71.7044929020869 
! Gamma         0                0                0                0                
! Port Impedance         50               0                50               0                
18.6                           0.125125479169018 71.6411321197752 0.986998695058262 -16.0164023712769 0.986998695058263 -16.0164023712769 0.125125233867011 71.6259449073035 
! Gamma         0                0                0                0                
! Port Impedance         50               0                50               0                
18.7                           0.125755663075587 71.5626383471057 0.986905539525298 -16.1006729931171 0.986905539525299 -16.1006729931171 0.125755415576632 71.5473697205196 
! Gamma         0                0                0                0                
! Port Impedance         50               0                50               0                
18.8                           0.12638539518326 71.4841180178247 0.986812085439875 -16.184927347345 0.986812085439875 -16.184927347345 0.126385145532613 71.4687679715071 
! Gamma         0                0                0                0                
! Port Impedance         50               0                50               0                
18.9                           0.127014673879853 71.405571753205  0.986718333445924 -16.2691654219308 0.986718333445925 -16.2691654219309 0.127014422124669 71.3901402808717 
! Gamma         0                0                0                0                
! Port Impedance         50               0                50               0                
19                             0.127643497552126 71.3270001655806 0.986624284183568 -16.3533872051226 0.986624284183568 -16.3533872051227 0.12764324374144 71.3114872602687 
! Gamma         0                0                0                0                
! Port Impedance         50               0                50               0                
19.1                           0.128271864585873 71.2484038585564 0.986529938288971 -16.4375926854342 0.986529938288972 -16.4375926854342 0.128271608770585 71.2328095126125 
! Gamma         0                0                0                0                
! Port Impedance         50               0                50               0                
19.2                           0.128899773366016 71.169783427211  0.986435296394211 -16.5217818516331 0.986435296394212 -16.5217818516331 0.128899515598875 71.1541076322812 
! Gamma         0                0                0                0                
! Port Impedance         50               0                50               0                
19.3                           0.129527222276702 71.0911394582954 0.986340359127153 -16.6059546927295 0.986340359127154 -16.6059546927295 0.12952696261228 71.0753822053147 
! Gamma         0                0                0                0                
! Port Impedance         50               0                50               0                
19.4                           0.13015420970139 71.0124725304253 0.986245127111333 -16.6901111979642 0.986245127111333 -16.6901111979643 0.130153948196069 70.996633809608  
! Gamma         0                0                0                0                
! Port Impedance         50               0                50               0                
19.5                           0.130780734022951 70.933783214268  0.98614960096585 -16.7742513567976 0.98614960096585 -16.7742513567976 0.130780470734895 70.917863015099  
! Gamma         0                0                0                0                
! Port Impedance         50               0                50               0                
19.6                           0.131406793623756 70.8550720727253 0.98605378130527 -16.8583751588983 0.98605378130527 -16.8583751588983 0.131406528612894 70.8390703839512 
! Gamma         0                0                0                0                
! Port Impedance         50               0                50               0                
19.7                           0.132032386885774 70.7763396611097 0.985957668739534 -16.9424825941323 0.985957668739534 -16.9424825941323 0.132032120213772 70.7602564707311 
! Gamma         0                0                0                0                
! Port Impedance         50               0                50               0                
19.8                           0.132657512190664 70.6975865273174 0.985861263873873 -17.026573652552 0.985861263873873 -17.026573652552 0.132657243920902 70.6814218225815 
! Gamma         0                0                0                0                
! Port Impedance         50               0                50               0                
19.9                           0.133282167919867 70.6188132119955 0.985764567308735 -17.1106483243857 0.985764567308735 -17.1106483243857 0.133281898117416 70.6025669793887 
! Gamma         0                0                0                0                
! Port Impedance         50               0                50               0                
20                             0.133906352454702 70.5400202487047 0.985667579639714 -17.194706600027 0.985667579639714 -17.194706600027 0.133906081186296 70.5236924739466 
! Gamma         0                0                0                0                
! Port Impedance         50               0                50               0                
