! Touchstone file exported from HFSS 2026.1.0
!        File:           C:/ffzhzh/LocalFiles/Ansys_Project_Files/temp_train_BSMRDL_130_1782986200_41620.aedt
!        Generated:      05:57:53 PM Jul  2, 2026
!        Design:         BSMRDL
!        Project:        temp_train_BSMRDL_130_1782986200_41620
!
! Variables:
!        h_bsmrdl = 3.32um
!        h_ox = 20um
!        h_rdl = 5um
!        h_sub = 80um
!        h_tmrdl = 5um
!        h_tsv = 80um
!        h_via = 3um
!        l_bsmrdl = 603.23um
!        l_sub = 1003.23um
!        l_tmrdl = 200um
!        m_sub = 200um
!        pitch = 30.68um
!        r_tsv = 6um
!        s_tmrdl = 10um
!        w_bsmrdl = 29.2um
!        w_sub = 500um
!        w_tmrdl = 12um
!        x_tsv_center1 = 206um
!        x_tsv_center2 = 838.43um
!        x_tsv_center3 = 1050.43um
!        x_tsv_center4 = 1682.86um
!        x_tsv_center5 = 1894.86um
!        x_tsv_center6 = 2527.29um
!
# GHz S MA R 50.000000
! Terminal data exported
! Port[1] = BSM_RDL1_1_T1
! Port[2] = BSM_RDL1_1_T2
0.1                            0.00262237459729047 -7.72678299865794 0.997399894094677 -0.246168694606383 0.997399894094676 -0.246168694606379 0.00262232870158006 -7.7253823422457 
! Gamma         0                0                0                0                
! Port Impedance         50               0                50               0                
0.2                            0.00315151361112573 -16.1609134163735 0.996965422032123 -0.482665051269032 0.996965422032122 -0.482665051269021 0.00315135669352532 -16.1590573388018 
! Gamma         0                0                0                0                
! Port Impedance         50               0                50               0                
0.3                            0.00393448464944269 -24.7388906649862 0.996405380573512 -0.705381143662178 0.996405380573511 -0.705381143662158 0.00393415006428683 -24.7375663415625 
! Gamma         0                0                0                0                
! Port Impedance         50               0                50               0                
0.4                            0.00488478859785129 -32.642980464407 0.995841913617409 -0.915739482759112 0.995841913617408 -0.915739482759083 0.00488422707172961 -32.6427613304889 
! Gamma         0                0                0                0                
! Port Impedance         50               0                50               0                
0.5                            0.00593750681742119 -39.5018350201383 0.995338952848139 -1.11740559706454 0.995338952848138 -1.11740559706451 0.0059366873470335 -39.5029564100486 
! Gamma         0                0                0                0                
! Port Impedance         50               0                50               0                
0.6                            0.0070506133219871 -45.2962749212133 0.994914524118322 -1.3138275346874 0.994914524118321 -1.31382753468737 0.0070495183373371 -45.2987986821903 
! Gamma         0                0                0                0                
! Port Impedance         50               0                50               0                
0.7                            0.00819890553137167 -50.1534897337234 0.994563585074241 -1.50744276456147 0.99456358507424 -1.50744276456143 0.00819752566695336 -50.1574060745765 
! Gamma         0                0                0                0                
! Port Impedance         50               0                50               0                
0.8                            0.0093677798863213 -54.2329021928501 0.994273301989777 -1.69975314803111 0.994273301989776 -1.69975314803108 0.00936611024192154 -54.2381770233227 
! Gamma         0                0                0                0                
! Port Impedance         50               0                50               0                
0.9                            0.0105488595354488 -57.6816320067134 0.994030208610698 -1.89161230879889 0.994030208610698 -1.89161230879886 0.010546897398927 -57.6882262913068 
! Gamma         0                0                0                0                
! Port Impedance         50               0                50               0                
1                              0.0117373286288851 -60.6222655548952 0.993822732311777 -2.08347571096957 0.993822732311777 -2.08347571096954 0.0117350721934153 -60.630142422206 
! Gamma         0                0                0                0                
! Port Impedance         50               0                50               0                
1.1                            0.0129303994098656 -63.1528618674443 0.993641680333953 -2.27556855618878 0.993641680333953 -2.27556855618876 0.0129278470837153 -63.1619887326025 
! Gamma         0                0                0                0                
! Port Impedance         50               0                50               0                
1.2                            0.0141264477917009 -65.3506642484802 0.993479996288159 -2.46798757205782 0.993479996288159 -2.4679875720578 0.0141235978408412 -65.3610130216092 
! Gamma         0                0                0                0                
! Port Impedance         50               0                50               0                
1.3                            0.0153245258640499 -67.2763198778923 0.993332337940311 -2.66075988949554 0.993332337940311 -2.66075988949554 0.0153213762364261 -67.2878665122062 
! Gamma         0                0                0                0                
! Port Impedance         50               0                50               0                
1.4                            0.016524084211632 -68.9775796012272 0.993194674750826 -2.8538763051728 0.993194674750826 -2.8538763051728 0.0165206324589504 -68.9903034761641 
! Gamma         0                0                0                0                
! Port Impedance         50               0                50               0                
1.5                            0.0177248114057896 -70.4922632565098 0.993063959886722 -3.04730980543869 0.993063959886722 -3.04730980543869 0.0177210546568855 -70.5061465804086 
! Gamma         0                0                0                0                
! Port Impedance         50               0                50               0                
1.6                            0.0189265396830326 -71.8505485514386 0.992937879322289 -3.24102574558183 0.992937879322289 -3.24102574558184 0.0189224746439587 -71.8655758427086 
! Gamma         0                0                0                0                
! Port Impedance         50               0                50               0                
1.7                            0.0201291885855942 -73.0767106377429 0.992814665196418 -3.43498733749078 0.992814665196418 -3.43498733749079 0.0201248115530408 -73.0928682944359 
! Gamma         0                0                0                0                
! Port Impedance         50               0                50               0                
1.8                            0.0213327307444065 -74.190438136306 0.992692958523801 -3.62915851023218 0.992692958523801 -3.62915851023219 0.0213280376252937 -74.2077140864007 
! Gamma         0                0                0                0                
! Port Impedance         50               0                50               0                
1.9                            0.0225371707992269 -75.2078299102436 0.992571708459032 -3.82350530721959 0.992571708459032 -3.8235053072196 0.0225321571326883 -75.2262133300469 
! Gamma         0                0                0                0                
! Port Impedance         50               0                50               0                
2                              0.0237425322430467 -76.1421533242648 0.992450098202177 -4.01799647634892 0.992450098202176 -4.01799647634894 0.0237371932228602 -76.1616344122991 
! Gamma         0                0                0                0                
! Port Impedance         50               0                50               0                
2.1                            0.0249488491217201 -77.0044245887182 0.992327490214217 -4.21260362373174 0.992327490214217 -4.21260362373176 0.0249431796182313 -77.0249943840717 
! Gamma         0                0                0                0                
! Port Impedance         50               0                50               0                
2.2                            0.0261561607518982 -77.8038560586955 0.992203385432005 -4.40730114014071 0.992203385432004 -4.40730114014074 0.0261501553330177 -77.8255062947592 
! Gamma         0                0                0                0                
! Port Impedance         50               0                50               0                
2.3                            0.0273645083404652 -78.548203562481 0.992077392669535 -4.60206601758029 0.992077392669535 -4.60206601758031 0.0273581612915982 -78.5709265488048 
! Gamma         0                0                0                0                
! Port Impedance         50               0                50               0                
2.4                            0.028573932816446 -79.2440381507495 0.991949205472516 -4.79687762113682 0.991949205472516 -4.79687762113685 0.0285672381593542 -79.2678266772747 
! Gamma         0                0                0                0                
! Port Impedance         50               0                50               0                
2.5                            0.0297844734444597 -79.8969603159092 0.991818584463278 -4.99171745142976 0.991818584463278 -4.99171745142979 0.0297774249551226 -79.9218075750626 
! Gamma         0                0                0                0                
! Port Impedance         50               0                50               0                
2.6                            0.0309961669468389 -80.511770106422 0.991685343759931 -5.18656891598292 0.99168534375993 -5.18656891598296 0.0309887581724046 -80.5376696295259 
! Gamma         0                0                0                0                
! Port Impedance         50               0                50               0                
2.7                            0.0322090469596458 -81.0926031823215 0.991549340442152 -5.3814171182107 0.991549340442151 -5.38141711821073 0.0322012712345686 -81.1195487875303 
! Gamma         0                0                0                0                
! Port Impedance         50               0                50               0                
2.8                            0.033423143709506 -81.6430403798572 0.991410466313002 -5.57624866734618 0.991410466313002 -5.57624866734622 0.0334149941709589 -81.6710261294198 
! Gamma         0                0                0                0                
! Port Impedance         50               0                50               0                
2.9                            0.0346384838374203 -82.166196525669 0.991268641404543 -5.7710515097275 0.991268641404543 -5.77105150972754 0.0346299534400633 -82.1952166907711 
! Gamma         0                0                0                0                
! Port Impedance         50               0                50               0                
3                              0.0358550903209486 -82.6647928850775 0.991123808818062 -5.96581478036062 0.991123808818062 -5.96581478036066 0.0358461718511182 -82.6948419168736 
! Gamma         0                0                0                0                
! Port Impedance         50               0                50               0                
3.1                            0.0370729824625319 -83.1412166167095 0.990975930593458 -6.16052867298403 0.990975930593458 -6.16052867298406 0.0370636685519087 -83.1722891224311 
! Gamma         0                0                0                0                
! Port Impedance         50               0                50               0                
3.2                            0.0382921759224442 -83.5975698447178 0.99082498437813 -6.35518432661824 0.990824984378129 -6.35518432661827 0.0382824590612428 -83.6296605679626 
! Gamma         0                0                0                0                
! Port Impedance         50               0                50               0                
3.3                            0.039512682781934 -84.0357103840312 0.990670960721452 -6.54977372658413 0.990670960721452 -6.54977372658417 0.0395025553316512 -84.0688141885059 
! Gamma         0                0                0                0                
! Port Impedance         50               0                50               0                
3.4                            0.0407345116268091 -84.4572857154303 0.99051386086225 -6.74428961809939 0.990513860862249 -6.74428961809943 0.0407239658325588 -84.4913975715583 
! Gamma         0                0                0                0                
! Port Impedance         50               0                50               0                
3.5                            0.0419576676448503 -84.8637614709233 0.990353694907448 -6.93872543074283 0.990353694907447 -6.93872543074287 0.0419466956473053 -84.8988764448341 
! Gamma         0                0                0                0                
! Port Impedance         50               0                50               0                
3.6                            0.0431821527325376 -85.2564454303702 0.990190480323262 -7.13307521227437 0.990190480323261 -7.1330752122744 0.0431707465794957 -85.2925586748727 
! Gamma         0                0                0                0                
! Port Impedance         50               0                50               0                
3.7                            0.0444079656079816 -85.6365078287922 0.990024240677739 -7.32733357049233 0.990024240677738 -7.32733357049236 0.0443961172655661 -85.6736145760055 
! Gamma         0                0                0                0                
! Port Impedance         50               0                50               0                
3.8                            0.0456351019279037 -86.0049986163967 0.989855004586792 -7.52149562199031 0.989855004586791 -7.52149562199034 0.0456228032914085 -86.0430941717652 
! Gamma         0                0                0                0                
! Port Impedance         50               0                50               0                
3.9                            0.0468635544071496 -86.3628621896732 0.989682804826047 -7.71555694683769 0.989682804826046 -7.71555694683772 0.0468507973115327 -86.4019419271394 
! Gamma         0                0                0                0                
! Port Impedance         50               0                50               0                
4                              0.0480933129396499 -86.710950014201 0.989507677578669 -7.90951354835035 0.989507677578669 -7.90951354835039 0.0480800891696806 -86.7510093723476 
! Gamma         0                0                0                0                
! Port Impedance         50               0                50               0                
4.1                            0.0493243647200368 -87.0500314821841 0.989329661795407 -8.10336181724189 0.989329661795406 -8.10336181724192 0.0493106660200979 -87.0910659611844 
! Gamma         0                0                0                0                
! Port Impedance         50               0                50               0                
4.2                            0.0505566943653188 -87.3808032857447 0.989148798647824 -8.29709849955182 0.989148798647823 -8.29709849955185 0.0505425124488658 -87.4228084449878 
! Gamma         0                0                0                0                
! Port Impedance         50               0                50               0                
4.3                            0.051790284036151 -87.7038975372568 0.988965131059408 -8.49072066783817 0.988965131059407 -8.4907206678382 0.051775610594828 -87.7468689935354 
! Gamma         0                0                0                0                
! Port Impedance         50               0                50               0                
4.4                            0.0530251135573268 -88.0198888278906 0.988778703302127 -8.68422569519925 0.988778703302126 -8.68422569519927 0.0530099402697402 -88.0638222540527 
! Gamma         0                0                0                0                
! Port Impedance         50               0                50               0                
4.5                            0.0542611605371788 -88.3293003830302 0.98858956064835 -8.87761123175454 0.988589560648349 -8.87761123175456 0.0542454790773291 -88.3741915070162 
! Gamma         0                0                0                0                
! Port Impedance         50               0                50               0                
4.6                            0.0554984004856221 -88.6326094467854 0.988397749069847 -9.07087518327084 0.988397749069846 -9.07087518327086 0.0554822025309932 -88.6784540509781 
! Gamma         0                0                0                0                
! Port Impedance         50               0                50               0                
4.7                            0.0567368069305999 -88.9302520061943 0.988203314977071 -9.26401569166595 0.98820331497707 -9.26401569166597 0.0567200841699079 -88.9770459270255 
! Gamma         0                0                0                0                
! Port Impedance         50               0                50               0                
4.8                            0.0579763515327205 -89.2226269479802 0.988006304993073 -9.45703111716265 0.988006304993071 -9.45703111716267 0.0579590956733209 -89.2703660757413 
! Gamma         0                0                0                0                
! Port Impedance         50               0                50               0                
4.9                            0.0592170041978874 -89.510099726104 0.987806765757372 -9.64992002189856 0.987806765757371 -9.64992002189857 0.0591992069728443 -89.5587800049191 
! Gamma         0                0                0                0                
! Port Impedance         50               0                50               0                
5                              0.0604587331877467 -89.7930056062672 0.98760474375585 -9.84268115482634 0.987604743755849 -9.84268115482636 0.060440386362564 -89.8426230341905 
! Gamma         0                0                0                0                
! Port Impedance         50               0                50               0                
5.1                            0.0617015052277853 -90.0716525434817 0.987400285173354 -10.0353134377624 0.987400285173353 -10.0353134377624 0.0616826006068031 -90.1222031726899 
! Gamma         0                0                0                0                
! Port Impedance         50               0                50               0                
5.2                            0.0629452856129308 -90.3463237404645 0.987193435766227 -10.2278159524623 0.987193435766226 -10.2278159524623 0.0629258150453903 -90.3978036775156 
! Gamma         0                0                0                0                
! Port Impedance         50               0                50               0                
5.3                            0.0641900383105164 -90.6172799276213 0.986984240752362 -10.420187928619 0.986984240752361 -10.420187928619 0.064169993696296 -90.6696853337589 
! Gamma         0                0                0                0                
! Port Impedance         50               0                50               0                
5.4                            0.0654357260604888 -90.8847613995257 0.986772744716764 -10.6124287326929 0.986772744716763 -10.6124287326929 0.0654150993555161 -90.9380884910081 
! Gamma         0                0                0                0                
! Port Impedance         50               0                50               0                
5.5                            0.0666823104727486 -91.1489898378614 0.986558991530825 -10.8045378574975 0.986558991530824 -10.8045378574975 0.0666610936940929 -91.2032348863013 
! Gamma         0                0                0                0                
! Port Impedance         50               0                50               0                
5.6                            0.0679297521215299 -91.410169946639 0.986343024283825 -10.9965149124719 0.986343024283824 -10.9965149124719 0.06790793735218 -91.4653292793379 
! Gamma         0                0                0                0                
! Port Impedance         50               0                50               0                
5.7                            0.0691780106367365 -91.6684909219655 0.986124885225309 -11.188359614582 0.986124885225308 -11.188359614582 0.0691555900300703 -91.724560922234 
! Gamma         0                0                0                0                
! Port Impedance         50               0                50               0                
5.8                            0.0704270447921685 -91.9241277756615 0.985904615717175 -11.3800717798006 0.985904615717174 -11.3800717798006 0.0704040105761199 -91.9811048831145 
! Gamma         0                0                0                0                
! Port Impedance         50               0                50               0                
5.9                            0.0716768125905842 -92.1772425294662 0.98568225619447 -11.5716513151192 0.985682256194469 -11.5716513151192 0.0716531570715144 -92.2351232402857 
! Gamma         0                0                0                0                
! Port Impedance         50               0                50               0                
6                              0.0729272713455579 -92.4279852943995 0.985457846133955 -11.7630982110546 0.985457846133954 -11.7630982110546 0.0729029869118378 -92.4867661615598 
! Gamma         0                0                0                0                
! Port Impedance         50               0                50               0                
6.1                            0.0741783777601044 -92.676495247988 0.985231424029664 -11.9544125346137 0.985231424029663 -11.9544125346137 0.0741534568854163 -92.7361728814376 
! Gamma         0                0                0                0                
! Port Impedance         50               0                50               0                
6.2                            0.0754300880020571 -92.9229015204653 0.985003027374709 -12.1455944226867 0.985003027374708 -12.1455944226867 0.0754045232484226 -92.9834725872616 
! Gamma         0                0                0                0                
! Port Impedance         50               0                50               0                
6.3                            0.0766823577761944 -93.1673239996806 0.984772692648708 -12.3366440758404 0.984772692648707 -12.3366440758404 0.0766561417967369 -93.2287852240759 
! Gamma         0                0                0                0                
! Port Impedance         50               0                50               0                
6.4                            0.0779351423931231 -93.4098740632672 0.984540455310233 -12.5275617524869 0.984540455310232 -12.5275617524869 0.0779082679345739 -93.4722222267431 
! Gamma         0                0                0                0                
! Port Impedance         50               0                50               0                
6.5                            0.0791883968349375 -93.6506552455983 0.984306349793765 -12.7183477634058 0.984306349793764 -12.7183477634058 0.0791608567398928 -93.7138871868473 
! Gamma         0                0                0                0                
! Port Impedance         50               0                50               0                
6.6                            0.0804420758176823 -93.889763846168 0.984070409510678 -12.9090024665986 0.984070409510678 -12.9090024665986 0.080413863026621 -93.9538764610225 
! Gamma         0                0                0                0                
! Port Impedance         50               0                50               0                
6.7                            0.0816961338506568 -94.1272894852668 0.983832666853809 -13.0995262624578 0.983832666853808 -13.0995262624578 0.0816672414037273 -94.1922797265752 
! Gamma         0                0                0                0                
! Port Impedance         50               0                50               0                
6.8                            0.0829505252926061 -94.3633156121514 0.983593153205227 -13.2899195892327 0.983593153205226 -13.2899195892327 0.082920946331191 -94.4291804896014 
! Gamma         0                0                0                0                
! Port Impedance         50               0                50               0                
6.9                            0.0842052044048533 -94.5979199703212 0.983351898946843 -13.4801829187766 0.983351898946842 -13.4801829187766 0.0841749321729214 -94.6646565502117 
! Gamma         0                0                0                0                
! Port Impedance         50               0                50               0                
7                              0.0854601254014329 -94.8311750240059 0.983108933473528 -13.6703167525609 0.983108933473527 -13.6703167525608 0.0854291532466874 -94.8987804289687 
! Gamma         0                0                0                0                
! Port Impedance         50               0                50               0                
7.1                            0.086715242496291 -95.0631483495191 0.982864285208427 -13.8603216179417 0.982864285208426 -13.8603216179416 0.0866835638711227 -95.1316197581914 
! Gamma         0                0                0                0                
! Port Impedance         50               0                50               0                
7.2                            0.0879705099476258 -95.2939029947423 0.98261798162022 -14.0501980646674 0.982617981620219 -14.0501980646674 0.0879381184098803 -95.363237641392 
! Gamma         0                0                0                0                
! Port Impedance         50               0                50               0                
7.3                            0.0892258820994432 -95.5234978096564 0.982370049242045 -14.2399466616141 0.982370049242045 -14.2399466616141 0.0891927713130118 -95.5936929837623 
! Gamma         0                0                0                0                
! Port Impedance         50               0                50               0                
7.4                            0.0904813134204092 -95.7519877505358 0.98212051369188 -14.4295679937376 0.982120513691879 -14.4295679937376 0.090447477155651 -95.8230407963245 
! Gamma         0                0                0                0                
! Port Impedance         50               0                50               0                
7.5                            0.0917367585400821 -95.9794241601512 0.981869399694144 -14.6190626592322 0.981869399694143 -14.6190626592321 0.0917021906740868 -96.0513324760926 
! Gamma         0                0                0                0                
! Port Impedance         50               0                50               0                
7.6                            0.0929921722826109 -96.2058550260886 0.981616731102352 -14.8084312668848 0.981616731102351 -14.8084312668848 0.0929568667993119 -96.2786160643526 
! Gamma         0                0                0                0                
! Port Impedance         50               0                50               0                
7.7                            0.0942475096979899 -96.4313252190856 0.98136253092262 -14.9976744336158 0.98136253092262 -14.9976744336157 0.0942114606881336 -96.5049364849624 
! Gamma         0                0                0                0                
! Port Impedance         50               0                50               0                
7.8                            0.0955027260909573 -96.6558767130949 0.981106821337872 -15.186792782196 0.981106821337871 -15.186792782196 0.0954659277519394 -96.7303357643805 
! Gamma         0                0                0                0                
! Port Impedance         50               0                50               0                
7.9                            0.096757777047631 -96.8795487886227 0.980849623732594 -15.3757869391328 0.980849623732593 -15.3757869391328 0.0967202236832064 -96.9548532349729 
! Gamma         0                0                0                0                
! Port Impedance         50               0                50               0                
8                              0.0980126184599723 -97.1023782207409 0.980590958718004 -15.5646575327143 0.980590958718003 -15.5646575327143 0.0979743044798473 -97.1785257229954 
! Gamma         0                0                0                0                
! Port Impedance         50               0                50               0                
8.1                            0.09926720654817 -97.32439945304  0.980330846157508 -15.7534051912064 0.980330846157508 -15.7534051912064 0.099228126467484 -97.4013877225192 
! Gamma         0                0                0                0                
! Port Impedance         50               0                50               0                
8.2                            0.100521497881036 -97.5456447586725 0.980069305192339 -15.9420305411924 0.980069305192338 -15.9420305411924 0.10048164631974 -97.6234715564491 
! Gamma         0                0                0                0                
! Port Impedance         50               0                50               0                
8.3                            0.101775449394503 -97.7661443895306 0.979806354267259 -16.1305342060489 0.979806354267259 -16.1305342060489 0.101734821076645 -97.8448075256788 
! Gamma         0                0                0                0                
! Port Impedance         50               0                50               0                
8.4                            0.103029018408319 -97.985926714509 0.97954201115626 -16.318916804551 0.97954201115626 -16.318916804551 0.102987608161234 -98.0654240473323 
! Gamma         0                0                0                0                
! Port Impedance         50               0                50               0                
8.5                            0.104282162641015 -98.2050183477166 0.979276292988154 -16.5071789495989 0.979276292988154 -16.5071789495989 0.104239965394442 -98.2853477829579 
! Gamma         0                0                0                0                
! Port Impedance         50               0                50               0                
8.6                            0.105534840223253 -98.4234442674271 0.979009216271991 -16.6953212470602 0.97900921627199 -16.6953212470601 0.105491851008372 -98.504603757462 
! Gamma         0                0                0                0                
! Port Impedance         50               0                50               0                
8.7                            0.106787009709619 -98.6412279264881 0.978740796922232 -16.8833442947207 0.978740796922232 -16.8833442947207 0.106743223658019 -98.7232154695039 
! Gamma         0                0                0                0                
! Port Impedance         50               0                50               0                
8.8                            0.108038630088963 -98.8583913548471 0.978471050283633 -17.0712486813391 0.978471050283632 -17.0712486813391 0.107994042431547 -98.9412049940091 
! Gamma         0                0                0                0                
! Port Impedance         50               0                50               0                
8.9                            0.10928966079335 -99.0749552547972 0.978199991155758 -17.259034985797 0.978199991155758 -17.2590349857969 0.109244266859184 -99.1585930774047 
! Gamma         0                0                0                0                
! Port Impedance         50               0                50               0                
9                              0.11054006170572 -99.2909390894932 0.977927633817105 -17.4467037763417 0.977927633817105 -17.4467037763417 0.110493856920831 -99.3753992261262 
! Gamma         0                0                0                0                
! Port Impedance         50               0                50               0                
9.1                            0.111789793166318 -99.5063611652452 0.977653992048782 -17.6342556099146 0.977653992048783 -17.6342556099146 0.111742773052445 -99.5916417889044 
! Gamma         0                0                0                0                
! Port Impedance         50               0                50               0                
9.2                            0.113038815977982 -99.7212387080535 0.977379079157714 -17.8216910315597 0.977379079157713 -17.8216910315597 0.112990976151283 -99.8073380332943 
! Gamma         0                0                0                0                
! Port Impedance         50               0                50               0                
9.3                            0.114287091410345 -99.9355879348112 0.97710290799933 -18.0090105739087 0.97710290799933 -18.0090105739087 0.114238427580074 -100.022504216874 
! Gamma         0                0                0                0                
! Port Impedance         50               0                50               0                
9.4                            0.115534581203044 -100.149424119568 0.976825490999734 -18.1962147567372 0.976825490999735 -18.1962147567372 0.115485089170188 -100.237155653507 
! Gamma         0                0                0                0                
! Port Impedance         50               0                50               0                
9.5                            0.116781247567974 -100.362761655213 0.97654684017731 -18.3833040865865 0.97654684017731 -18.3833040865865 0.116730923223874 -100.45130677502 
! Gamma         0                0                0                0                
! Port Impedance         50               0                50               0                
9.6                            0.118027053190682 -100.575614110915 0.976266967163753 -18.5702790564493 0.976266967163753 -18.5702790564493 0.117975892515617 -100.664971188648 
! Gamma         0                0                0                0                
! Port Impedance         50               0                50               0                
9.7                            0.119271961230935 -100.787994285619 0.975985883224519 -18.7571401455118 0.975985883224519 -18.7571401455118 0.119219960292699 -100.878161730532 
! Gamma         0                0                0                0                
! Port Impedance         50               0                50               0                
9.8                            0.120515935322542 -100.999914257892 0.975703599278676 -18.9438878189515 0.975703599278675 -18.9438878189515 0.120463090274998 -101.09089051556 
! Gamma         0                0                0                0                
! Port Impedance         50               0                50               0                
9.9                            0.121758939572476 -101.211385432363 0.975420125918144 -19.1305225277843 0.975420125918144 -19.1305225277843 0.121705246654099 -101.303168983819 
! Gamma         0                0                0                0                
! Port Impedance         50               0                50               0                
10                             0.123000938559348 -101.422418583019 0.975135473426332 -19.3170447087593 0.975135473426332 -19.3170447087593 0.122946394091767 -101.515007943895 
! Gamma         0                0                0                0                
! Port Impedance         50               0                50               0                
10.1                           0.124241897331298 -101.633023893563 0.974849651796152 -19.5034547842968 0.974849651796152 -19.5034547842968 0.124186497717817 -101.72641761323 
! Gamma         0                0                0                0                
! Port Impedance         50               0                50               0                
10.2                           0.125481781403334 -101.84321099505 0.974562670747422 -19.6897531624664 0.974562670747422 -19.6897531624664 0.125425523127465 -101.937407655769 
! Gamma         0                0                0                0                
! Port Impedance         50               0                50               0                
10.3                           0.126720556754176 -102.052989000984 0.974274539743655 -19.875940237003 0.974274539743655 -19.875940237003 0.126663436378168 -102.147987217065 
! Gamma         0                0                0                0                
! Port Impedance         50               0                50               0                
10.4                           0.127958189822655 -102.262366540062 0.973985268008239 -20.0620163873562 0.973985268008239 -20.0620163873562 0.127900203986017 -102.358164957026 
! Gamma         0                0                0                0                
! Port Impedance         50               0                50               0                
10.5                           0.129194647503686 -102.471351786721 0.973694864540007 -20.2479819787721 0.973694864540007 -20.2479819787721 0.129135792921731 -102.567949080477 
! Gamma         0                0                0                0                
! Port Impedance         50               0                50               0                
10.6                           0.130429897143887 -102.679952489641 0.97340333812821 -20.4338373624038 0.97340333812821 -20.4338373624038 0.130370170606266 -102.777347365667 
! Gamma         0                0                0                0                
! Port Impedance         50               0                50               0                
10.7                           0.13166390653685 -102.888175998354 0.973110697366897 -20.6195828754485 0.973110697366897 -20.6195828754485 0.13160330490611 -102.98636719089 
! Gamma         0                0                0                0                
! Port Impedance         50               0                50               0                
10.8                           0.132896643918119 -103.09602928807 0.972816950668712 -20.8052188413086 0.972816950668713 -20.8052188413086 0.132835164128262 -103.19501555932 
! Gamma         0                0                0                0                
! Port Impedance         50               0                50               0                
10.9                           0.134128077959903 -103.303518982868 0.972522106278115 -20.9907455697753 0.972522106278115 -20.9907455697753 0.134065717014963 -103.403299122212 
! Gamma         0                0                0                0                
! Port Impedance         50               0                50               0                
11                             0.135358177765552 -103.510651377334 0.972226172284039 -21.1761633572316 0.972226172284039 -21.1761633572316 0.135294932738187 -103.611224200555 
! Gamma         0                0                0                0                
! Port Impedance         50               0                50               0                
11.1                           0.136586912863828 -103.71743245678 0.971929156631998 -21.361472486874 0.971929156631998 -21.361472486874 0.136522780893923 -103.818796805299 
! Gamma         0                0                0                0                
! Port Impedance         50               0                50               0                
11.2                           0.137814253202997 -103.923867916123 0.97163106713565 -21.5466732289497 0.97163106713565 -21.5466732289497 0.137749231496293 -104.026022656243 
! Gamma         0                0                0                0                
! Port Impedance         50               0                50               0                
11.3                           0.139040169144772 -104.129963177514 0.971331911487833 -21.7317658410091 0.971331911487833 -21.7317658410091 0.138974254971506 -104.232907199683 
! Gamma         0                0                0                0                
! Port Impedance         50               0                50               0                
11.4                           0.140264631458124 -104.335723406815 0.971031697271085 -21.9167505681702 0.971031697271085 -21.9167505681702 0.140197822151694 -104.439455624896 
! Gamma         0                0                0                0                
! Port Impedance         50               0                50               0                
11.5                           0.141487611312989 -104.541153528989 0.970730431967662 -22.1016276433953 0.970730431967662 -22.1016276433953 0.141419904268635 -104.645672879544 
! Gamma         0                0                0                0                
! Port Impedance         50               0                50               0                
11.6                           0.142709080273889 -104.746258242479 0.970428122969066 -22.2863972877772 0.970428122969066 -22.2863972877772 0.142640472947401 -104.851563684064 
! Gamma         0                0                0                0                
! Port Impedance         50               0                50               0                
11.7                           0.143929010293486 -104.951042032649 0.970124777585097 -22.4710597108339 0.970124777585097 -22.471059710834 0.143859500199932 -105.057132545125 
! Gamma         0                0                0                0                
! Port Impedance         50               0                50               0                
11.8                           0.145147373706089 -105.155509184342 0.969820403052443 -22.6556151108111 0.969820403052443 -22.6556151108112 0.145076958418571 -105.262383768198 
! Gamma         0                0                0                0                
! Port Impedance         50               0                50               0                
11.9                           0.146364143221133 -105.359663793623 0.969515006542823 -22.8400636749907 0.969515006542823 -22.8400636749907 0.146292820369558 -105.467321469306 
! Gamma         0                0                0                0                
! Port Impedance         50               0                50               0                
12                             0.147579291916636 -105.563509778748 0.969208595170696 -23.0244055800042 0.969208595170696 -23.0244055800043 0.147507059186523 -105.671949586017 
! Gamma         0                0                0                0                
! Port Impedance         50               0                50               0                
12.1                           0.14879279323266 -105.76705089043 0.968901176000545 -23.2086409921513 0.968901176000545 -23.2086409921513 0.148719648363961 -105.876271887712 
! Gamma         0                0                0                0                
! Port Impedance         50               0                50               0                
12.2                           0.150004620964781 -105.970290721429 0.968592756053762 -23.39277006772  0.968592756053761 -23.3927700677201 0.149930561750738 -106.080291985196 
! Gamma         0                0                0                0                
! Port Impedance         50               0                50               0                
12.3                           0.151214749257579 -106.173232715522 0.968283342315132 -23.5767929533112 0.968283342315132 -23.5767929533113 0.151139773543602 -106.284013339675 
! Gamma         0                0                0                0                
! Port Impedance         50               0                50               0                
12.4                           0.152423152598172 -106.375880175895 0.967972941738945 -23.7607097861629 0.967972941738945 -23.760709786163 0.152347258280742 -106.487439271166 
! Gamma         0                0                0                0                
! Port Impedance         50               0                50               0                
12.5                           0.153629805809785 -106.578236272987 0.967661561254736 -23.9445206944766 0.967661561254736 -23.9445206944766 0.153552990835388 -106.69057296635 
! Gamma         0                0                0                0                
! Port Impedance         50               0                50               0                
12.6                           0.154834684045378 -106.780304051832 0.967349207772675 -24.1282257977432 0.967349207772675 -24.1282257977432 0.154756946409464 -106.893417485929 
! Gamma         0                0                0                0                
! Port Impedance         50               0                50               0                
12.7                           0.156037762781333 -106.982086438922 0.967035888188618 -24.3118252070686 0.967035888188618 -24.3118252070686 0.155959100527301 -107.095975771502 
! Gamma         0                0                0                0                
! Port Impedance         50               0                50               0                
12.8                           0.157239017811216 -107.183586248637 0.966721609388828 -24.4953190254986 0.966721609388828 -24.4953190254987 0.157159429029428 -107.298250652005 
! Gamma         0                0                0                0                
! Port Impedance         50               0                50               0                
12.9                           0.158438425239609 -107.384806189249 0.966406378254387 -24.6787073483416 0.966406378254387 -24.6787073483416 0.158357908066428 -107.500244849731 
! Gamma         0                0                0                0                
! Port Impedance         50               0                50               0                
13                             0.159635961476027 -107.585748868557 0.966090201665298 -24.8619902634895 0.966090201665297 -24.8619902634896 0.159554514092889 -107.701960985974 
! Gamma         0                0                0                0                
! Port Impedance         50               0                50               0                
13.1                           0.160831603228927 -107.786416799142 0.965773086504304 -25.0451678517366 0.965773086504304 -25.0451678517366 0.160749223861431 -107.903401586301 
! Gamma         0                0                0                0                
! Port Impedance         50               0                50               0                
13.2                           0.162025327499802 -107.986812403307 0.965455039660427 -25.2282401870946 0.965455039660427 -25.2282401870947 0.161942014416835 -108.104569085497 
! Gamma         0                0                0                0                
! Port Impedance         50               0                50               0                
13.3                           0.163217111577379 -108.186938017683 0.965136068032237 -25.4112073371055 0.965136068032236 -25.4112073371055 0.163132863090264 -108.305465832191 
! Gamma         0                0                0                0                
! Port Impedance         50               0                50               0                
13.4                           0.164406933031914 -108.386795897554 0.964816178530867 -25.5940693631497 0.964816178530867 -25.5940693631498 0.164321747493585 -108.506094093187 
! Gamma         0                0                0                0                
! Port Impedance         50               0                50               0                
13.5                           0.165594769709594 -108.586388220903 0.964495378082788 -25.7768263207514 0.964495378082787 -25.7768263207515 0.1655086455138  -108.706456057525 
! Gamma         0                0                0                0                
! Port Impedance         50               0                50               0                
13.6                           0.16678059972704 -108.785717092203 0.964173673632338 -25.9594782598789 0.964173673632338 -25.9594782598789 0.166693535307574 -108.906553840281 
! Gamma         0                0                0                0                
! Port Impedance         50               0                50               0                
13.7                           0.167964401465928 -108.984784545966 0.963851072144043 -26.1420252252409 0.963851072144042 -26.1420252252409 0.167876395295883 -109.106389486128 
! Gamma         0                0                0                0                
! Port Impedance         50               0                50               0                
13.8                           0.169146153567714 -109.183592550069 0.963527580604707 -26.3244672565783 0.963527580604706 -26.3244672565783 0.169057204158762 -109.305964972677 
! Gamma         0                0                0                0                
! Port Impedance         50               0                50               0                
13.9                           0.170325834928473 -109.382143008875 0.963203206025312 -26.506804388951 0.963203206025311 -26.506804388951 0.170235940830177 -109.505282213603 
! Gamma         0                0                0                0                
! Port Impedance         50               0                50               0                
14                             0.171503424693855 -109.580437766152 0.962877955442714 -26.6890366530198 0.962877955442713 -26.6890366530199 0.171412584492998 -109.704343061579 
! Gamma         0                0                0                0                
! Port Impedance         50               0                50               0                
14.1                           0.172678902254151 -109.778478607814 0.962551835921156 -26.8711640753233 0.962551835921156 -26.8711640753233 0.172587114574097 -109.903149311025 
! Gamma         0                0                0                0                
! Port Impedance         50               0                50               0                
14.2                           0.173852247239478 -109.97626726449 0.962224854553606 -27.0531866785492 0.962224854553606 -27.0531866785492 0.173759510739557 -110.101702700689 
! Gamma         0                0                0                0                
! Port Impedance         50               0                50               0                
14.3                           0.175023439515081 -110.173805413933 0.96189701846292 -27.2351044818009 0.961897018462919 -27.235104481801 0.174929752889994 -110.300004916068 
! Gamma         0                0                0                0                
! Port Impedance         50               0                50               0                
14.4                           0.176192459176745 -110.371094683282 0.961568334802851 -27.4169175008584 0.96156833480285 -27.4169175008585 0.176097821155999 -110.498057591673 
! Gamma         0                0                0                0                
! Port Impedance         50               0                50               0                
14.5                           0.177359286546327 -110.568136651179 0.961238810758901 -27.5986257484334 0.9612388107589  -27.5986257484334 0.177263695893693 -110.695862313168 
! Gamma         0                0                0                0                
! Port Impedance         50               0                50               0                
14.6                           0.178523902167405 -110.764932849765 0.960908453549032 -27.7802292344192 0.960908453549032 -27.7802292344192 0.178427357680395 -110.893420619362 
! Gamma         0                0                0                0                
! Port Impedance         50               0                50               0                
14.7                           0.179686286801035 -110.961484766549 0.960577270424235 -27.9617279661352 0.960577270424234 -27.9617279661352 0.17958878731041 -111.090734004098 
! Gamma         0                0                0                0                
! Port Impedance         50               0                50               0                
14.8                           0.180846421421631 -111.15779384616 0.960245268668968 -28.1431219485655 0.960245268668967 -28.1431219485656 0.180747965790927 -111.28780391801 
! Gamma         0                0                0                0                
! Port Impedance         50               0                50               0                
14.9                           0.182004287212951 -111.353861492001 0.959912455601476 -28.3244111845921 0.959912455601475 -28.3244111845921 0.181904874338028 -111.484631770184 
! Gamma         0                0                0                0                
! Port Impedance         50               0                50               0                
15                             0.183159865564198 -111.549689067797 0.959578838573988 -28.5055956752218 0.959578838573987 -28.5055956752219 0.183059494372813 -111.681218929721 
! Gamma         0                0                0                0                
! Port Impedance         50               0                50               0                
15.1                           0.184313138066234 -111.745277899056 0.959244424972804 -28.686675419809 0.959244424972803 -28.686675419809 0.184211807517634 -111.8775667272  
! Gamma         0                0                0                0                
! Port Impedance         50               0                50               0                
15.2                           0.185464086507899 -111.940629274437 0.958909222218278 -28.867650416271 0.958909222218277 -28.8676504162711 0.185361795592438 -112.07367645606 
! Gamma         0                0                0                0                
! Port Impedance         50               0                50               0                
15.3                           0.186612692872444 -112.135744447041 0.958573237764702 -29.0485206612994 0.958573237764702 -29.0485206612994 0.186509440611221 -112.269549373896 
! Gamma         0                0                0                0                
! Port Impedance         50               0                50               0                
15.4                           0.187758939334067 -112.330624635628 0.958236479100097 -29.2292861505648 0.958236479100096 -29.2292861505648 0.187654724778581 -112.465186703685 
! Gamma         0                0                0                0                
! Port Impedance         50               0                50               0                
15.5                           0.188902808254556 -112.525271025757 0.957898953745911 -29.4099468789165 0.95789895374591 -29.4099468789165 0.188797630486386 -112.660589634937 
! Gamma         0                0                0                0                
! Port Impedance         50               0                50               0                
15.6                           0.190044282180038 -112.71968477087 0.957560669256638 -29.5905028405769 0.957560669256638 -29.5905028405769 0.189938140310541 -112.855759324779 
! Gamma         0                0                0                0                
! Port Impedance         50               0                50               0                
15.7                           0.191183343837824 -112.913866993301 0.957221633219365 -29.7709540293299 0.957221633219364 -29.7709540293299 0.191076237007854 -113.050696898984 
! Gamma         0                0                0                0                
! Port Impedance         50               0                50               0                
15.8                           0.192319976133365 -113.107818785243 0.956881853253227 -29.9513004387044 0.956881853253226 -29.9513004387044 0.192211903513007 -113.24540345293 
! Gamma         0                0                0                0                
! Port Impedance         50               0                50               0                
15.9                           0.193454162147294 -113.301541209644 0.956541337008816 -30.1315420621525 0.956541337008815 -30.1315420621525 0.193345122935622 -113.43988005252 
! Gamma         0                0                0                0                
! Port Impedance         50               0                50               0                
16                             0.194585885132574 -113.495035301069 0.956200092167505 -30.3116788932221 0.956200092167504 -30.3116788932221 0.194475878557428 -113.634127735036 
! Gamma         0                0                0                0                
! Port Impedance         50               0                50               0                
16.1                           0.195715128511741 -113.688302066503 0.955858126440728 -30.4917109257248 0.955858126440727 -30.4917109257248 0.195604153829516 -113.828147509961 
! Gamma         0                0                0                0                
! Port Impedance         50               0                50               0                
16.2                           0.196841875874234 -113.881342486118 0.955515447569189 -30.6716381538982 0.955515447569188 -30.6716381538982 0.196729932369692 -114.021940359744 
! Gamma         0                0                0                0                
! Port Impedance         50               0                50               0                
16.3                           0.197966110973823 -114.074157513993 0.955172063322031 -30.8514605725635 0.95517206332203 -30.8514605725635 0.197853197959922 -114.21550724053 
! Gamma         0                0                0                0                
! Port Impedance         50               0                50               0                
16.4                           0.199087817726122 -114.266748078798 0.954827981495949 -31.0311781772782 0.954827981495948 -31.0311781772782 0.19897393454386 -114.408849082856 
! Gamma         0                0                0                0                
! Port Impedance         50               0                50               0                
16.5                           0.200206980206191 -114.459115084445 0.954483209914254 -31.2107909644833 0.954483209914253 -31.2107909644833 0.200092126224469 -114.601966792297 
! Gamma         0                0                0                0                
! Port Impedance         50               0                50               0                
16.6                           0.201323582646227 -114.651259410702 0.954137756425905 -31.3902989316468 0.954137756425904 -31.3902989316468 0.201207757261724 -114.794861250097 
! Gamma         0                0                0                0                
! Port Impedance         50               0                50               0                
16.7                           0.202437609433331 -114.843181913776 0.953791628904493 -31.5697020774013 0.953791628904492 -31.5697020774013 0.202320812070401 -114.987533313749 
! Gamma         0                0                0                0                
! Port Impedance         50               0                50               0                
16.8                           0.203549045107363 -115.034883426868 0.953444835247193 -31.7490004016777 0.953444835247192 -31.7490004016777 0.203431275217944 -115.179983817566 
! Gamma         0                0                0                0                
! Port Impedance         50               0                50               0                
16.9                           0.204657874358878 -115.226364760702 0.953097383373679 -31.9281939058343 0.953097383373678 -31.9281939058343 0.204539131422414 -115.372213573204 
! Gamma         0                0                0                0                
! Port Impedance         50               0                50               0                
17                             0.205764082027132 -115.417626704023 0.952749281225016 -32.1072825927808 0.952749281225015 -32.1072825927808 0.205644365550516 -115.564223370177 
! Gamma         0                0                0                0                
! Port Impedance         50               0                50               0                
17.1                           0.206867653098173 -115.60867002408 0.952400536762512 -32.2862664670987 0.952400536762511 -32.2862664670987 0.2067469626157  -115.756013976337 
! Gamma         0                0                0                0                
! Port Impedance         50               0                50               0                
17.2                           0.207968572703   -115.799495467079 0.952051157966559 -32.4651455351569 0.952051157966558 -32.4651455351569 0.207846907776333 -115.947586138337 
! Gamma         0                0                0                0                
! Port Impedance         50               0                50               0                
17.3                           0.209066826115797 -115.990103758619 0.951701152835439 -32.6439198052234 0.951701152835438 -32.6439198052234 0.208944186333952 -116.138940582071 
! Gamma         0                0                0                0                
! Port Impedance         50               0                50               0                
17.4                           0.210162398752237 -116.180495604106 0.951350529384115 -32.8225892875723 0.951350529384114 -32.8225892875723 0.210038783731577 -116.330078013092 
! Gamma         0                0                0                0                
! Port Impedance         50               0                50               0                
17.5                           0.211255276167854 -116.370671689154 0.950999295643001 -33.0011539945875 0.950999295643   -33.0011539945875 0.211130685552097 -116.520999117021 
! Gamma         0                0                0                0                
! Port Impedance         50               0                50               0                
17.6                           0.212345444056483 -116.560632679963 0.95064745965672 -33.1796139408617 0.950647459656719 -33.1796139408617 0.212219877516725 -116.711704559925 
! Gamma         0                0                0                0                
! Port Impedance         50               0                50               0                
17.7                           0.21343288824876 -116.750379223686 0.95029502948284 -33.3579691432921 0.950295029482839 -33.3579691432921 0.213306345483509 -116.902194988694 
! Gamma         0                0                0                0                
! Port Impedance         50               0                50               0                
17.8                           0.214517594710695 -116.939911948777 0.949942013190605 -33.536219621172 0.949942013190604 -33.536219621172 0.214390075445916 -117.09247103139 
! Gamma         0                0                0                0                
! Port Impedance         50               0                50               0                
17.9                           0.215599549542296 -117.12923146533 0.949588418859646 -33.7143653962785 0.949588418859645 -33.7143653962785 0.215471053531468 -117.282533297593 
! Gamma         0                0                0                0                
! Port Impedance         50               0                50               0                
18                             0.216678738976258 -117.318338365401 0.949234254578692 -33.8924064929571 0.949234254578691 -33.8924064929571 0.216549266000445 -117.472382378723 
! Gamma         0                0                0                0                
! Port Impedance         50               0                50               0                
18.1                           0.21775514937671 -117.507233223319 0.94887952844427 -34.0703429382021 0.948879528444269 -34.0703429382021 0.217624699244642 -117.662018848362 
! Gamma         0                0                0                0                
! Port Impedance         50               0                50               0                
18.2                           0.218828767238014 -117.695916595988 0.948524248559392 -34.248174761734 0.948524248559392 -34.2481747617339 0.218697339786179 -117.851443262555 
! Gamma         0                0                0                0                
! Port Impedance         50               0                50               0                
18.3                           0.219899579183628 -117.884389023175 0.94816842303225 -34.4259019960731 0.948168423032249 -34.4259019960731 0.219767174276369 -118.040656160104 
! Gamma         0                0                0                0                
! Port Impedance         50               0                50               0                
18.4                           0.220967571965007 -118.072651027791 0.947812059974893 -34.6035246766104 0.947812059974892 -34.6035246766104 0.220834189494644 -118.229658062854 
! Gamma         0                0                0                0                
! Port Impedance         50               0                50               0                
18.5                           0.222032732460573 -118.260703116163 0.947455167501916 -34.7810428416746 0.947455167501915 -34.7810428416745 0.221898372347516 -118.418449475964 
! Gamma         0                0                0                0                
! Port Impedance         50               0                50               0                
18.6                           0.223095047674719 -118.448545778295 0.947097753729138 -34.9584565325959 0.947097753729137 -34.9584565325958 0.222959709867605 -118.607030888178 
! Gamma         0                0                0                0                
! Port Impedance         50               0                50               0                
18.7                           0.224154504736871 -118.636179488119 0.946739826772281 -35.1357657937675 0.946739826772281 -35.1357657937675 0.224018189212706 -118.795402772078 
! Gamma         0                0                0                0                
! Port Impedance         50               0                50               0                
18.8                           0.225211090900594 -118.823604703749 0.94638139474566 -35.3129706727034 0.946381394745659 -35.3129706727033 0.225073797664902 -118.983565584338 
! Gamma         0                0                0                0                
! Port Impedance         50               0                50               0                
18.9                           0.226264793542743 -119.010821867715 0.946022465760858 -35.490071220093 0.946022465760858 -35.490071220093 0.226126522629727 -119.171519765967 
! Gamma         0                0                0                0                
! Port Impedance         50               0                50               0                
19                             0.227315600162658 -119.197831407197 0.945663047925423 -35.667067489854 0.945663047925423 -35.667067489854 0.227176351635367 -119.359265742541 
! Gamma         0                0                0                0                
! Port Impedance         50               0                50               0                
19.1                           0.228363498381399 -119.384633734255 0.945303149341555 -35.843959539181 0.945303149341554 -35.843959539181 0.228223272331907 -119.546803924441 
! Gamma         0                0                0                0                
! Port Impedance         50               0                50               0                
19.2                           0.229408475941029 -119.571229246047 0.944942778104804 -36.0207474285925 0.944942778104804 -36.0207474285925 0.229267272490616 -119.73413470707 
! Gamma         0                0                0                0                
! Port Impedance         50               0                50               0                
19.3                           0.230450520703927 -119.757618325046 0.944581942302776 -36.1974312219748 0.944581942302775 -36.1974312219748 0.230308340003275 -119.921258471079 
! Gamma         0                0                0                0                
! Port Impedance         50               0                50               0                
19.4                           0.231489620652149 -119.943801339252 0.944220650013837 -36.3740109866231 0.944220650013837 -36.374010986623 0.231346462881539 -120.108175582576 
! Gamma         0                0                0                0                
! Port Impedance         50               0                50               0                
19.5                           0.232525763886816 -120.129778642397 0.943858909305838 -36.5504867932805 0.943858909305837 -36.5504867932804 0.232381629256339 -120.294886393336 
! Gamma         0                0                0                0                
! Port Impedance         50               0                50               0                
19.6                           0.233558938627547 -120.315550574147 0.94349672823483 -36.7268587161743 0.94349672823483 -36.7268587161743 0.233413827377315 -120.481391241008 
! Gamma         0                0                0                0                
! Port Impedance         50               0                50               0                
19.7                           0.234589133211921 -120.5011174603  0.943134114843809 -36.9031268330499 0.943134114843808 -36.9031268330499 0.23444304561229 -120.667690449316 
! Gamma         0                0                0                0                
! Port Impedance         50               0                50               0                
19.8                           0.235616336094973 -120.686479612981 0.942771077161446 -37.0792912252023 0.942771077161446 -37.0792912252023 0.23546927244677 -120.853784328251 
! Gamma         0                0                0                0                
! Port Impedance         50               0                50               0                
19.9                           0.236640535848723 -120.871637330829 0.942407623200853 -37.2553519775055 0.942407623200852 -37.2553519775055 0.23649249648348 -121.039673174268 
! Gamma         0                0                0                0                
! Port Impedance         50               0                50               0                
20                             0.237661721161737 -121.056590899186 0.942043760958333 -37.4313091784393 0.942043760958333 -37.4313091784393 0.23751270644193 -121.225357270476 
! Gamma         0                0                0                0                
! Port Impedance         50               0                50               0                
