! Touchstone file exported from HFSS 2026.1.0
!        File:           C:/ffzhzh/LocalFiles/Ansys_Project_Files/temp_train_TMRDL_153_1782983175_41620.aedt
!        Generated:      05:07:20 PM Jul  2, 2026
!        Design:         TMRDL
!        Project:        temp_train_TMRDL_153_1782983175_41620
!
! Variables:
!        h_bsmrdl = 2um
!        h_ox = 20um
!        h_rdl = 5um
!        h_sub = 80um
!        h_tmrdl = 4.82um
!        h_tsv = 80um
!        h_via = 3um
!        l_bsmrdl = 300um
!        l_sub = 1005.71um
!        l_tmrdl = 605.71um
!        m_sub = 200um
!        pitch = 34.96um
!        r_tsv = 6um
!        s_tmrdl = 10um
!        w_bsmrdl = 18um
!        w_sub = 500um
!        w_tmrdl = 29.81um
!        x_tsv_center1 = 620.615um
!        x_tsv_center2 = 938.615um
!        x_tsv_center3 = 1574.135um
!        x_tsv_center4 = 1892.135um
!        x_tsv_center5 = 2527.655um
!        x_tsv_center6 = 2845.655um
!
# GHz S MA R 50.000000
! Terminal data exported
! Port[1] = TM_RDL1_1_T1
! Port[2] = TM_RDL1_1_T2
0.1                            0.0019174248980575 15.8469056652535 0.998157215748904 -0.207576847766776 0.998157215748904 -0.207576847766768 0.00191742288432835 15.8474227788757 
! Gamma         0                0                0                0                
! Port Impedance         50               0                50               0                
0.2                            0.00234105554795892 18.5415291635311 0.997787419600278 -0.398813454753764 0.997787419600279 -0.398813454753889 0.00234094331285558 18.5327278577443 
! Gamma         0                0                0                0                
! Port Impedance         50               0                50               0                
0.3                            0.00263000493776782 16.9379041302006 0.99748299450233 -0.578451994810724 0.997482994502329 -0.578451994810945 0.00262951957470927 16.9271413328524 
! Gamma         0                0                0                0                
! Port Impedance         50               0                50               0                
0.4                            0.00280902318982522 14.9648498146289 0.997274837889629 -0.754024015898128 0.997274837889626 -0.754024015898365 0.00280821174647476 14.9564512428806 
! Gamma         0                0                0                0                
! Port Impedance         50               0                50               0                
0.5                            0.00292803176919979 13.3487497340214 0.9971317353138  -0.928843103787496 0.997131735313796 -0.928843103787701 0.00292699421081437 13.3440385939882 
! Gamma         0                0                0                0                
! Port Impedance         50               0                50               0                
0.6                            0.00301641072653545 12.1094594265053 0.997026269432541 -1.10391342270256 0.997026269432535 -1.10391342270272 0.0030152255344238 12.1086020801748 
! Gamma         0                0                0                0                
! Port Impedance         50               0                50               0                
0.7                            0.00308943771029036 11.1556506353473 0.996941664124783 -1.27943612612631 0.996941664124777 -1.2794361261264 0.00308815790568543 11.1584357949419 
! Gamma         0                0                0                0                
! Port Impedance         50               0                50               0                
0.8                            0.00315511769540145 10.4005281221342 0.99686827910361 -1.45537549867113 0.996868279103603 -1.45537549867117 0.00315377805808812 10.4066388751514 
! Gamma         0                0                0                0                
! Port Impedance         50               0                50               0                
0.9                            0.00321778692766792 9.77813936861893 0.996800546788576 -1.63164062613126 0.996800546788569 -1.63164062613125 0.00321641021534224 9.78724479649081 
! Gamma         0                0                0                0                
! Port Impedance         50               0                50               0                
1                              0.00327986923371087 9.24083997422817 0.996735181208873 -1.80813951541202 0.996735181208866 -1.80813951541196 0.00327847026690774 9.25262490457328 
! Gamma         0                0                0                0                
! Port Impedance         50               0                50               0                
1.1                            0.00334274623734546 8.75454823316458 0.996670200911842 -1.98479289994927 0.996670200911836 -1.98479289994917 0.00334133444433225 8.76872176089348 
! Gamma         0                0                0                0                
! Port Impedance         50               0                50               0                
1.2                            0.00340720646103364 8.29486726405021 0.996604394508501 -2.1615357652828 0.996604394508495 -2.16153576528265 0.00340578746975982 8.3111640833421  
! Gamma         0                0                0                0                
! Port Impedance         50               0                50               0                
1.3                            0.0034736879148319 7.84431500364952 0.996537020968871 -2.33831554098943 0.996537020968865 -2.33831554098925 0.00347226457454733 7.86249444689711 
! Gamma         0                0                0                0                
! Port Impedance         50               0                50               0                
1.4                            0.0035424150643736 7.39040378445531 0.996467636126582 -2.51508975581968 0.996467636126576 -2.51508975581947 0.00354098812483421 7.41024824873167 
! Gamma         0                0                0                0                
! Port Impedance         50               0                50               0                
1.5                            0.00361347937803503 6.9243049823758  0.996395988850265 -2.69182395439019 0.99639598885026 -2.69182395438995 0.00361204795949867 6.94561828261106 
! Gamma         0                0                0                0                
! Port Impedance         50               0                50               0                
1.6                            0.00368688844709955 6.43990620181485 0.996321956844358 -2.86849003244266 0.996321956844353 -2.8684900324424 0.00368545037931334 6.4625119934316  
! Gamma         0                0                0                0                
! Port Impedance         50               0                50               0                
1.7                            0.00376259690060577 5.9331325079623  0.996245505686792 -3.04506495655825 0.996245505686787 -3.04506495655796 0.00376114897732156 5.95687279534704 
! Gamma         0                0                0                0                
! Port Impedance         50               0                50               0                
1.8                            0.00384052638432852 5.40144795706776 0.996166661896684 -3.22152979118739 0.996166661896679 -3.22152979118709 0.00383906456152272 5.42618167347631 
! Gamma         0                0                0                0                
! Port Impedance         50               0                50               0                
1.9                            0.00392057874861195 4.84348280186625 0.996085494712947 -3.39786895863325 0.996085494712943 -3.39786895863293 0.00391909830380078 4.86908444639662 
! Gamma         0                0                0                0                
! Port Impedance         50               0                50               0                
2                              0.00400264489021069 4.25875030833999 0.996002103427296 -3.57406967179842 0.996002103427293 -3.57406967179809 0.00400114055382309 4.28510863291182 
! Gamma         0                0                0                0                
! Port Impedance         50               0                50               0                
2.1                            0.00408661073758926 3.64742892882201 0.995916608350942 -3.75012149407323 0.995916608350938 -3.7501214940729 0.00408507680346935 3.67444567483384 
! Gamma         0                0                0                0                
! Port Impedance         50               0                50               0                
2.2                            0.00417236131457654 3.01019315527976 0.995829144218612 -3.92601599276093 0.995829144218609 -3.92601599276058 0.00417079173429854 3.03778184381858 
! Gamma         0                0                0                0                
! Port Impedance         50               0                50               0                
2.3                            0.00425978348577563 2.34808131225571 0.995739855268278 -4.10174646159176 0.995739855268276 -4.10174646159141 0.00425817194996502 2.37616609350794 
! Gamma         0                0                0                0                
! Port Impedance         50               0                50               0                
2.4                            0.00434876778327745 1.66239182388991 0.995648891501594 -4.2773076946201 0.995648891501593 -4.27730769461975 0.00434710779218926 1.69090639142077 
! Gamma         0                0                0                0                
! Port Impedance         50               0                50               0                
2.5                            0.00443920958544269 0.954601709969218 0.995556405796953 -4.45269579868786 0.995556405796952 -4.45269579868751 0.00443749451044082 0.983488284494017 
! Gamma         0                0                0                0                
! Port Impedance         50               0                50               0                
2.6                            0.00453100983504858 0.226302607348566 0.995462551653365 -4.62790803516203 0.995462551653364 -4.62790803516168 0.00452923297223128 0.255510993064556 
! Gamma         0                0                0                0                
! Port Impedance         50               0                50               0                
2.7                            0.00462407542868137 -0.520849290607523 0.995367481412303 -4.80294268419163 0.995367481412302 -4.80294268419129 0.00462223004563084 -0.491362575748052 
! Gamma         0                0                0                0                
! Port Impedance         50               0                50               0                
2.8                            0.00471831937163493 -1.28517218530707 0.995271344850024 -4.97779892655812 0.995271344850024 -4.97779892655778 0.00471639874808442 -1.25544470559023 
! Gamma         0                0                0                0                
! Port Impedance         50               0                50               0                
2.9                            0.0048136607665098 -2.0649887287205 0.995174288063136 -5.15247673951361 0.995174288063136 -5.15247673951327 0.00481165822959122 -2.03505285450269 
! Gamma         0                0                0                0                
! Port Impedance         50               0                50               0                
3                              0.00491002468531433 -2.8586489452058 0.995076452590727 -5.32697680395676 0.995076452590727 -5.32697680395643 0.00490793363995384 -2.82853250724605 
! Gamma         0                0                0                0                
! Port Impedance         50               0                50               0                
3.1                            0.00500734196168253 -3.6645474311189 0.994977974730439 -5.50130042098854 0.99497797473044 -5.50130042098823 0.00500515591663902 -3.63427430888412 
! Gamma         0                0                0                0                
! Port Impedance         50               0                50               0                
3.2                            0.00510554893023568 -4.48113596953548 0.99487898501568 -5.6754494363918 0.994878985015681 -5.67544943639149 0.00510326152022073 -4.45072661750673 
! Gamma         0                0                0                0                
! Port Impedance         50               0                50               0                
3.3                            0.00520458713306511 -5.30693247963741 0.994779607828109 -5.84942617194281 0.994779607828111 -5.84942617194252 0.00520219213733701 -5.27640439597815 
! Gamma         0                0                0                0                
! Port Impedance         50               0                50               0                
3.4                            0.00530440300807839 -6.1405270459516 0.994679961124517 -6.02323336272618 0.994679961124519 -6.0232333627259 0.00530189436586491 -6.10989518805247 
! Gamma         0                0                0                0                
! Port Impedance         50               0                50               0                
3.5                            0.005404947570036 -6.98058563208925 0.994580156260885 -6.19687409981464 0.994580156260887 -6.19687409981438 0.00540231939310791 -6.94986278351269 
! Gamma         0                0                0                0                
! Port Impedance         50               0                50               0                
3.6                            0.00550617609215956 -7.82585196979305 0.994480297899158 -6.37035177781215 0.99448029789916 -6.37035177781191 0.00550342267484887 -7.795049063044  
! Gamma         0                0                0                0                
! Port Impedance         50               0                50               0                
3.7                            0.00560804779396825 -8.67514802156699 0.994380483984362 -6.54367004685631 0.994380483984364 -6.54367004685608 0.00560516362089956 -8.64427442094017 
! Gamma         0                0                0                0                
! Port Impedance         50               0                50               0                
3.8                            0.00571052553931618 -9.52737333976661 0.994280805781377 -6.71683276874592 0.99428080578138 -6.7168327687457 0.00570750529109735 -9.4964370882928 
! Gamma         0                0                0                0                
! Port Impedance         50               0                50               0                
3.9                            0.00581357554732865 -10.3815035834989 0.994181347962016 -6.88984397690871 0.994181347962018 -6.88984397690851 0.00581041410442614 -10.3505116177518 
! Gamma         0                0                0                0                
! Port Impedance         50               0                50               0                
4                              0.00591716711797122 -11.2365884044232 0.994082188734171 -7.0627078399589 0.994082188734174 -7.06270783995871 0.00591385956297667 -11.2055467406704 
! Gamma         0                0                0                0                
! Port Impedance         50               0                50               0                
4.1                            0.00602127237325928 -12.0917488714785 0.993983400005776 -7.23542862861867 0.993983400005779 -7.2354286286185 0.00601781399173659 -12.0606627663756 
! Gamma         0                0                0                0                
! Port Impedance         50               0                50               0                
4.2                            0.00612586601457147 -12.9461745710046 0.993885047577126 -7.40801068579514 0.993885047577129 -7.40801068579499 0.00612225229465744 -12.9150486597514 
! Gamma         0                0                0                0                
! Port Impedance         50               0                50               0                
4.3                            0.00623092509612692 -13.7991204913153 0.993787191355858 -7.58045839961667 0.993787191355861 -7.58045839961653 0.00622715172704362 -13.7679589059219 
! Gamma         0                0                0                0                
! Port Impedance         50               0                50               0                
4.4                            0.00633642881438999 -14.6499037784082 0.993689885589541 -7.75277617924163 0.993689885589544 -7.7527761792415 0.00633249168401301 -14.6187102484579 
! Gamma         0                0                0                0                
! Port Impedance         50               0                50               0                
4.5                            0.0064423583129538 -15.4979004312452 0.993593179111425 -7.92496843326044 0.993593179111428 -7.92496843326033 0.00643825350456786 -15.4666783693018 
! Gamma         0                0                0                0                
! Port Impedance         50               0                50               0                
4.6                            0.00654869650230527 -16.3425419901804 0.99349711559544 -8.09703955051751 0.993497115595443 -8.09703955051742 0.00654442029066621 -16.3112945637597 
! Gamma         0                0                0                0                
! Port Impedance         50               0                50               0                
4.7                            0.00665542789377512 -17.1833122600227 0.993401733817017 -8.26899388318566 0.99340173381702 -8.26899388318558 0.00665097674058657 -17.1520424518412 
! Gamma         0                0                0                0                
! Port Impedance         50               0                50               0                
4.8                            0.00676253844691465 -18.0197440994123 0.993307067916762 -8.44083573193094 0.993307067916765 -8.44083573193088 0.00675790899581676 -17.9884547574361 
! Gamma         0                0                0                0                
! Port Impedance         50               0                50               0                
4.9                            0.00687001542950824 -18.851416300247 0.993213147664432 -8.61256933301161 0.993213147664435 -8.61256933301156 0.0068652045006667 -18.8201101788918 
! Gamma         0                0                0                0                
! Port Impedance         50               0                50               0                
5                              0.00697784728941945 -19.6779505744827 0.993119998721011 -8.78419884716048 0.993119998721014 -8.78419884716044 0.0069728518737937 -19.646630368159 
! Gamma         0                0                0                0                
! Port Impedance         50               0                50               0                
5.1                            0.00708602353747343 -20.4990086604734 0.993027642897035 -8.95572835010615 0.993027642897038 -8.95572835010612 0.00708084079083485 -20.4676770305303 
! Gamma         0                0                0                0                
! Port Impedance         50               0                50               0                
5.2                            0.00719453464059535 -21.3142895568824 0.992936098405632 -9.12716182459489 0.992936098405635 -9.12716182459488 0.00718916187735876 -21.2829491528786 
! Gamma         0                0                0                0                
! Port Impedance         50               0                50               0                
5.3                            0.00730337192445024 -22.123526888908 0.992845380108985 -9.29850315378144 0.992845380108987 -9.29850315378144 0.00729780661137465 -22.092180365024 
! Gamma         0                0                0                0                
! Port Impedance         50               0                50               0                
5.4                            0.00741252748486067 -22.9264864089576 0.992755499757204 -9.46975611586377 0.992755499757207 -9.46975611586378 0.0074067672346692 -22.8951364362632 
! Gamma         0                0                0                0                
! Port Impedance         50               0                50               0                
5.5                            0.00752199410731446 -23.7229636318633 0.992666466218792 -9.64092437984387 0.992666466218795 -9.64092437984389 0.00751603667227717 -23.6916129070662 
! Gamma         0                0                0                0                
! Port Impedance         50               0                50               0                
5.6                            0.00763176519391225 -24.5127816031432 0.992578285702077 -9.81201150230335 0.992578285702079 -9.81201150230338 0.00762560845943043 -24.481432854363 
! Gamma         0                0                0                0                
! Port Impedance         50               0                50               0                
5.7                            0.00774183469714355 -25.2957887975969 0.992490961967182 -9.98302092508986 0.992490961967184 -9.9830209250899 0.00773547667536898 -25.26444478764  
! Gamma         0                0                0                0                
! Port Impedance         50               0                50               0                
5.8                            0.00785219705991929 -26.0718571446125 0.992404496528213 -10.153955973817 0.992404496528215 -10.153955973817 0.00784563588343763 -26.0405206721613 
! Gamma         0                0                0                0                
! Port Impedance         50               0                50               0                
5.9                            0.00796284716132743 -26.8408801758927 0.992318888845502 -10.3248198570874 0.992318888845504 -10.3248198570874 0.0079560810769309 -26.8095540749668 
! Gamma         0                0                0                0                
! Port Impedance         50               0                50               0                
6                              0.00807378026761611 -27.6027712908368 0.992234136507845 -10.4956156663552 0.992234136507847 -10.4956156663553 0.00806680763018678 -27.5714584288367 
! Gamma         0                0                0                0                
! Port Impedance         50               0                50               0                
6.1                            0.0081849919879452 -28.3574621345034 0.992150235404747 -10.6663463763509 0.992150235404749 -10.6663463763509 0.00817781125446727 -28.3261654091047 
! Gamma         0                0                0                0                
! Port Impedance         50               0                50               0                
6.2                            0.00829647823448212 -29.1049010828939 0.992067179888819 -10.8370148459962 0.992067179888821 -10.8370148459963 0.00828908795819823 -29.0736234180218 
! Gamma         0                0                0                0                
! Port Impedance         50               0                50               0                
6.3                            0.00840823518645084 -29.8450518302105 0.991984962928463 -11.0076238197461 0.991984962928464 -11.0076238197462 0.00840063401117521 -29.8137961712934 
! Gamma         0                0                0                0                
! Port Impedance         50               0                50               0                
6.4                            0.00852025925777447 -30.5778920727383 0.991903576251102 -11.178175929296 0.991903576251104 -11.1781759292961 0.00851244591237293 -30.5466613814102 
! Gamma         0                0                0                0                
! Port Impedance         50               0                50               0                
6.5                            0.00863254706798114 -31.3034122840581 0.99182301047722 -11.3486736956012 0.991823010477221 -11.3486736956013 0.00862452036102638 -31.272209532454 
! Gamma         0                0                0                0                
! Port Impedance         50               0                50               0                
6.6                            0.00874509541607052 -32.0216145763997 0.991743255245511 -11.5191195311601 0.991743255245512 -11.5191195311602 0.00873685423067873 -31.9904427411678 
! Gamma         0                0                0                0                
! Port Impedance         50               0                50               0                
6.7                            0.00885790125706408 -32.7325116430856 0.991664299329478 -11.6895157425148 0.99166429932948 -11.6895157425149 0.00884944454591761 -32.7013736992202 
! Gamma         0                0                0                0                
! Port Impedance         50               0                50               0                
6.8                            0.00897096168098583 -33.4361257771833 0.991586130745839 -11.8598645329311 0.99158613074584 -11.8598645329312 0.00896228846154521 -33.4050246917664 
! Gamma         0                0                0                0                
! Port Impedance         50               0                50               0                
6.9                            0.00908427389404274 -34.1324879616676 0.99150873685508 -12.0301680052213 0.991508736855081 -12.0301680052214 0.00907538324394984 -34.1014266875934 
! Gamma         0                0                0                0                
! Port Impedance         50               0                50               0                
7                              0.00919783520179428 -34.8216370265943 0.991432104454562 -12.2004281646773 0.991432104454563 -12.2004281646774 0.00918872625446747 -34.7906184963374 
! Gamma         0                0                0                0                
! Port Impedance         50               0                50               0                
7.1                            0.00931164299411927 -35.5036188689921 0.991356219864525 -12.3706469220865 0.991356219864525 -12.3706469220866 0.00930231493454045 -35.4726459884712 
! Gamma         0                0                0                0                
! Port Impedance         50               0                50               0                
7.2                            0.00942569473180597 -36.1784857313885 0.991281069007381 -12.5408260968044 0.991281069007381 -12.5408260968045 0.00941614679249842 -36.1475613739658 
! Gamma         0                0                0                0                
! Port Impedance         50               0                50               0                
7.3                            0.00953998793460669 -36.8462955350958 0.991206637480662 -12.7109674198622 0.991206637480662 -12.7109674198623 0.0095302193918021 -36.815422535748 
! Gamma         0                0                0                0                
! Port Impedance         50               0                50               0                
7.4                            0.00965452017061347 -37.5071112645924 0.991132910623986 -12.8810725370891 0.991132910623986 -12.8810725370892 0.00964453034060574 -37.4762924142788 
! Gamma         0                0                0                0                
! Port Impedance         50               0                50               0                
7.5                            0.00976928904682414 -38.1610003995384 0.991059873580395 -13.0511430122339 0.991059873580395 -13.051143012234 0.00975907728250712 -38.1302384397877 
! Gamma         0                0                0                0                
! Port Impedance         50               0                50               0                
7.6                            0.0098842922007806 -38.8080343911629 0.990987511352416 -13.2211803300685 0.990987511352416 -13.2211803300686 0.00987385788836655 -38.7773320088958 
! Gamma         0                0                0                0                
! Port Impedance         50               0                50               0                
7.7                            0.00999952729317241 -39.4482881799557 0.990915808853167 -13.3911858994629 0.990915808853167 -13.3911858994631 0.00998886984908735 -39.4176480025548 
! Gamma         0                0                0                0                
! Port Impedance         50               0                50               0                
7.8                            0.0101149920013086 -40.0818397517788 0.990844750952845 -13.5611610564203 0.990844750952845 -13.5611610564204 0.0101041108692608 -40.0512643424141 
! Gamma         0                0                0                0                
! Port Impedance         50               0                50               0                
7.9                            0.0102306840133701 -40.7087697296938 0.990774322520892 -13.7311070670611 0.990774322520892 -13.7311070670612 0.0102195786615872 -40.6782615829107 
! Gamma         0                0                0                0                
! Port Impedance         50               0                50               0                
8                              0.0103466010233637 -41.3291609989708 0.990704508464132 -13.9010251305511 0.990704508464131 -13.9010251305512 0.0103352709419946 -41.2987225365415 
! Gamma         0                0                0                0                
! Port Impedance         50               0                50               0                
8.1                            0.0104627407267061 -41.9430983629049 0.990635293761171 -14.0709163819653 0.99063529376117 -14.0709163819654 0.0104511854253821 -41.9127319299465 
! Gamma         0                0                0                0                
! Port Impedance         50               0                50               0                
8.2                            0.0105791008163726 -42.5506682272232 0.990566663493314 -14.2407818950825 0.990566663493313 -14.2407818950826 0.0105673198219245 -42.5203760885796 
! Gamma         0                0                0                0                
! Port Impedance         50               0                50               0                
8.3                            0.0106956789795533 -43.1519583110083 0.990498602872262 -14.4106226851072 0.990498602872261 -14.4106226851073 0.0106836718338785 -43.1217426478947 
! Gamma         0                0                0                0                
! Port Impedance         50               0                50               0                
8.4                            0.0108124728947637 -43.7470573822033 0.990431097264813 -14.5804397113147 0.990431097264812 -14.5804397113148 0.0108002391528389 -43.7169202891092 
! Gamma         0                0                0                0                
! Port Impedance         50               0                50               0                
8.5                            0.0109294802293619 -44.3360550158933 0.990364132214811 -14.7502338796178 0.99036413221481 -14.7502338796179 0.0109170194573968 -44.3059984977401 
! Gamma         0                0                0                0                
! Port Impedance         50               0                50               0                
8.6                            0.0110466986374302 -44.9190413736806 0.990297693462535 -14.9200060450523 0.990297693462534 -14.9200060450524 0.0110340104111576 -44.8890673432269 
! Gamma         0                0                0                0                
! Port Impedance         50               0                50               0                
8.7                            0.0111641257579824 -45.4961070025845 0.990231766961745 -15.0897570141819 0.990231766961744 -15.089757014182 0.0111512096610788 -45.4662172780753 
! Gamma         0                0                0                0                
! Port Impedance         50               0                50               0                
8.8                            0.011281759213462 -46.0673426520076 0.990166338894554 -15.2594875474205 0.990166338894553 -15.2594875474206 0.011268614836096 -46.0375389550593 
! Gamma         0                0                0                0                
! Port Impedance         50               0                50               0                
8.9                            0.0113995966085009 -46.6328391074085 0.990101395684322 -15.4291983612721 0.99010139568432 -15.4291983612722 0.0113862235460017 -46.6031230611235 
! Gamma         0                0                0                0                
! Port Impedance         50               0                50               0                
9                              0.0115176355289089 -47.1926870394183 0.990036924006706 -15.5988901304901 0.990036924006704 -15.5988901304902 0.0115040333805537 -47.1630601667215 
! Gamma         0                0                0                0                
! Port Impedance         50               0                50               0                
9.1                            0.0116358735408705 -47.7469768672249 0.989972910799053 -15.768563490155 0.989972910799052 -15.7685634901551 0.0116220419087835 -47.7174405894156 
! Gamma         0                0                0                0                
! Port Impedance         50               0                50               0                
9.2                            0.0117543081903253 -48.295798635134 0.98990934326825 -15.9382190376723 0.989909343268248 -15.9382190376723 0.011740246678485 -48.2663542706457 
! Gamma         0                0                0                0                
! Port Impedance         50               0                50               0                
9.3                            0.0118729370025116 -48.8392419012928 0.98984620889717 -16.1078573346921 0.989846208897168 -16.1078573346921 0.0118586452158623 -48.8098906646523 
! Gamma         0                0                0                0                
! Port Impedance         50               0                50               0                
9.4                            0.0119917574816556 -49.3773956376331 0.989783495449855 -16.277478908952 0.989783495449853 -16.2774789089521 0.0119772350253178 -49.3481386386124 
! Gamma         0                0                0                0                
! Port Impedance         50               0                50               0                
9.5                            0.0121107671107888 -49.9103481401613 0.989721190975522 -16.4470842560446 0.98972119097552 -16.4470842560446 0.0120960135893651 -49.881186383115 
! Gamma         0                0                0                0                
! Port Impedance         50               0                50               0                
9.6                            0.0122299633516792 -50.4381869487821 0.989659283811517 -16.6166738411108 0.989659283811515 -16.6166738411109 0.0122149783686509 -50.4091213321618 
! Gamma         0                0                0                0                
! Port Impedance         50               0                50               0                
9.7                            0.0123493436448633 -50.9609987759051 0.989597762585313 -16.7862481004634 0.989597762585311 -16.7862481004635 0.0123341268020749 -50.9320300919448 
! Gamma         0                0                0                0                
! Port Impedance         50               0                50               0                
9.8                            0.0124689054097666 -51.4788694431351 0.989536616215629 -16.9558074431396 0.989536616215627 -16.9558074431397 0.0124534563069924 -51.4499983776991 
! Gamma         0                0                0                0                
! Port Impedance         50               0                50               0                
9.9                            0.0125886460449019 -51.9918838253995 0.989475833912778 -17.125352252387 0.989475833912776 -17.1253522523871 0.0125729642794925 -51.9631109579864 
! Gamma         0                0                0                0                
! Port Impedance         50               0                50               0                
10                             0.0127085629281362 -52.5001258019129 0.989415405178299 -17.2948828870847 0.989415405178297 -17.2948828870847 0.0126926480947407 -52.4714516058087 
! Gamma         0                0                0                0                
! Port Impedance         50               0                50               0                
10.1                           0.0128286534170168 -53.0036782134237 0.989355319803951 -17.4643996831006 0.989355319803949 -17.4643996831007 0.0128125051073767 -52.9751030559972 
! Gamma         0                0                0                0                
! Port Impedance         50               0                50               0                
10.2                           0.0129489148491502 -53.5026228252276 0.989295567870147 -17.6339029545888 0.989295567870145 -17.6339029545889 0.0129325326519615 -53.4741469683608 
! Gamma         0                0                0                0                
! Port Impedance         50               0                50               0                
10.3                           0.0130693445426252 -53.9970402954716 0.989236139743871 -17.8033929952278 0.989236139743869 -17.8033929952278 0.0130527280434663 -53.96866389612  
! Gamma         0                0                0                0                
! Port Impedance         50               0                50               0                
10.4                           0.0131899397964756 -54.4870101483073 0.989177026076141 -17.9728700794023 0.989177026076139 -17.9728700794023 0.0131730885777961 -54.4587332591816 
! Gamma         0                0                0                0                
! Port Impedance         50               0                50               0                
10.5                           0.0133106978911758 -54.972610751485 0.989118217799075 -18.1423344633311 0.989118217799073 -18.1423344633311 0.0132936115323445 -54.9444333218506 
! Gamma         0                0                0                0                
! Port Impedance         50               0                50               0                
10.6                           0.0134316160891649 -55.4539192980109 0.989059706122596 -18.3117863861422 0.989059706122595 -18.3117863861422 0.0134142941665727 -55.4258411745973 
! Gamma         0                0                0                0                
! Port Impedance         50               0                50               0                
10.7                           0.0135526916353949 -55.9310117915183 0.989001482530829 -18.4812260708983 0.989001482530827 -18.4812260708983 0.0135351337226103 -55.9030327195331 
! Gamma         0                0                0                0                
! Port Impedance         50               0                50               0                
10.8                           0.0136739217578987 -56.4039630350288 0.988943538778218 -18.6506537255741 0.988943538778216 -18.6506537255741 0.0136561274258725 -56.3760826592708 
! Gamma         0                0                0                0                
! Port Impedance         50               0                50               0                
10.9                           0.0137953036683743 -56.8728466228055 0.988885866885415 -18.8200695439869 0.988885866885413 -18.8200695439869 0.0137772724856911 -56.8450644888718 
! Gamma         0                0                0                0                
! Port Impedance         50               0                50               0                
11                             0.0139168345627824 -57.337734935022 0.98882845913496 -18.9894737066838 0.988828459134958 -18.9894737066838 0.013898566095956 -57.3100504906025 
! Gamma         0                0                0                0                
! Port Impedance         50               0                50               0                
11.1                           0.0140385116219548 -57.7986991349915 0.988771308066781 -19.1588663817865 0.988771308066779 -19.1588663817866 0.0140200054357644 -57.7711117312469 
! Gamma         0                0                0                0                
! Port Impedance         50               0                50               0                
11.2                           0.0141603320122096 -58.2558091687212 0.988714406473562 -19.328247725795 0.98871440647356 -19.328247725795 0.0141415876700748 -58.228318061739 
! Gamma         0                0                0                0                
! Port Impedance         50               0                50               0                
11.3                           0.0142822928859729 -58.7091337665742 0.988657747395971 -19.4976178843528 0.988657747395969 -19.4976178843528 0.0142633099503649 -58.6817381188981 
! Gamma         0                0                0                0                
! Port Impedance         50               0                50               0                
11.4                           0.0144043913824036 -59.1587404468384 0.988601324117801 -19.6669769929761 0.988601324117799 -19.6669769929761 0.0143851694152899 -59.1314393290652 
! Gamma         0                0                0                0                
! Port Impedance         50               0                50               0                
11.5                           0.01452662462802 -59.6046955210158 0.988545130161031 -19.8363251777456 0.988545130161029 -19.8363251777456 0.0145071631913407 -59.5774879134576 
! Gamma         0                0                0                0                
! Port Impedance         50               0                50               0                
11.6                           0.0146489897373268 -60.0470641006642 0.988489159280816 -20.0056625559668 0.988489159280815 -20.0056625559668 0.0146292883934996 -60.019948895069 
! Gamma         0                0                0                0                
! Port Impedance         50               0                50               0                
11.7                           0.0147714838134402 -60.4859101056305 0.988433405460451 -20.1749892367963 0.988433405460449 -20.1749892367962 0.0147515421258928 -60.4588861069589 
! Gamma         0                0                0                0                
! Port Impedance         50               0                50               0                
11.8                           0.0148941039487115 -60.9212962735335 0.988377862906284 -20.3443053218378 0.988377862906283 -20.3443053218378 0.0148739214824381 -60.8943622017857 
! Gamma         0                0                0                0                
! Port Impedance         50               0                50               0                
11.9                           0.0150168472253455 -61.3532841703602 0.988322526042638 -20.5136109057095 0.988322526042636 -20.5136109057095 0.0149964235474874 -61.326438662451 
! Gamma         0                0                0                0                
! Port Impedance         50               0                50               0                
12                             0.015139710716016 -61.7819342020542 0.988267389506709 -20.6829060765827 0.988267389506708 -20.6829060765827 0.0151190453964615 -61.7551758137306 
! Gamma         0                0                0                0                
! Port Impedance         50               0                50               0                
12.1                           0.0152626914844742 -62.207305626982 0.988212448143487 -20.8521909166933 0.988212448143486 -20.8521909166933 0.0152417840964787 -62.1806328347811 
! Gamma         0                0                0                0                
! Port Impedance         50               0                50               0                
12.2                           0.0153857865861521 -62.6294565691737 0.988157697000686 -21.0214655028292 0.988157697000685 -21.0214655028292 0.0153646367069746 -62.6028677724161 
! Gamma         0                0                0                0                
! Port Impedance         50               0                50               0                
12.3                           0.0155089930687577 -63.048444032242 0.988103131323706 -21.1907299067923 0.988103131323705 -21.1907299067923 0.0154876002803131 -63.021937555058 
! Gamma         0                0                0                0                
! Port Impedance         50               0                50               0                
12.4                           0.0156323079728636 -63.4643239138921 0.988048746550625 -21.3599841958378 0.988048746550623 -21.3599841958377 0.0156106718623884 -63.437898007277 
! Gamma         0                0                0                0                
! Port Impedance         50               0                50               0                
12.5                           0.0157557283324867 -63.877151020941 0.987994538307235 -21.5292284330911 0.987994538307233 -21.5292284330911 0.0157338484932172 -63.8508038648367 
! Gamma         0                0                0                0                
! Port Impedance         50               0                50               0                
12.6                           0.0158792511756601 -64.2869790847735 0.987940502402125 -21.6984626779449 0.987940502402124 -21.6984626779449 0.0158571272075208 -64.2607087901727 
! Gamma         0                0                0                0                
! Port Impedance         50               0                50               0                
12.7                           0.0160028735249955 -64.6938607771657 0.987886634821817 -21.8676869864345 0.987886634821816 -21.8676869864345 0.0159805050352964 -64.667665388236 
! Gamma         0                0                0                0                
! Port Impedance         50               0                50               0                
12.8                           0.0161265923982362 -65.097847726415 0.987832931725954 -22.0369014115957 0.987832931725953 -22.0369014115956 0.0161039790023781 -65.0717252226407 
! Gamma         0                0                0                0                
! Port Impedance         50               0                50               0                
12.9                           0.016250404808801 -65.4989905337197 0.987779389442557 -22.2061060038037 0.987779389442556 -22.2061060038037 0.016227546130987 -65.4729388320567 
! Gamma         0                0                0                0                
! Port Impedance         50               0                50               0                
13                             0.0163743077663181 -65.8973387897548 0.987726004463341 -22.3753008110953 0.98772600446334 -22.3753008110953 0.0163512034402692 -65.8713557467986 
! Gamma         0                0                0                0                
! Port Impedance         50               0                50               0                
13.1                           0.0164982982771488 -66.2929410913997 0.987672773439096 -22.5444858794741 0.987672773439095 -22.5444858794741 0.0164749479468241 -66.2670245055609 
! Gamma         0                0                0                0                
! Port Impedance         50               0                50               0                
13.2                           0.0166223733449008 -66.6858450585711 0.98761969317515 -22.7136612532005 0.987619693175149 -22.7136612532005 0.0165987766652194 -66.659992672259 
! Gamma         0                0                0                0                
! Port Impedance         50               0                50               0                
13.3                           0.0167465299709319 -67.0760973511242 0.987566760626884 -22.882826975067 0.987566760626883 -22.8828269750669 0.0167226866084962 -67.0503068529335 
! Gamma         0                0                0                0                
! Port Impedance         50               0                50               0                
13.4                           0.0168707651548426 -67.4637436857859 0.987513972895341 -23.0519830866588 0.98751397289534 -23.0519830866587 0.0168466747886617 -67.4380127126862 
! Gamma         0                0                0                0                
! Port Impedance         50               0                50               0                
13.5                           0.0169950758949583 -67.8488288530865 0.987461327222895 -23.2211296286015 0.987461327222894 -23.2211296286015 0.0169707382171705 -67.8231549926111 
! Gamma         0                0                0                0                
! Port Impedance         50               0                50               0                
13.6                           0.0171194591888013 -68.2313967342619 0.987408820989002 -23.3902666407958 0.987408820989001 -23.3902666407958 0.0170948739053939 -68.2057775266947 
! Gamma         0                0                0                0                
! Port Impedance         50               0                50               0                
13.7                           0.0172439120335515 -68.6114903180991 0.987356451706024 -23.5593941626398 0.987356451706023 -23.5593941626398 0.0172190788650787 -68.585923258657 
! Gamma         0                0                0                0                
! Port Impedance         50               0                50               0                
13.8                           0.0173684314264973 -68.9891517177001 0.987304217015134 -23.7285122332401 0.987304217015133 -23.7285122332401 0.017343350108793 -68.9636342587096 
! Gamma         0                0                0                0                
! Port Impedance         50               0                50               0                
13.9                           0.0174930143654751 -69.3644221871446 0.987252114682294 -23.8976208916116 0.987252114682293 -23.8976208916115 0.0174676846503618 -69.3389517402104 
! Gamma         0                0                0                0                
! Port Impedance         50               0                50               0                
14                             0.0176176578492989 -69.7373421380299 0.987200142594312 -24.0667201768668 0.987200142594311 -24.0667201768667 0.0175920795052903 -69.7119160761934 
! Gamma         0                0                0                0                
! Port Impedance         50               0                50               0                
14.1                           0.0177423588781787 -70.1079511558718 0.987148298754972 -24.2358101283955 0.987148298754972 -24.2358101283954 0.017716531691176 -70.0825668157591 
! Gamma         0                0                0                0                
! Port Impedance         50               0                50               0                
14.2                           0.0178671144541291 -70.4762880163512 0.987096581281248 -24.4048907860344 0.987096581281248 -24.4048907860344 0.0178410382281099 -70.4509427003074 
! Gamma         0                0                0                0                
! Port Impedance         50               0                50               0                
14.3                           0.0179919215813667 -70.8423907013914 0.987044988399584 -24.5739621902285 0.987044988399584 -24.5739621902285 0.0179655961390662 -70.8170816796013 
! Gamma         0                0                0                0                
! Port Impedance         50               0                50               0                
14.4                           0.0181167772666978 -71.2062964150549 0.986993518442257 -24.7430243821827 0.986993518442257 -24.7430243821827 0.0180902024502809 -71.1810209276476 
! Gamma         0                0                0                0                
! Port Impedance         50               0                50               0                
14.5                           0.0182416785198952 -71.5680415992491 0.98694216984381 -24.9120774040065 0.986942169843809 -24.9120774040065 0.0182148541916196 -71.5427968583851 
! Gamma         0                0                0                0                
! Port Impedance         50               0                50               0                
14.6                           0.0183666223540653 -71.9276619492301 0.98689094113756 -25.0811212988499 0.986890941137559 -25.0811212988499 0.0183395483969344 -71.9024451411708 
! Gamma         0                0                0                0                
! Port Impedance         50               0                50               0                
14.7                           0.018491605786005 -72.2851924288983 0.986839830952181 -25.2501561110328 0.98683983095218 -25.2501561110327 0.0184642821044103 -72.2600007160554 
! Gamma         0                0                0                0                
! Port Impedance         50               0                50               0                
14.8                           0.0186166258365482 -72.6406672858771 0.986788838008353 -25.4191818861664 0.986788838008352 -25.4191818861664 0.0185890523569007 -72.6154978088414 
! Gamma         0                0                0                0                
! Port Impedance         50               0                50               0                
14.9                           0.0187416795309029 -72.9941200663695 0.986737961115488 -25.5881986712688 0.986737961115488 -25.5881986712688 0.0187138562022528 -72.9689699459183 
! Gamma         0                0                0                0                
! Port Impedance         50               0                50               0                
15                             0.0188667638989786 -73.3455836297881 0.986687199168522 -25.7572065148735 0.986687199168522 -25.7572065148735 0.0188386906936226 -73.3204499688691 
! Gamma         0                0                0                0                
! Port Impedance         50               0                50               0                
15.1                           0.0189918759757032 -73.6950901631522 0.986636551144774 -25.9262054671322 0.986636551144774 -25.9262054671322 0.0189635528897801 -73.6699700488442 
! Gamma         0                0                0                0                
! Port Impedance         50               0                50               0                
15.2                           0.0191170128013317 -74.0426711952517 0.986586016100876 -26.0951955799116 0.986586016100876 -26.0951955799116 0.019088439855404 -74.0175617007008 
! Gamma         0                0                0                0                
! Port Impedance         50               0                50               0                
15.3                           0.0192421714217446 -74.388357610572 0.986535593169766 -26.2641769068852 0.986535593169766 -26.2641769068852 0.0192133486613673 -74.3632557969022 
! Gamma         0                0                0                0                
! Port Impedance         50               0                50               0                
15.4                           0.019367348888737 -74.7321796629804 0.98648528155775 -26.433149503619 0.98648528155775 -26.433149503619 0.0193382763850124 -74.7070825811777 
! Gamma         0                0                0                0                
! Port Impedance         50               0                50               0                
15.5                           0.0194925422602995 -75.0741669891711 0.986435080541619 -26.6021134276529 0.986435080541619 -26.6021134276529 0.0194632201104183 -75.0490716819413 
! Gamma         0                0                0                0                
! Port Impedance         50               0                50               0                
15.6                           0.0196177486008891 -75.4143486218682 0.986384989465836 -26.7710687385771 0.986384989465837 -26.7710687385771 0.0195881769286565 -75.389252125467 
! Gamma         0                0                0                0                
! Port Impedance         50               0                50               0                
15.7                           0.0197429649816919 -75.7527530027873 0.986335007739784 -26.9400154981039 0.986335007739785 -26.9400154981039 0.0197131439380396 -75.727652348822 
! Gamma         0                0                0                0                
! Port Impedance         50               0                50               0                
15.8                           0.0198681884808771 -76.0894079953545 0.986285134835066 -27.1089537701355 0.986285134835066 -27.1089537701356 0.0198381182443599 -76.0643002125571 
! Gamma         0                0                0                0                
! Port Impedance         50               0                50               0                
15.9                           0.0199934161838423 -76.4243408971844 0.986235370282871 -27.2778836208272 0.986235370282871 -27.2778836208273 0.01996309696112 -76.3992230131555 
! Gamma         0                0                0                0                
! Port Impedance         50               0                50               0                
16                             0.0201186451834507 -76.7575784523168 0.986185713671393 -27.446805118647 0.986185713671394 -27.4468051186471 0.020088077209754 -76.7324474952404 
! Gamma         0                0                0                0                
! Port Impedance         50               0                50               0                
16.1                           0.0202438725802599 -77.0891468632155 0.98613616464331 -27.6157183344315 0.986136164643311 -27.6157183344315 0.0202130561198409 -77.0639998635424 
! Gamma         0                0                0                0                
! Port Impedance         50               0                50               0                
16.2                           0.0203690954827425 -77.4190718025281 0.98608672289331 -27.7846233414378 0.98608672289331 -27.7846233414379 0.0203380308293098 -77.39390579463  
! Gamma         0                0                0                0                
! Port Impedance         50               0                50               0                
16.3                           0.0204943110074996 -77.74737842461  0.986037388165676 -27.9535202153931 0.986037388165677 -27.9535202153931 0.020462998484637 -77.7221904484028 
! Gamma         0                0                0                0                
! Port Impedance         50               0                50               0                
16.4                           0.0206195162794654 -78.0740913768159 0.985988160251925 -28.1224090345393 0.985988160251926 -28.1224090345393 0.0205879562410349 -78.0488784793508 
! Gamma         0                0                0                0                
! Port Impedance         50               0                50               0                
16.5                           0.0207447084321054 -78.3992348105579 0.985939038988489 -28.2912898796764 0.985939038988489 -28.2912898796764 0.0207129012626335 -78.3739940475825 
! Gamma         0                0                0                0                
! Port Impedance         50               0                50               0                
16.6                           0.0208698846076061 -78.722832392136 0.985890024254454 -28.4601628342015 0.985890024254454 -28.4601628342015 0.0208378307226548 -78.6975608296231 
! Gamma         0                0                0                0                
! Port Impedance         50               0                50               0                
16.7                           0.0209950419570588 -79.0449073133417 0.985841115969343 -28.629027984146 0.985841115969343 -28.629027984146 0.0209627418035788 -79.0196020289863 
! Gamma         0                0                0                0                
! Port Impedance         50               0                50               0                
16.8                           0.0211201776406347 -79.3654823018377 0.985792314090949 -28.7978854182092 0.985792314090949 -28.7978854182093 0.0210876316973038 -79.3401403865228 
! Gamma         0                0                0                0                
! Port Impedance         50               0                50               0                
16.9                           0.0212452888277544 -79.6845796313176 0.985743618613209 -28.9667352277905 0.98574361861321 -28.9667352277905 0.0212124976052984 -79.6591981905474 
! Gamma         0                0                0                0                
! Port Impedance         50               0                50               0                
17                             0.0213703726972501 -80.0022211314477 0.985695029564129 -29.1355775070178 0.98569502956413 -29.1355775070178 0.0213373367387474 -79.9767972867487 
! Gamma         0                0                0                0                
! Port Impedance         50               0                50               0                
17.1                           0.0214954264375211 -80.3184281975943 0.985646547003748 -29.3044123527746 0.985646547003749 -29.3044123527746 0.021462146318691 -80.2929590878849 
! Gamma         0                0                0                0                
! Port Impedance         50               0                50               0                
17.2                           0.0216204472466829 -80.6332218003402 0.985598171022147 -29.4732398647247 0.985598171022148 -29.4732398647247 0.0215869235761576 -80.6077045832675 
! Gamma         0                0                0                0                
! Port Impedance         50               0                50               0                
17.3                           0.0217454323327104 -80.9466224947928 0.985549901737498 -29.6420601453343 0.985549901737498 -29.6420601453343 0.0217116657522899 -80.9210543480376 
! Gamma         0                0                0                0                
! Port Impedance         50               0                50               0                
17.4                           0.0218703789135743 -81.2586504296883 0.985501739294155 -29.8108732998924 0.985501739294156 -29.8108732998925 0.0218363700984656 -81.233028552238 
! Gamma         0                0                0                0                
! Port Impedance         50               0                50               0                
17.5                           0.0219952842173719 -81.5693253562943 0.985453683860784 -29.9796794365297 0.985453683860785 -29.9796794365297 0.0219610338764113 -81.5436469696838 
! Gamma         0                0                0                0                
! Port Impedance         50               0                50               0                
17.6                           0.0221201454824525 -81.8786666371152 0.985405735628531 -30.1484786662343 0.985405735628532 -30.1484786662344 0.0220856543583117 -81.8529289866358 
! Gamma         0                0                0                0                
! Port Impedance         50               0                50               0                
17.7                           0.022244959957536 -82.1866932544034 0.985357894809227 -30.3172711028674 0.985357894809228 -30.3172711028675 0.0222102288269119 -82.1608936102794 
! Gamma         0                0                0                0                
! Port Impedance         50               0                50               0                
17.8                           0.0223697249018269 -82.4934238184793 0.985310161633631 -30.486056863176 0.985310161633632 -30.4860568631761 0.0223347545756155 -82.4675594770139 
! Gamma         0                0                0                0                
! Port Impedance         50               0                50               0                
17.9                           0.0224944375851228 -82.7988765758652 0.985262536349707 -30.6548360668043 0.985262536349708 -30.6548360668044 0.0224592289085765 -82.7729448605539 
! Gamma         0                0                0                0                
! Port Impedance         50               0                50               0                
18                             0.0226190952879174 -83.1030694172347 0.985215019220938 -30.8236088363038 0.985215019220939 -30.8236088363038 0.0225836491407866 -83.0770676798477 
! Gamma         0                0                0                0                
! Port Impedance         50               0                50               0                
18.1                           0.0227436953014985 -83.4060198851824 0.98516761052467 -30.9923752971416 0.98516761052467 -30.9923752971417 0.0227080125981574 -83.3799455068158 
! Gamma         0                0                0                0                
! Port Impedance         50               0                50               0                
18.2                           0.0228682349280413 -83.7077451818167 0.98512031055049 -31.1611355777077 0.985120310550491 -31.1611355777078 0.0228323166175975 -83.6815955739128 
! Gamma         0                0                0                0                
! Port Impedance         50               0                50               0                
18.3                           0.0229927114806968 -84.0082621761805 0.985073119598643 -31.3298898093204 0.985073119598643 -31.3298898093204 0.0229565585470854 -83.9820347815166 
! Gamma         0                0                0                0                
! Port Impedance         50               0                50               0                
18.4                           0.023117122283675 -84.3075874115003 0.985026037978466 -31.4986381262305 0.985026037978467 -31.4986381262305 0.0230807357457378 -84.2812797051483 
! Gamma         0                0                0                0                
! Port Impedance         50               0                50               0                
18.5                           0.0232414646723248 -84.6057371122715 0.984979066006868 -31.6673806656248 0.984979066006869 -31.6673806656249 0.023204845583873 -84.5793466025256 
! Gamma         0                0                0                0                
! Port Impedance         50               0                50               0                
18.6                           0.0233657359932084 -84.902727191179 0.984932204006829 -31.8361175676279 0.984932204006829 -31.836117567628 0.023328885443071 -84.8762514204546 
! Gamma         0                0                0                0                
! Port Impedance         50               0                50               0                
18.7                           0.0234899336041721 -85.198573255859 0.984885452305928 -32.0048489753026 0.984885452305928 -32.0048489753026 0.0234528527162286 -85.1720098015615 
! Gamma         0                0                0                0                
! Port Impedance         50               0                50               0                
18.8                           0.0236140548744127 -85.4932906155057 0.984838811234909 -32.1735750346498 0.98483881123491 -32.1735750346498 0.0235767448076113 -85.4666370908694 
! Gamma         0                0                0                0                
! Port Impedance         50               0                50               0                
18.9                           0.0237380971845402 -85.7868942873237 0.984792281126264 -32.3422958946071 0.984792281126265 -32.3422958946071 0.0237005591329011 -85.7601483422224 
! Gamma         0                0                0                0                
! Port Impedance         50               0                50               0                
19                             0.0238620579266366 -86.0793990028324 0.984745862312847 -32.5110117070463 0.984745862312847 -32.5110117070463 0.0238242931192406 -86.05255832456  
! Gamma         0                0                0                0                
! Port Impedance         50               0                50               0                
19.1                           0.0239859345043109 -86.3708192140229 0.98469955512651 -32.6797226267698 0.984699555126511 -32.6797226267699 0.0239479442052737 -86.3438815280467 
! Gamma         0                0                0                0                
! Port Impedance         50               0                50               0                
19.2                           0.0241097243327505 -86.6611690993731 0.984653359896776 -32.8484288115067 0.984653359896777 -32.8484288115067 0.0240715098411828 -86.6341321700581 
! Gamma         0                0                0                0                
! Port Impedance         50               0                50               0                
19.3                           0.0242334248387695 -86.9504625697223 0.984607276949521 -33.0171304219068 0.984607276949521 -33.0171304219068 0.024194987488723 -86.9233242010279 
! Gamma         0                0                0                0                
! Port Impedance         50               0                50               0                
19.4                           0.024357033460853 -87.2387132740089 0.984561306605691 -33.1858276215353 0.984561306605691 -33.1858276215353 0.0243183746212529 -87.2114713101581 
! Gamma         0                0                0                0                
! Port Impedance         50               0                50               0                
19.5                           0.0244805476491995 -87.5259346048751 0.984515449180038 -33.354520576865 0.984515449180038 -33.354520576865 0.0244416687237626 -87.4985869309964 
! Gamma         0                0                0                0                
! Port Impedance         50               0                50               0                
19.6                           0.0246039648657583 -87.8121397041401 0.984469704979882 -33.5232094572692 0.984469704979882 -33.5232094572692 0.0245648672928986 -87.7846842468828 
! Gamma         0                0                0                0                
! Port Impedance         50               0                50               0                
19.7                           0.0247272825842659 -88.0973414681459 0.984424074303893 -33.6918944350128 0.984424074303893 -33.6918944350128 0.0246879678369862 -88.0697761962693 
! Gamma         0                0                0                0                
! Port Impedance         50               0                50               0                
19.8                           0.0248504982902784 -88.3815525529787 0.984378557440892 -33.8605756852428 0.984378557440892 -33.8605756852428 0.0248109678760491 -88.3538754779143 
! Gamma         0                0                0                0                
! Port Impedance         50               0                50               0                
19.9                           0.024973609481201 -88.6647853795678 0.984333154668681 -34.0292533859789 0.984333154668682 -34.029253385979 0.0249338649418264 -88.6369945559565 
! Gamma         0                0                0                0                
! Port Impedance         50               0                50               0                
20                             0.025096613666316 -88.9470521386652 0.984287866252889 -34.1979277181022 0.984287866252889 -34.1979277181022 0.0250566565777878 -88.9191456648695 
! Gamma         -0               -0               -0               -0               
! Port Impedance         50               0                50               0                
