! Touchstone file exported from HFSS 2026.1.0
!        File:           C:/ffzhzh/LocalFiles/Ansys_Project_Files/temp_train_TMRDL_167_1782983415_41620.aedt
!        Generated:      05:11:23 PM Jul  2, 2026
!        Design:         TMRDL
!        Project:        temp_train_TMRDL_167_1782983415_41620
!
! Variables:
!        h_bsmrdl = 2um
!        h_ox = 20um
!        h_rdl = 5um
!        h_sub = 80um
!        h_tmrdl = 5.94um
!        h_tsv = 80um
!        h_via = 3um
!        l_bsmrdl = 300um
!        l_sub = 581.61um
!        l_tmrdl = 181.61um
!        m_sub = 200um
!        pitch = 57.93um
!        r_tsv = 6um
!        s_tmrdl = 10um
!        w_bsmrdl = 18um
!        w_sub = 500um
!        w_tmrdl = 15.73um
!        x_tsv_center1 = 189.475um
!        x_tsv_center2 = 507.475um
!        x_tsv_center3 = 704.815um
!        x_tsv_center4 = 1022.815um
!        x_tsv_center5 = 1220.155um
!        x_tsv_center6 = 1538.155um
!
# GHz S MA R 50.000000
! Terminal data exported
! Port[1] = TM_RDL1_1_T1
! Port[2] = TM_RDL1_1_T2
0.1                            0.00140113379346471 55.4624242500724 0.999206815838127 -0.0918613350996856 0.999206815838127 -0.0918613350996879 0.00140113379968013 55.4624177691577 
! Gamma         0                0                0                0                
! Port Impedance         50               0                50               0                
0.2                            0.00244252177066741 70.3023607600783 0.999184807872511 -0.183399669603114 0.999184807872511 -0.183399669603111 0.00244252411822231 70.3024484009707 
! Gamma         0                0                0                0                
! Port Impedance         50               0                50               0                
0.3                            0.00353935701111592 75.8890985749662 0.999152790713399 -0.274412924869237 0.999152790713399 -0.274412924869218 0.00353936610564777 75.8891828168906 
! Gamma         0                0                0                0                
! Port Impedance         50               0                50               0                
0.4                            0.00464384959182103 78.7370420285572 0.999115308802147 -0.364856085312926 0.999115308802146 -0.364856085312885 0.00464386632871191 78.7370702091119 
! Gamma         0                0                0                0                
! Port Impedance         50               0                50               0                
0.5                            0.00574787606754581 80.4623140235434 0.99907587308639 -0.454796375922508 0.99907587308639 -0.454796375922444 0.00574789876582386 80.462274035431  
! Gamma         0                0                0                0                
! Port Impedance         50               0                50               0                
0.6                            0.00685068711447972 81.6212747732616 0.999036538787318 -0.54434651141958 0.999036538787318 -0.544346511419496 0.00685071327671864 81.6211747485207 
! Gamma         0                0                0                0                
! Port Impedance         50               0                50               0                
0.7                            0.00795282827591505 82.4506534828337 0.998998172384361 -0.633617767401288 0.998998172384361 -0.633617767401188 0.00795285564328725 82.4505074034435 
! Gamma         0                0                0                0                
! Port Impedance         50               0                50               0                
0.8                            0.00905480525103855 83.0680849919877 0.998960901392521 -0.722699571324957 0.998960901392522 -0.722699571324847 0.00905483214277158 83.0679060822117 
! Gamma         0                0                0                0                
! Port Impedance         50               0                50               0                
0.9                            0.0101568858154668 83.5394099608751 0.998924482932595 -0.811656130136975 0.998924482932596 -0.81165613013686 0.0101569111149785 83.5392086660933 
! Gamma         0                0                0                0                
! Port Impedance         50               0                50               0                
1                              0.0112591506067165 83.9049553716603 0.998888534826711 -0.90053030759903 0.998888534826712 -0.900530307598913 0.0112591736389459 83.9047392811386 
! Gamma         0                0                0                0                
! Port Impedance         50               0                50               0                
1.1                            0.0123615682848516 84.1911380327544 0.998852657855575 -0.989349149422088 0.998852657855577 -0.989349149421971 0.0123615886890726 84.1909124057649 
! Gamma         0                0                0                0                
! Port Impedance         50               0                50               0                
1.2                            0.0134640500448314 84.4161526934329 0.998816490741369 -1.07812877906605 0.99881649074137 -1.07812877906594 0.01346406767365 84.415921054456  
! Gamma         0                0                0                0                
! Port Impedance         50               0                50               0                
1.3                            0.0145664826791913 84.593017763294  0.998779729000692 -1.16687809256096 0.998779729000694 -1.16687809256085 0.0145664975260655 84.5927823996594 
! Gamma         0                0                0                0                
! Port Impedance         50               0                50               0                
1.4                            0.015668746962751 84.7313290690914 0.998742126472693 -1.25560134207906 0.998742126472695 -1.25560134207896 0.0156687591123092 84.7310914048035 
! Gamma         0                0                0                0                
! Port Impedance         50               0                50               0                
1.5                            0.0167707272129109 84.8383306806857 0.998703489626466 -1.34429987047446 0.998703489626468 -1.34429987047436 0.0167707368075995 84.8380915441547 
! Gamma         0                0                0                0                
! Port Impedance         50               0                50               0                
1.6                            0.0178723158582782 84.9196002117299 0.998663669631226 -1.43297324948685 0.998663669631228 -1.43297324948676 0.0178723230761417 84.9193600232905 
! Gamma         0                0                0                0                
! Port Impedance         50               0                50               0                
1.7                            0.0189734152916287 84.9795043128256 0.998622554435648 -1.52162001657146 0.99862255443565 -1.52162001657137 0.018973420331511 84.9792632148098 
! Gamma         0                0                0                0                
! Port Impedance         50               0                50               0                
1.8                            0.0200739382982214 85.0215109152049 0.998580061734262 -1.61023814756922 0.998580061734264 -1.61023814756914 0.0200739413698675 85.0212688618999 
! Gamma         0                0                0                0                
! Port Impedance         50               0                50               0                
1.9                            0.021173807772388 85.0484088333862 0.998536133056562 -1.69882535751625 0.998536133056565 -1.69882535751618 0.0211738090897735 85.0481656532878 
! Gamma         0                0                0                0                
! Port Impedance         50               0                50               0                
2                              0.0222729561077558 85.0624655969739 0.998490728937918 -1.78737929024548 0.998490728937921 -1.78737929024542 0.022272955884551 85.062221035974  
! Gamma         0                0                0                0                
! Port Impedance         50               0                50               0                
2.1                            0.0233713244643707 85.0655430228719 0.998443825030429 -1.87589763617382 0.998443825030432 -1.87589763617376 0.0233713229108234 85.0652967743146 
! Gamma         0                0                0                0                
! Port Impedance         50               0                50               0                
2.2                            0.0244688620161217 85.0591832351177 0.998395408990625 -1.9643782037307 0.998395408990628 -1.96437820373065 0.0244688593368928 85.0589349607822 
! Gamma         0                0                0                0                
! Port Impedance         50               0                50               0                
2.3                            0.0255655252278321 85.0446736222708 0.998345477992596 -2.05281896085793 0.998345477992599 -2.05281896085789 0.0255655216204795 85.0444229670568 
! Gamma         0                0                0                0                
! Port Impedance         50               0                50               0                
2.4                            0.0266612771827135 85.0230965308502 0.998294036737844 -2.14121805719542 0.998294036737846 -2.14121805719538 0.0266612728366242 85.0228431330672 
! Gamma         0                0                0                0                
! Port Impedance         50               0                50               0                
2.5                            0.0277560869661197 84.9953677318347 0.998241095857218 -2.22957383382577 0.998241095857221 -2.22957383382573 0.0277560820617577 84.9951112304074 
! Gamma         0                0                0                0                
! Port Impedance         50               0                50               0                
2.6                            0.0288499291043618 84.9622665188565 0.998186670621901 -2.31788482504022 0.998186670621904 -2.31788482504018 0.028849923812746 84.9620065583506 
! Gamma         0                0                0                0                
! Port Impedance         50               0                50               0                
2.7                            0.0299427830542183 84.9244594930712 0.9981307798984  -2.40614975503184 0.998130779898403 -2.40614975503181 0.0299427775365703 84.9241957271719 
! Gamma         0                0                0                0                
! Port Impedance         50               0                50               0                
2.8                            0.0310346327377608 84.8825195321792 0.998073445296989 -2.49436753141347 0.998073445296992 -2.49436753141344 0.031034627145285 84.8822516260636 
! Gamma         0                0                0                0                
! Port Impedance         50               0                50               0                
2.9                            0.0321254661171496 84.8369410483333 0.998014690474321 -2.58253723680268 0.998014690474324 -2.58253723680266 0.0321254605909174 84.8366686802469 
! Gamma         0                0                0                0                
! Port Impedance         50               0                50               0                
3                              0.0332152748045574 84.7881523591697 0.997954540559765 -2.67065811928878 0.997954540559768 -2.67065811928876 0.0332152694754767 84.7878752214276 
! Gamma         0                0                0                0                
! Port Impedance         50               0                50               0                
3.1                            0.0343040537030485 84.7365257933191 0.997893021681738 -2.75872958231728 0.99789302168174 -2.75872958231726 0.0343040486919046 84.7362435928893 
! Gamma         0                0                0                0                
! Port Impedance         50               0                50               0                
3.2                            0.0353918006749194 84.6823860033268 0.997830160575504 -2.84675117434439 0.997830160575506 -2.84675117434437 0.0353917960924775 84.6820984621066 
! Gamma         0                0                0                0                
! Port Impedance         50               0                50               0                
3.3                            0.0364785162346282 84.6260168491583 0.997765984257875 -2.93472257849332 0.997765984257878 -2.93472257849331 0.0364785121817875 84.6257237040264 
! Gamma         0                0                0                0                
! Port Impedance         50               0                50               0                
3.4                            0.0375642032639653 84.567667133519  0.997700519757298 -3.02264360236514 0.997700519757301 -3.02264360236514 0.0375641998319605 84.5673681362221 
! Gamma         0                0                0                0                
! Port Impedance         50               0                50               0                
3.5                            0.0386488667475561 84.50755540847   0.997633793890136 -3.11051416810422 0.997633793890139 -3.11051416810421 0.038648864018197 84.5072503253864 
! Gamma         0                0                0                0                
! Port Impedance         50               0                50               0                
3.6                            0.0397325135271299 84.445874025895  0.997565833075786 -3.19833430278367 0.997565833075789 -3.19833430278367 0.0397325115730768 84.4455626377085 
! Gamma         0                0                0                0                
! Port Impedance         50               0                50               0                
3.7                            0.0408151520732616 84.3827925684372 0.997496663184638 -3.28610412915304 0.99749666318464 -3.28610412915304 0.0408151509583293 84.3824746697439 
! Gamma         0                0                0                0                
! Port Impedance         50               0                50               0                
3.8                            0.0418967922734962 84.3184607697851 0.997426309413993 -3.37382385677466 0.997426309413995 -3.37382385677466 0.0418967920529834 84.3181361686525 
! Gamma         0                0                0                0                
! Port Impedance         50               0                50               0                
3.9                            0.0429774452359221 84.2530110116345 0.997354796187899 -3.4614937735648 0.997354796187901 -3.46149377356481 0.0429774459569607 84.2526795291257 
! Gamma         0                0                0                0                
! Port Impedance         50               0                50               0                
4                              0.0440571231073685 84.1865604677922 0.997282147077522 -3.54911423774804 0.997282147077525 -3.54911423774805 0.0440571248092897 84.1862219374662 
! Gamma         0                0                0                0                
! Port Impedance         50               0                50               0                
4.1                            0.0451358389054854 84.119212952611  0.997208384739239 -3.63668567022837 0.997208384739241 -3.63668567022837 0.0451358416201982 84.1188672200078 
! Gamma         0                0                0                0                
! Port Impedance         50               0                50               0                
4.2                            0.04621360636402 84.0510605204341 0.997133530868005 -3.72420854737648 0.997133530868008 -3.72420854737649 0.0462136101163987 84.0507074425503 
! Gamma         0                0                0                0                
! Port Impedance         50               0                50               0                
4.3                            0.0472904397906419 83.9821848543514 0.997057606163969 -3.81168339423008 0.997057606163972 -3.81168339423009 0.0472904445989191 83.981824299113  
! Gamma         0                0                0                0                
! Port Impedance         50               0                50               0                
4.4                            0.0483663539366972 83.9126584758658 0.996980630310514 -3.89911077810144 0.996980630310516 -3.89911077810145 0.0483663598128594 83.9122903216007 
! Gamma         0                0                0                0                
! Port Impedance         50               0                50               0                
4.5                            0.0494413638782892 83.8425458016621 0.996902621962189 -3.986491302585  0.996902621962192 -3.98649130258501 0.0494413708284718 83.8421699365776 
! Gamma         0                0                0                0                
! Port Impedance         50               0                50               0                
4.6                            0.0505154849080959 83.7719040693068 0.99682359874118 -4.07382560195605 0.996823598741182 -4.07382560195606 0.0505154929329756 83.7715203909736 
! Gamma         0                0                0                0                
! Port Impedance         50               0                50               0                
4.7                            0.051588732437345 83.7007841501464 0.996743577241091 -4.16111433595032 0.996743577241094 -4.16111433595033 0.0515887415325271 83.7003925649922 
! Gamma         0                0                0                0                
! Port Impedance         50               0                50               0                
4.8                            0.0526611219073768 83.6292312647698 0.996662573037023 -4.24835818491334 0.996662573037025 -4.24835818491335 0.0526611320637753 83.6288316875839 
! Gamma         0                0                0                0                
! Port Impedance         50               0                50               0                
4.9                            0.0537326687102315 83.5572856140142 0.996580600700971 -4.33555784530735 0.996580600700973 -4.33555784530737 0.0537326799144405 83.5568779674653 
! Gamma         0                0                0                0                
! Port Impedance         50               0                50               0                
5                              0.0548033881177097 83.4849829365249 0.996497673821742 -4.42271402556304 0.996497673821744 -4.42271402556305 0.0548034003523639 83.4845671506929 
! Gamma         0                0                0                0                
! Port Impedance         50               0                50               0                
5.1                            0.0558732952183638 83.4123550022495 0.996413805028632 -4.50982744226248 0.996413805028634 -4.50982744226249 0.055873308462488 83.4119310141722 
! Gamma         0                0                0                0                
! Port Impedance         50               0                50               0                
5.2                            0.0569424048618913 83.3394300498897 0.996329006018218 -4.59689881663943 0.99632900601822 -4.59689881663944 0.0569424190912371 83.3389978031255 
! Gamma         0                0                0                0                
! Port Impedance         50               0                50               0                
5.3                            0.0580107316104151 83.266233175199  0.996243287583668 -4.68392887138269 0.99624328758367 -4.68392887138271 0.0580107467977842 83.2657926194062 
! Gamma         0                0                0                0                
! Port Impedance         50               0                50               0                
5.4                            0.0590782896961511 83.1927866760631 0.996156659646065 -4.77091832772786 0.996156659646066 -4.77091832772787 0.0590783058117042 83.192337766596  
! Gamma         0                0                0                0                
! Port Impedance         50               0                50               0                
5.5                            0.0601450929849806 83.1191103594949 0.996069131287262 -4.85786790282296 0.996069131287264 -4.85786790282298 0.0601451099965321 83.1186530570169 
! Gamma         0                0                0                0                
! Port Impedance         50               0                50               0                
5.6                            0.0612111549454639 83.0452218150002 0.995980710783886 -4.9447783073532 0.995980710783888 -4.94477830735322 0.0612111728187619 83.0447560851143 
! Gamma         0                0                0                0                
! Port Impedance         50               0                50               0                
5.7                            0.0622764886228517 82.9711366581885 0.995891405642106 -5.03165024341017 0.995891405642108 -5.03165024341018 0.0622765073218425 82.9706624710846 
! Gamma         0                0                0                0                
! Port Impedance         50               0                50               0                
5.8                            0.0633411066176695 82.8968687480143 0.995801222632866 -5.11848440259111 0.995801222632868 -5.11848440259112 0.063341126104748 82.8963860781342 
! Gamma         0                0                0                0                
! Port Impedance         50               0                50               0                
5.9                            0.0644050210684738 82.8224303806112 0.995710167827302 -5.205281464314  0.995710167827303 -5.20528146431402 0.0644050413047178 82.8219392063302 
! Gamma         0                0                0                0                
! Port Impedance         50               0                50               0                
6                              0.0654682436383981 82.7478324623182 0.995618246632094 -5.29204209433449 0.995618246632096 -5.29204209433451 0.0654682645837892 82.7473327656432 
! Gamma         0                0                0                0                
! Port Impedance         50               0                50               0                
6.1                            0.0665307855051308 82.6730846641865 0.995525463824558 -5.3787669434511 0.995525463824559 -5.37876694345111 0.0665308071187602 82.6725764304705 
! Gamma         0                0                0                0                
! Port Impedance         50               0                50               0                
6.2                            0.0675926573539865 82.598195559984  0.995431823587288 -5.46545664638557 0.995431823587289 -5.46545664638558 0.0675926795942466 82.5976787776567 
! Gamma         0                0                0                0                
! Port Impedance         50               0                50               0                
6.3                            0.0686538693737555 82.5231727494798 0.995337329542202 -5.55211182082565 0.995337329542203 -5.55211182082566 0.0686538921985184 82.5226474097928 
! Gamma         0                0                0                0                
! Port Impedance         50               0                50               0                
6.4                            0.0697144312550362 82.4480229685865 0.99524198478386 -5.638733066618  0.995241984783861 -5.63873306661802 0.0697144546218184 82.4474890653747 
! Gamma         0                0                0                0                
! Port Impedance         50               0                50               0                
6.5                            0.0707743521907767 82.3727521877615 0.995145791911952 -5.72532096509963 0.995145791911953 -5.72532096509964 0.0707743760568912 82.372209717218  
! Gamma         0                0                0                0                
! Port Impedance         50               0                50               0                
6.6                            0.0718336408787705 82.29736569991   0.995048753062863 -5.81187607855651 0.995048753062865 -5.81187607855652 0.0718336652014673 82.2968146603747 
! Gamma         0                0                0                0                
! Port Impedance         50               0                50               0                
6.7                            0.0728923055258728 82.2218681988953 0.994950869940252 -5.89839894979887 0.994950869940254 -5.89839894979888 0.0728923302624671 82.2213085906578 
! Gamma         0                0                0                0                
! Port Impedance         50               0                50               0                
6.8                            0.07395035385372 82.1462638496441 0.994852143844583 -5.98489010184297 0.994852143844584 -5.98489010184299 0.073950378961709 82.1456956747585 
! Gamma         0                0                0                0                
! Port Impedance         50               0                50               0                
6.9                            0.0750077931057533 82.0705563507239 0.994752575701571 -6.07135003768984 0.994752575701572 -6.07135003768985 0.0750078185429233 82.0699796128363 
! Gamma         0                0                0                0                
! Port Impedance         50               0                50               0                
7                              0.0760646300553654 81.9947489901798 0.994652166089524 -6.15777924019191 0.994652166089525 -6.15777924019192 0.0760646557798884 81.9941636943671 
! Gamma         0                0                0                0                
! Port Impedance         50               0                50               0                
7.1                            0.0771208710150041 81.9188446953301 0.994550915265541 -6.24417817199916 0.994550915265542 -6.24417817199916 0.0771208969855249 81.91825084795   
! Gamma         0                0                0                0                
! Port Impedance         50               0                50               0                
7.2                            0.0781765218460805 81.8428460771501 0.99444882319058 -6.3305472755768 0.994448823190581 -6.33054727557681 0.0781765480217949 81.8422436857017 
! Gamma         0                0                0                0                
! Port Impedance         50               0                50               0                
7.3                            0.0792315879695463 81.7667554698058 0.994345889553383 -6.41688697328708 0.994345889553385 -6.41688697328709 0.0792316143102713 81.7661445428003 
! Gamma         0                0                0                0                
! Port Impedance         50               0                50               0                
7.4                            0.0802860743770147 81.6905749658411 0.994242113793273 -6.50319766752821 0.994242113793274 -6.50319766752822 0.0802861008432505 81.6899555126812 
! Gamma         0                0                0                0                
! Port Impedance         50               0                50               0                
7.5                            0.0813399856423149 81.6143064474685 0.994137495121819 -6.58947974092417 0.99413749512182 -6.58947974092417 0.0813400121952995 81.6136784783376 
! Gamma         0                0                0                0                
! Port Impedance         50               0                50               0                
7.6                            0.0823933259333777 81.5379516143712 0.994032032543417 -6.67573355655916 0.994032032543418 -6.67573355655916 0.0823933525351351 81.5373151401306 
! Gamma         0                0                0                0                
! Port Impedance         50               0                50               0                
7.7                            0.0834460990243649 81.4615120083762 0.993925724874775 -6.76195945825148 0.993925724874777 -6.76195945825148 0.0834461256377468 81.4608670404701 
! Gamma         0                0                0                0                
! Port Impedance         50               0                50               0                
7.8                            0.0844983083079604 81.3849890353271 0.993818570763355 -6.84815777086145 0.993818570763356 -6.84815777086146 0.0844983348966815 81.3843355856954 
! Gamma         0                0                0                0                
! Port Impedance         50               0                50               0                
7.9                            0.085549956807753 81.3083839844482 0.993710568704781 -6.93432880062892 0.993710568704782 -6.93432880062892 0.0855499833364216 81.3077220654457 
! Gamma         0                0                0                0                
! Port Impedance         50               0                50               0                
8                              0.0866010471906484 81.2316980454632 0.99360171705926 -7.02047283553586 0.993601717059261 -7.02047283553586 0.0866010736247914 81.2310276697859 
! Gamma         0                0                0                0                
! Port Impedance         50               0                50               0                
8.1                            0.087651581779254 81.1549323237036 0.993492014067038 -7.10659014569029 0.993492014067039 -7.1065901456903 0.0876516080853378 81.1542535043211 
! Gamma         0                0                0                0                
! Port Impedance         50               0                50               0                
8.2                            0.0887015625641897 81.0780878534209 0.993381457862929 -7.19268098372778 0.99338145786293 -7.19268098372779 0.088701588709636 81.077400603514  
! Gamma         0                0                0                0                
! Port Impedance         50               0                50               0                
8.3                            0.0897509912162813 81.0011656094911 0.993270046489949 -7.27874558522734 0.99327004648995 -7.27874558522734 0.0897510171694799 81.0004699423955 
! Gamma         0                0                0                0                
! Port Impedance         50               0                50               0                
8.4                            0.0907998690986015 80.9241665176839 0.993157777912101 -7.36478416913863 0.993157777912102 -7.36478416913863 0.0907998948289188 80.9234624468381 
! Gamma         0                0                0                0                
! Port Impedance         50               0                50               0                
8.5                            0.0918481972783263 80.8470914636501 0.993044650026327 -7.450796938218  0.993044650026329 -7.450796938218  0.091848222756111 80.8463790025488 
! Gamma         0                0                0                0                
! Port Impedance         50               0                50               0                
8.6                            0.0928959765383816 80.7699413007652 0.992930660673692 -7.5367840794706 0.992930660673693 -7.5367840794706 0.0928960017349672 80.7692204629163 
! Gamma         0                0                0                0                
! Port Impedance         50               0                50               0                
8.7                            0.0939432073888564 80.6927168569533 0.992815807649798 -7.62274576459664 0.992815807649799 -7.62274576459664 0.093943232276561 80.6919876558394 
! Gamma         0                0                0                0                
! Port Impedance         50               0                50               0                
8.8                            0.0949898900781661 80.6154189406033 0.992700088714506 -7.70868215043978 0.992700088714507 -7.70868215043977 0.0949899146302898 80.6146813896467 
! Gamma         0                0                0                0                
! Port Impedance         50               0                50               0                
8.9                            0.0960360246039493 80.5380483456763 0.992583501600961 -7.79459337943575 0.992583501600962 -7.79459337943575 0.0960360487947693 80.5373024582076 
! Gamma         0                0                0                0                
! Port Impedance         50               0                50               0                
9                              0.0970816107236872 80.4606058560951 0.992466044023986 -7.88047958005988 0.992466044023988 -7.88047958005988 0.0970816345284515 80.4598516453249 
! Gamma         0                0                0                0                
! Port Impedance         50               0                50               0                
9.1                            0.0981266479650365 80.3830922494957 0.992347713687854 -7.96634086727189 0.992347713687855 -7.96634086727188 0.0981266713599546 80.3823297284896 
! Gamma         0                0                0                0                
! Port Impedance         50               0                50               0                
9.2                            0.0991711356358686 80.3055083004138 0.992228508293485 -8.05217734295693 0.992228508293486 -8.05217734295692 0.099171158598102 80.3047374820694 
! Gamma         0                0                0                0                
! Port Impedance         50               0                50               0                
9.3                            0.100215072834011 80.2278547829699 0.992108425545099 -8.13798909636176 0.9921084255451  -8.13798909636175 0.100215095341662 80.2270756799971 
! Gamma         0                0                0                0                
! Port Impedance         50               0                50               0                
9.4                            0.101258458456688 80.1501324731119 0.991987463156344 -8.22377620452501 0.991987463156345 -8.223776204525  0.101258480488785 80.1493450980155 
! Gamma         0                0                0                0                
! Port Impedance         50               0                50               0                
9.5                            0.102301291209661 80.0723421504683 0.991865618855941 -8.30953873270092 0.991865618855942 -8.30953873270091 0.102301312746147 80.071546515532  
! Gamma         0                0                0                0                
! Port Impedance         50               0                50               0                
9.6                            0.103343569616063 79.9944845998554 0.991742890392866 -8.39527673477565 0.991742890392867 -8.39527673477564 0.103343590637779 79.993680717129  
! Gamma         0                0                0                0                
! Port Impedance         50               0                50               0                
9.7                            0.10438529202494 79.9165606124845 0.9916192755411  -8.48099025367581 0.991619275541101 -8.4809902536758 0.104385312513613 79.9157484937716 
! Gamma         0                0                0                0                
! Port Impedance         50               0                50               0                
9.8                            0.105426456619494 79.838570986902  0.991494772103972 -8.56667932176853 0.991494772103973 -8.56667932176852 0.105426476557714 79.8377506437504 
! Gamma         0                0                0                0                
! Port Impedance         50               0                50               0                
9.9                            0.106467061425027 79.7605165296996 0.991369377918119 -8.65234396125273 0.99136937791812 -8.65234396125272 0.106467080796238 79.7596879733926 
! Gamma         0                0                0                0                
! Port Impedance         50               0                50               0                
10                             0.107507104316606 79.6823980560213 0.991243090857087 -8.73798418454132 0.991243090857087 -8.73798418454131 0.107507123105083 79.6815612975709 
! Gamma         0                0                0                0                
! Port Impedance         50               0                50               0                
10.1                           0.108546583026439 79.6042163898955 0.991115908834593 -8.82359999463403 0.991115908834593 -8.82359999463402 0.108546601217272 79.6033714400365 
! Gamma         0                0                0                0                
! Port Impedance         50               0                50               0                
10.2                           0.109585495150972 79.525972364416  0.990987829807478 -8.90919138548059 0.990987829807479 -8.90919138548058 0.109585512730049 79.5251192336013 
! Gamma         0                0                0                0                
! Port Impedance         50               0                50               0                
10.3                           0.110623838157721 79.4476668217908 0.990858851778365 -8.99475834233432 0.990858851778366 -8.99475834233431 0.110623855111709 79.4468055201882 
! Gamma         0                0                0                0                
! Port Impedance         50               0                50               0                
10.4                           0.111661609391834 79.3693006132807 0.990728972798028 -9.0803008420959 0.990728972798029 -9.08030084209589 0.11166162570816 79.36843115077   
! Gamma         0                0                0                0                
! Port Impedance         50               0                50               0                
10.5                           0.112698806082399 79.2908745990415 0.990598190967529 -9.16581885364727 0.99059819096753 -9.16581885364725 0.112698821749231 79.289996985213  
! Gamma         0                0                0                0                
! Port Impedance         50               0                50               0                
10.6                           0.113735425348496 79.2123896478859 0.99046650444009 -9.25131233817573 0.990466504440091 -9.25131233817572 0.113735440354726 79.2115038920394 
! Gamma         0                0                0                0                
! Port Impedance         50               0                50               0                
10.7                           0.114771464205011 79.1338466369782 0.990333911422761 -9.33678124948833 0.990333911422762 -9.33678124948831 0.114771478540237 79.1329527481229 
! Gamma         0                0                0                0                
! Port Impedance         50               0                50               0                
10.8                           0.115806919568214 79.0552464514731 0.990200410177868 -9.42222553431635 0.990200410177869 -9.42222553431634 0.115806933222719 79.0543444383283 
! Gamma         0                0                0                0                
! Port Impedance         50               0                50               0                
10.9                           0.116841788261102 78.9765899841087 0.990065999024276 -9.50764513261039 0.990065999024277 -9.50764513261037 0.116841801225836 78.9756798551045 
! Gamma         0                0                0                0                
! Port Impedance         50               0                50               0                
11                             0.117876067018528 78.8978781347628 0.989930676338472 -9.59303997782568 0.989930676338472 -9.59303997782566 0.117876079285092 78.8969598980418 
! Gamma         0                0                0                0                
! Port Impedance         50               0                50               0                
11.1                           0.118909752492114 78.8191118099807 0.989794440555472 -9.67840999719823 0.989794440555473 -9.67840999719822 0.11890976405274 78.8181854734003 
! Gamma         0                0                0                0                
! Port Impedance         50               0                50               0                
11.2                           0.119942841254956 78.7402919224811 0.989657290169593 -9.76375511201165 0.989657290169594 -9.76375511201163 0.119942852102488 78.7393574936156 
! Gamma         0                0                0                0                
! Port Impedance         50               0                50               0                
11.3                           0.120975329806132 78.6614193906459 0.989519223735063 -9.84907523785487 0.989519223735064 -9.84907523785485 0.12097533993401 78.6604768767898 
! Gamma         0                0                0                0                
! Port Impedance         50               0                50               0                
11.4                           0.122007214575014 78.5824951380007 0.989380239866513 -9.93437028487109 0.989380239866514 -9.93437028487108 0.122007223977258 78.5815445461714 
! Gamma         0                0                0                0                
! Port Impedance         50               0                50               0                
11.5                           0.123038491925405 78.5035200926877 0.989240337239341 -10.019640157998 0.989240337239342 -10.019640157998 0.123038500596592 78.5025614296294 
! Gamma         0                0                0                0                
! Port Impedance         50               0                50               0                
11.6                           0.124069158159485 78.4244951869385 0.989099514589969 -10.1048847571994 0.98909951458997 -10.1048847571994 0.124069166094739 78.4235284591255 
! Gamma         0                0                0                0                
! Port Impedance         50               0                50               0                
11.7                           0.125099209521598 78.3454213565474 0.988957770715991 -10.1901039776888 0.988957770715992 -10.1901039776888 0.125099216716567 78.3444465701883 
! Gamma         0                0                0                0                
! Port Impedance         50               0                50               0                
11.8                           0.126128642201867 78.2662995403495 0.988815104476234 -10.2752977101446 0.988815104476234 -10.2752977101446 0.12612864865271 78.2653167013912 
! Gamma         0                0                0                0                
! Port Impedance         50               0                50               0                
11.9                           0.127157452339651 78.1871306797055 0.988671514790723 -10.3604658409178 0.988671514790723 -10.3604658409178 0.127157458043023 78.1861397938376 
! Gamma         0                0                0                0                
! Port Impedance         50               0                50               0                
12                             0.12818563602686 78.1079157179968 0.988527000640578 -10.4456082522317 0.988527000640579 -10.4456082522316 0.128185640979892 78.1069167906558 
! Gamma         0                0                0                0                
! Port Impedance         50               0                50               0                
12.1                           0.12921318931111 78.0286556001298 0.988381561067829 -10.5307248223742 0.98838156106783 -10.5307248223742 0.129213193511395 78.0276486365037 
! Gamma         0                0                0                0                
! Port Impedance         50               0                50               0                
12.2                           0.130240108198748 77.9493512720535 0.988235195175171 -10.6158154258837 0.988235195175171 -10.6158154258837 0.130240111644329 77.9483362770865 
! Gamma         0                0                0                0                
! Port Impedance         50               0                50               0                
12.3                           0.131266388657745 77.870003680291  0.988087902125651 -10.7008799337265 0.988087902125651 -10.7008799337265 0.131266391347094 77.868980658688  
! Gamma         0                0                0                0                
! Port Impedance         50               0                50               0                
12.4                           0.132292026620451 77.7906137714846 0.987939681142313 -10.7859182134689 0.987939681142313 -10.7859182134689 0.132292028552461 77.789582727716  
! Gamma         0                0                0                0                
! Port Impedance         50               0                50               0                
12.5                           0.133317017986237 77.7111824919567 0.987790531507781 -10.8709301294419 0.987790531507781 -10.8709301294419 0.133317019160202 77.7101434302632 
! Gamma         0                0                0                0                
! Port Impedance         50               0                50               0                
12.6                           0.134341358624014 77.6317107872866 0.987640452563805 -10.9559155428997 0.987640452563806 -10.9559155428997 0.134341359039618 77.630663711684  
! Gamma         0                0                0                0                
! Port Impedance         50               0                50               0                
12.7                           0.135365044374639 77.5521996019032 0.987489443710766 -11.0408743121724 0.987489443710767 -11.0408743121724 0.135365044031942 77.5511445161868 
! Gamma         0                0                0                0                
! Port Impedance         50               0                50               0                
12.8                           0.136388071053218 77.4726498786944 0.987337504407139 -11.1258062928125 0.98733750440714 -11.1258062928125 0.136388069952642 77.4715867864445 
! Gamma         0                0                0                0                
! Port Impedance         50               0                50               0                
12.9                           0.137410434451299 77.3930625586334 0.987184634168934 -11.2107113377354 0.987184634168934 -11.2107113377354 0.137410432593616 77.3919914632192 
! Gamma         0                0                0                0                
! Port Impedance         50               0                50               0                
13                             0.138432130338974 77.3134385804208 0.987030832569099 -11.2955892973551 0.9870308325691  -11.2955892973551 0.138432127725291 77.3123594850059 
! Gamma         0                0                0                0                
! Port Impedance         50               0                50               0                
13.1                           0.139453154466878 77.2337788801447 0.986876099236905 -11.380440019714 0.986876099236906 -11.380440019714 0.139453151098626 77.2326917876913 
! Gamma         0                0                0                0                
! Port Impedance         50               0                50               0                
13.2                           0.140473502568105 77.154084390956  0.986720433857304 -11.4652633506075 0.986720433857305 -11.4652633506075 0.140473498447028 77.15298930423   
! Gamma         0                0                0                0                
! Port Impedance         50               0                50               0                
13.3                           0.141493170360033 77.0743560427609 0.986563836170272 -11.5500591337042 0.986563836170272 -11.5500591337042 0.141493165488175 77.0732529643361 
! Gamma         0                0                0                0                
! Port Impedance         50               0                50               0                
13.4                           0.14251215354607 76.9945947619291 0.986406305970128 -11.6348272106608 0.986406305970129 -11.6348272106608 0.142512147925764 76.9934836941921 
! Gamma         0                0                0                0                
! Port Impedance         50               0                50               0                
13.5                           0.143530447817319 76.9148014710177 0.986247843104852 -11.7195674212327 0.986247843104852 -11.7195674212327 0.143530441451174 76.913682416172  
! Gamma         0                0                0                0                
! Port Impedance         50               0                50               0                
13.6                           0.144548048854167 76.8349770885105 0.986088447475374 -11.8042796033799 0.986088447475374 -11.8042796033799 0.144548041745059 76.8338500485815 
! Gamma         0                0                0                0                
! Port Impedance         50               0                50               0                
13.7                           0.145564952327804 76.7551225285727 0.985928119034869 -11.8889635933688 0.985928119034869 -11.8889635933688 0.145564944478864 76.7539875054119 
! Gamma         0                0                0                0                
! Port Impedance         50               0                50               0                
13.8                           0.146581153901672 76.6752387008203 0.985766857788035 -11.97361922587  0.985766857788036 -11.97361922587  0.146581145316277 76.6740956961092 
! Gamma         0                0                0                0                
! Port Impedance         50               0                50               0                
13.9                           0.147596649232847 76.5953265101025 0.985604663790368 -12.0582463340521 0.985604663790369 -12.0582463340521 0.147596639914609 76.5941755253576 
! Gamma         0                0                0                0                
! Port Impedance         50               0                50               0                
14                             0.148611433973365 76.5153868563    0.985441537147428 -12.1428447496715 0.985441537147429 -12.1428447496715 0.14861142392612 76.5142278928762 
! Gamma         0                0                0                0                
! Port Impedance         50               0                50               0                
14.1                           0.149625503771475 76.4354206341345 0.985277478014111 -12.2274143031585 0.985277478014112 -12.2274143031585 0.149625492999276 76.43425369323   
! Gamma         0                0                0                0                
! Port Impedance         50               0                50               0                
14.2                           0.150638854272849 76.3554287329929 0.985112486593909 -12.3119548237007 0.985112486593909 -12.3119548237007 0.150638842779955 76.3542538156524 
! Gamma         0                0                0                0                
! Port Impedance         50               0                50               0                
14.3                           0.15165148112173 76.2754120367625 0.984946563138177 -12.3964661393217 0.984946563138177 -12.3964661393217 0.151651468912596 76.2742291438819 
! Gamma         0                0                0                0                
! Port Impedance         50               0                50               0                
14.4                           0.152663379962025 76.1953714236793 0.984779707945397 -12.4809480769578 0.984779707945397 -12.4809480769578 0.152663367041296 76.194180556009  
! Gamma         0                0                0                0                
! Port Impedance         50               0                50               0                
14.5                           0.153674546438356 76.1153077661869 0.984611921360445 -12.5654004625308 0.984611921360445 -12.5654004625308 0.153674532810855 76.1141089243359 
! Gamma         0                0                0                0                
! Port Impedance         50               0                50               0                
14.6                           0.154684976197059 76.0352219308073 0.984443203773859 -12.6498231210182 0.984443203773859 -12.6498231210182 0.15468496186778 76.0340151152469 
! Gamma         0                0                0                0                
! Port Impedance         50               0                50               0                
14.7                           0.155694664887137 75.9551147780217 0.984273555621113 -12.7342158765202 0.984273555621113 -12.7342158765201 0.155694649861237 75.9538999890889 
! Gamma         0                0                0                0                
! Port Impedance         50               0                50               0                
14.8                           0.15670360816117 75.8749871621614 0.984102977381893 -12.8185785523243 0.984102977381893 -12.8185785523243 0.15670359244396 75.8737644000629 
! Gamma         0                0                0                0                
! Port Impedance         50               0                50               0                
14.9                           0.157711801676186 75.7948399313094 0.983931469579379 -12.9029109709673 0.983931469579379 -12.9029109709673 0.157711785273126 75.7936091961245 
! Gamma         0                0                0                0                
! Port Impedance         50               0                50               0                
15                             0.15871924109449 75.7146739272099 0.983759032779532 -12.9872129542942 0.983759032779533 -12.9872129542942 0.158719224011178 75.7134352188944 
! Gamma         0                0                0                0                
! Port Impedance         50               0                50               0                
15.1                           0.159725922084456 75.6344899851878 0.983585667590388 -13.071484323515 0.983585667590388 -13.071484323515 0.159725904326623 75.633243303577  
! Gamma         0                0                0                0                
! Port Impedance         50               0                50               0                
15.2                           0.160731840321285 75.554288934076  0.983411374661355 -13.1557248992597 0.983411374661355 -13.1557248992597 0.160731821894786 75.553034278888  
! Gamma         0                0                0                0                
! Port Impedance         50               0                50               0                
15.3                           0.161736991487724 75.4740715961512 0.983236154682524 -13.2399345016299 0.983236154682525 -13.2399345016299 0.161736972398531 75.4728089669901 
! Gamma         0                0                0                0                
! Port Impedance         50               0                50               0                
15.4                           0.162741371274756 75.393838787077  0.983060008383982 -13.3241129502493 0.983060008383982 -13.3241129502493 0.162741351528954 75.3925681834361 
! Gamma         0                0                0                0                
! Port Impedance         50               0                50               0                
15.5                           0.163744975382259 75.3135913158548 0.98288293653513 -13.4082600643115 0.982882936535131 -13.4082600643115 0.163744954986036 75.3123127371194 
! Gamma         0                0                0                0                
! Port Impedance         50               0                50               0                
15.6                           0.164747799519632 75.2333299847809 0.98270493994402 -13.4923756626263 0.982704939944021 -13.4923756626263 0.164747778479275 75.2320434302313 
! Gamma         0                0                0                0                
! Port Impedance         50               0                50               0                
15.7                           0.165749839406397 75.153055589411  0.982526019456688 -13.5764595636635 0.982526019456688 -13.5764595636634 0.165749817728283 75.1517610582255 
! Gamma         0                0                0                0                
! Port Impedance         50               0                50               0                
15.8                           0.166751090772767 75.0727689185305 0.982346175956502 -13.6605115855953 0.982346175956502 -13.6605115855953 0.166751068463359 75.0714664097878 
! Gamma         0                0                0                0                
! Port Impedance         50               0                50               0                
15.9                           0.167751549360195 74.9924707541307 0.982165410363518 -13.7445315463373 0.982165410363518 -13.7445315463373 0.167751526426035 74.9911602668131 
! Gamma         0                0                0                0                
! Port Impedance         50               0                50               0                
16                             0.168751210921895 74.9121618713905 0.981983723633847 -13.8285192635867 0.981983723633847 -13.8285192635866 0.168751187369599 74.9108434043863 
! Gamma         0                0                0                0                
! Port Impedance         50               0                50               0                
16.1                           0.169750071223338 74.831843038664  0.981801116759022 -13.9124745548599 0.981801116759022 -13.9124745548599 0.169750047059591 74.8305165907701 
! Gamma         0                0                0                0                
! Port Impedance         50               0                50               0                
16.2                           0.170748126042731 74.7515150174724 0.981617590765389 -13.9963972375285 0.981617590765389 -13.9963972375285 0.170748101274278 74.7501805873968 
! Gamma         0                0                0                0                
! Port Impedance         50               0                50               0                
16.3                           0.171745371171463 74.6711785625011 0.98143314671349 -14.0802871288532 0.98143314671349 -14.0802871288532 0.171745345805106 74.6698361488653 
! Gamma         0                0                0                0                
! Port Impedance         50               0                50               0                
16.4                           0.172741802414544 74.5908344216006 0.98124778569747 -14.1641440460168 0.98124778569747 -14.1641440460167 0.172741776457139 74.5894840229422 
! Gamma         0                0                0                0                
! Port Impedance         50               0                50               0                
16.5                           0.173737415591017 74.5104833357926 0.981061508844486 -14.2479678061553 0.981061508844486 -14.2479678061553 0.173737389049463 74.5091249505674 
! Gamma         0                0                0                0                
! Port Impedance         50               0                50               0                
16.6                           0.174732206534349 74.4301260392792 0.980874317314124 -14.3317582263891 0.980874317314124 -14.331758226389 0.174732179415587 74.4287596658635 
! Gamma         0                0                0                0                
! Port Impedance         50               0                50               0                
16.7                           0.175726171092809 74.349763259456  0.98068621229783 -14.4155151238506 0.980686212297831 -14.4155151238505 0.175726143403819 74.3483888961487 
! Gamma         0                0                0                0                
! Port Impedance         50               0                50               0                
16.8                           0.176719305129829 74.2693957169288 0.980497195018348 -14.4992383157129 0.980497195018348 -14.4992383157129 0.17671927687762 74.2680133619539 
! Gamma         0                0                0                0                
! Port Impedance         50               0                50               0                
16.9                           0.177711604524342 74.1890241255337 0.980307266729165 -14.5829276192163 0.980307266729166 -14.5829276192162 0.17771157571595 74.187633777042  
! Gamma         0                0                0                0                
! Port Impedance         50               0                50               0                
17                             0.178703065171113 74.1086491923598 0.98011642871397 -14.6665828516931 0.98011642871397 -14.6665828516931 0.178703035813598 74.1072508484311 
! Gamma         0                0                0                0                
! Port Impedance         50               0                50               0                
17.1                           0.17969368298105 74.028271617775  0.979924682286117 -14.7502038305929 0.979924682286117 -14.7502038305929 0.179693653081489 74.0268652764201 
! Gamma         0                0                0                0                
! Port Impedance         50               0                50               0                
17.2                           0.180683453881499 73.9478920954546 0.9797320287881  -14.8337903735055 0.979732028788101 -14.8337903735054 0.180683423446981 73.946477754617  
! Gamma         0                0                0                0                
! Port Impedance         50               0                50               0                
17.3                           0.18167237381653 73.8675113124123 0.979538469591041 -14.9173422981834 0.97953846959104 -14.9173422981834 0.181672342854156 73.8660889699704 
! Gamma         0                0                0                0                
! Port Impedance         50               0                50               0                
17.4                           0.18266043874721 73.7871299490331 0.979344006094172 -15.0008594225637 0.979344006094172 -15.0008594225637 0.182660407264083 73.7856996028017 
! Gamma         0                0                0                0                
! Port Impedance         50               0                50               0                
17.5                           0.183647644651855 73.706748679109  0.979148639724349 -15.0843415647882 0.979148639724349 -15.0843415647882 0.183647612655082 73.7053103268412 
! Gamma         0                0                0                0                
! Port Impedance         50               0                50               0                
17.6                           0.184633987526283 73.6263681698762 0.978952371935551 -15.1677885432235 0.97895237193555 -15.1677885432235 0.184633955022966 73.6249218092651 
! Gamma         0                0                0                0                
! Port Impedance         50               0                50               0                
17.7                           0.185619463384045 73.5459890820544 0.978755204208402 -15.25120017648  0.978755204208403 -15.25120017648  0.185619430381281 73.5445347107349 
! Gamma         0                0                0                0                
! Port Impedance         50               0                50               0                
17.8                           0.186604068256651 73.4656120698875 0.978557138049703 -15.3345762834298 0.978557138049704 -15.3345762834298 0.186604034761524 73.4641496854378 
! Gamma         0                0                0                0                
! Port Impedance         50               0                50               0                
17.9                           0.187587798193782 73.3852377811863 0.978358174991959 -15.4179166832244 0.97835817499196 -15.4179166832244 0.187587764213362 73.3837673811294 
! Gamma         0                0                0                0                
! Port Impedance         50               0                50               0                
18                             0.188570649263495 73.3048668573723 0.978158316592928 -15.5012211953115 0.978158316592928 -15.5012211953115 0.188570614804835 73.3033884391776 
! Gamma         0                0                0                0                
! Port Impedance         50               0                50               0                
18.1                           0.189552617552414 73.2244999335227 0.977957564435168 -15.5844896394504 0.977957564435168 -15.5844896394504 0.189552582622545 73.2230134946076 
! Gamma         0                0                0                0                
! Port Impedance         50               0                50               0                
18.2                           0.19053369916592 73.144137638417  0.977755920125603 -15.6677218357282 0.977755920125603 -15.6677218357282 0.190533663771848 73.1426431761483 
! Gamma         0                0                0                0                
! Port Impedance         50               0                50               0                
18.3                           0.191513890228322 73.0637805945847 0.977553385295086 -15.7509176045739 0.977553385295086 -15.7509176045738 0.191513854377025 73.0622781062797 
! Gamma         0                0                0                0                
! Port Impedance         50               0                50               0                
18.4                           0.192493186883028 72.983429418353  0.977349961597973 -15.8340767667725 0.977349961597973 -15.8340767667725 0.192493150581451 72.9819189012815 
! Gamma         0                0                0                0                
! Port Impedance         50               0                50               0                
18.5                           0.193471585292704 72.903084719897  0.97714565071171 -15.9171991434792 0.97714565071171 -15.9171991434792 0.193471548547757 72.9015661712822 
! Gamma         0                0                0                0                
! Port Impedance         50               0                50               0                
18.6                           0.194449081639423 72.8227471032894 0.976940454336422 -16.0002845562314 0.976940454336422 -16.0002845562314 0.19444904445798 72.8212205203093 
! Gamma         0                0                0                0                
! Port Impedance         50               0                50               0                
18.7                           0.195425672124815 72.7424171665515 0.976734374194507 -16.0833328269619 0.976734374194507 -16.0833328269619 0.195425634513705 72.74088254634   
! Gamma         0                0                0                0                
! Port Impedance         50               0                50               0                
18.8                           0.196401352970201 72.6620955017043 0.976527412030248 -16.1663437780103 0.976527412030248 -16.1663437780103 0.19640131493621 72.6605528413528 
! Gamma         0                0                0                0                
! Port Impedance         50               0                50               0                
18.9                           0.197376120416724 72.5817826948213 0.976319569609417 -16.2493172321349 0.976319569609417 -16.2493172321348 0.19737608196659 72.5802319913795 
! Gamma         0                0                0                0                
! Port Impedance         50               0                50               0                
19                             0.198349970725473 72.5014793260802 0.976110848718902 -16.332253012523 0.976110848718902 -16.332253012523 0.198349931865885 72.4999205765576 
! Gamma         0                0                0                0                
! Port Impedance         50               0                50               0                
19.1                           0.199322900177604 72.4211859698161 0.975901251166324 -16.4151509428021 0.975901251166324 -16.4151509428021 0.199322860915197 72.419619171183  
! Gamma         0                0                0                0                
! Port Impedance         50               0                50               0                
19.2                           0.20029490507445 72.340903194575  0.975690778779679 -16.4980108470495 0.975690778779679 -16.4980108470495 0.200294865415801 72.3393283437634 
! Gamma         0                0                0                0                
! Port Impedance         50               0                50               0                
19.3                           0.201265981737628 72.2606315631668 0.975479433406969 -16.5808325498018 0.975479433406969 -16.5808325498018 0.201265941689256 72.2590486570718 
! Gamma         0                0                0                0                
! Port Impedance         50               0                50               0                
19.4                           0.202236126509139 72.1803716327195 0.975267216915854 -16.6636158760648 0.975267216915853 -16.6636158760648 0.202236086077502 72.1787806682001 
! Gamma         0                0                0                0                
! Port Impedance         50               0                50               0                
19.5                           0.203205335751465 72.1001239547327 0.975054131193297 -16.7463606513215 0.975054131193297 -16.7463606513215 0.203205294942956 72.098524928613  
! Gamma         0                0                0                0                
! Port Impedance         50               0                50               0                
19.6                           0.204173605847662 72.0198890751319 0.974840178145229 -16.8290667015413 0.974840178145229 -16.8290667015413 0.204173564668605 72.018281984202  
! Gamma         0                0                0                0                
! Port Impedance         50               0                50               0                
19.7                           0.20514093320144 71.9396675343224 0.974625359696208 -16.9117338531877 0.974625359696208 -16.9117338531877 0.205140891658092 71.9380523753392 
! Gamma         0                0                0                0                
! Port Impedance         50               0                50               0                
19.8                           0.20610731423725 71.8594598672433 0.974409677789093 -16.9943619332261 0.974409677789093 -16.9943619332261 0.206107272335795 71.8578366369318 
! Gamma         0                0                0                0                
! Port Impedance         50               0                50               0                
19.9                           0.20707274540036 71.7792666034219 0.974193134384715 -17.0769507691316 0.974193134384715 -17.0769507691316 0.207072703146906 71.7776352984757 
! Gamma         0                0                0                0                
! Port Impedance         50               0                50               0                
20                             0.208037223156925 71.6990882670272 0.973975731461563 -17.1595001888957 0.973975731461563 -17.1595001888957 0.208037180557503 71.6974488841098 
! Gamma         0                0                -0               -0               
! Port Impedance         50               0                50               0                
