! Touchstone file exported from HFSS 2026.1.0
!        File:           C:/ffzhzh/LocalFiles/Ansys_Project_Files/temp_train_TMRDL_117_1782982544_45328.aedt
!        Generated:      04:56:53 PM Jul  2, 2026
!        Design:         TMRDL
!        Project:        temp_train_TMRDL_117_1782982544_45328
!
! Variables:
!        h_bsmrdl = 2um
!        h_ox = 20um
!        h_rdl = 5um
!        h_sub = 80um
!        h_tmrdl = 4.37um
!        h_tsv = 80um
!        h_via = 3um
!        l_bsmrdl = 300um
!        l_sub = 516.55um
!        l_tmrdl = 116.55um
!        m_sub = 200um
!        pitch = 32.01um
!        r_tsv = 6um
!        s_tmrdl = 10um
!        w_bsmrdl = 18um
!        w_sub = 500um
!        w_tmrdl = 11.14um
!        x_tsv_center1 = 122.12um
!        x_tsv_center2 = 440.12um
!        x_tsv_center3 = 567.81um
!        x_tsv_center4 = 885.81um
!        x_tsv_center5 = 1013.5um
!        x_tsv_center6 = 1331.5um
!
# GHz S MA R 50.000000
! Terminal data exported
! Port[1] = TM_RDL1_1_T1
! Port[2] = TM_RDL1_1_T2
0.1                            0.00114760972189595 31.7073100446085 0.999024051225452 -0.0527727414749925 0.999024051225451 -0.0527727414749931 0.00114760970126946 31.7072870981432 
! Gamma         0                0                0                0                
! Port Impedance         50               0                50               0                
0.2                            0.0015587631100659 50.2920348589597 0.999005903788378 -0.105154591772857 0.999005903788377 -0.105154591772851 0.00155876301597407 50.2919885245792 
! Gamma         0                0                0                0                
! Port Impedance         50               0                50               0                
0.3                            0.00205679994188685 60.2282761935811 0.998982359959026 -0.15698790981355 0.998982359959025 -0.156987909813532 0.00205679969869276 60.2282097346674 
! Gamma         0                0                0                0                
! Port Impedance         50               0                50               0                
0.4                            0.00258485975078462 66.0887288313852 0.998958251364313 -0.208339236767629 0.998958251364312 -0.208339236767598 0.0025848593859745 66.0886442969723 
! Gamma         0                0                0                0                
! Port Impedance         50               0                50               0                
0.5                            0.0031249202302494 69.9227842230325 0.998935984542807 -0.259358568531899 0.998935984542806 -0.259358568531857 0.00312491983951564 69.9226816424444 
! Gamma         0                0                0                0                
! Port Impedance         50               0                50               0                
0.6                            0.00367115773897463 72.6306125631911 0.998916150298727 -0.310181039104355 0.998916150298726 -0.310181039104305 0.00367115742857774 72.6304909812837 
! Gamma         0                0                0                0                
! Port Impedance         50               0                50               0                
0.7                            0.00422144264122684 74.6469968641101 0.998898476848764 -0.360898950352548 0.998898476848763 -0.360898950352492 0.00422144249877624 74.6468551548354 
! Gamma         0                0                0                0                
! Port Impedance         50               0                50               0                
0.8                            0.00477477965559998 76.2051079306277 0.998882429097075 -0.411567316003705 0.998882429097074 -0.411567316003647 0.00477477974422237 76.204945140377  
! Gamma         0                0                0                0                
! Port Impedance         50               0                50               0                
0.9                            0.00533055259639342 77.4418620725813 0.998867473748417 -0.462216234655353 0.998867473748417 -0.462216234655295 0.00533055295862274 77.4416774943579 
! Gamma         0                0                0                0                
! Port Impedance         50               0                50               0                
1                              0.00588830281793101 78.443655886881  0.998853165156701 -0.512860921565309 0.998853165156701 -0.512860921565251 0.00588830348156716 78.4434490314424 
! Gamma         0                0                0                0                
! Port Impedance         50               0                50               0                
1.1                            0.00644766120841032 79.2681086236184 0.998839156541653 -0.563508192863765 0.998839156541653 -0.563508192863709 0.00644766219155149 79.2678791667155 
! Gamma         0                0                0                0                
! Port Impedance         50               0                50               0                
1.2                            0.00700832317636651 79.9553182696794 0.998825186501587 -0.6141602921189 0.998825186501587 -0.614160292118846 0.00700832449106822 79.9550660037459 
! Gamma         0                0                0                0                
! Port Impedance         50               0                50               0                
1.3                            0.0075700356342298 80.534136074188  0.998811060732121 -0.66481705606545 0.998811060732121 -0.664817056065398 0.00757003728897806 80.5338608712757 
! Gamma         0                0                0                0                
! Port Impedance         50               0                50               0                
1.4                            0.00813258774225807 81.0258854803073 0.99879663562638 -0.71547711467489 0.99879663562638 -0.715477114674839 0.00813258974358061 81.0255872656646 
! Gamma         0                0                0                0                
! Port Impedance         50               0                50               0                
1.5                            0.00869580338278996 81.4466791199792 0.998781805299164 -0.766138546999119 0.998781805299164 -0.76613854699907 0.00869580573628449 81.4463578538619 
! Gamma         0                0                0                0                
! Port Impedance         50               0                50               0                
1.6                            0.00925953488180548 81.8089220289724 0.998766491837532 -0.816799234337355 0.998766491837532 -0.816799234337308 0.00925953759278654 81.8085776943366 
! Gamma         0                0                0                0                
! Port Impedance         50               0                50               0                
1.7                            0.00982365781082029 82.1223198079671 0.998750638134729 -0.867457046036621 0.998750638134729 -0.867457046036576 0.00982366088472071 82.1219524022111 
! Gamma         0                0                0                0                
! Port Impedance         50               0                50               0                
1.8                            0.0103880667364164 82.3945736955932 0.99873420266254 -0.9181099331289 0.99873420266254 -0.918109933128856 0.0103880701790317 82.3941832250424 
! Gamma         0                0                0                0                
! Port Impedance         50               0                50               0                
1.9                            0.0109526717783555 82.6318711153627 0.998717155657011 -0.968755971555062 0.998717155657011 -0.96875597155502 0.0109526755959889 82.6314575915963 
! Gamma         0                0                0                0                
! Port Impedance         50               0                50               0                
2                              0.0115173958390313 82.8392389114299 0.998699476322664 -1.01939337818066 0.998699476322664 -1.01939337818062 0.011517400038574 82.8388023488443 
! Gamma         0                0                0                0                
! Port Impedance         50               0                50               0                
2.1                            0.0120821723793609 83.0208022157808 0.998681150768566 -1.07002051250805 0.998681150768567 -1.07002051250801 0.0120821769683336 83.020342629982  
! Gamma         0                0                0                0                
! Port Impedance         50               0                50               0                
2.2                            0.0126469436337701 83.1799771285783 0.998662170471356 -1.12063587124314 0.998662170471357 -1.1206358712431 0.0126469486203377 83.1794945353313 
! Gamma         0                0                0                0                
! Port Impedance         50               0                50               0                
2.3                            0.0132116591753352 83.3196161406796 0.998642531119604 -1.17123807965561 0.998642531119604 -1.17123807965557 0.0132116645683068 83.3191105552332 
! Gamma         0                0                0                0                
! Port Impedance         50               0                50               0                
2.4                            0.0137762747590844 83.4421192734321 0.998622231735958 -1.22182588186167 0.998622231735958 -1.22182588186164 0.0137762805679023 83.4415907100964 
! Gamma         0                0                0                0                
! Port Impedance         50               0                50               0                
2.5                            0.014340751385983 83.5495199910242 0.998601274003204 -1.27239813114172 0.998601274003204 -1.27239813114168 0.0143407576207063 83.5489684629182 
! Gamma         0                0                0                0                
! Port Impedance         50               0                50               0                
2.6                            0.0149050545420981 83.6435523074247 0.998579661741224 -1.32295378083577 0.998579661741224 -1.32295378083574 0.0149050612133829 83.6429778263379 
! Gamma         0                0                0                0                
! Port Impedance         50               0                50               0                
2.7                            0.0154691535770644 83.7257037089595 0.998557400496606 -1.37349187604543 0.998557400496606 -1.3734918760454 0.0154691606961421 83.7251062852904 
! Gamma         0                0                0                0                
! Port Impedance         50               0                50               0                
2.8                            0.0160330211936075 83.79725726176   0.998534497217049 -1.42401154620062 0.998534497217049 -1.42401154620059 0.0160330287722619 83.7966369045042 
! Gamma         0                0                0                0                
! Port Impedance         50               0                50               0                
2.9                            0.016596633025884 83.8593253904156 0.998510959990198 -1.47451199846198 0.998510959990198 -1.47451199846195 0.0165966410764283 83.8586821071876 
! Gamma         0                0                0                0                
! Port Impedance         50               0                50               0                
3                              0.0171599672890982 83.9128771830937 0.998486797831838 -1.52499251188797 0.998486797831839 -1.52499251188794 0.0171599758243524 83.9122109801686 
! Gamma         0                0                0                0                
! Port Impedance         50               0                50               0                
3.1                            0.0177230044865314 83.9587606217711 0.998462020512268 -1.57545243228013 0.998462020512268 -1.5754524322801 0.0177230135197998 83.9580715041392 
! Gamma         0                0                0                0                
! Port Impedance         50               0                50               0                
3.2                            0.0182857271629926 83.9977208020778 0.998436638412462 -1.62589116761761 0.998436638412462 -1.62589116761759 0.0182857367080414 83.9970087735064 
! Gamma         0                0                0                0                
! Port Impedance         50               0                50               0                
3.3                            0.018848119695948 84.0304149601607 0.998410662403701 -1.67630818399746 0.998410662403702 -1.67630818399744 0.018848129766984 84.0296800232587 
! Gamma         0                0                0                0                
! Port Impedance         50               0                50               0                
3.4                            0.0194101681173556 84.0574249394644 0.998384103745865 -1.72670300200491 0.998384103745865 -1.72670300200489 0.0194101787290051 84.0566670957483 
! Gamma         0                0                0                0                
! Port Impedance         50               0                50               0                
3.5                            0.0199718599606196 84.079267591295  0.998356974000703 -1.7770751934476 0.998356974000703 -1.77707519344758 0.019971871127908 84.0784868412534 
! Gamma         0                0                0                0                
! Port Impedance         50               0                50               0                
3.6                            0.0205331841281774 84.0964034973618 0.998329284957274 -1.82742437839655 0.998329284957274 -1.82742437839653 0.0205331958665088 84.0955998405181 
! Gamma         0                0                0                0                
! Port Impedance         50               0                50               0                
3.7                            0.0210941307761017 84.1092443215449 0.998301048567332 -1.8777502224854 0.998301048567332 -1.87775022248538 0.0210941431012397 84.1084177565185 
! Gamma         0                0                0                0                
! Port Impedance         50               0                50               0                
3.8                            0.0216546912127946 84.1181590356487 0.998272276888977 -1.92805243442706 0.998272276888977 -1.92805243442705 0.0216547041408429 84.1173095602118 
! Gamma         0                0                0                0                
! Port Impedance         50               0                50               0                
3.9                            0.0222148578093999 84.1234792153222 0.998242982037203 -1.97833076371371 0.998242982037203 -1.97833076371369 0.0222148713567836 84.1226068264552 
! Gamma         0                0                0                0                
! Port Impedance         50               0                50               0                
4                              0.0227746239200046 84.1255035643093 0.998213176140295 -2.02858499847162 0.998213176140295 -2.02858499847161 0.022774638103452 84.1246082582522 
! Gamma         0                0                0                0                
! Port Impedance         50               0                50               0                
4.1                            0.0233339838100561 84.124501795243  0.998182871301217 -2.07881496344766 0.998182871301217 -2.07881496344764 0.0233339986465808 84.1235835675442 
! Gamma         0                0                0                0                
! Port Impedance         50               0                50               0                
4.2                            0.0238929325917088 84.1207179714674 0.998152079563326 -2.12902051810796 0.998152079563326 -2.12902051810795 0.023892948098592 84.11977681703   
! Gamma         0                0                0                0                
! Port Impedance         50               0                50               0                
4.3                            0.0244514661650447 84.1143733954566 0.998120812879848 -2.17920155483331 0.998120812879848 -2.1792015548333 0.024451482359818 84.1134093085818 
! Gamma         0                0                0                0                
! Port Impedance         50               0                50               0                
4.4                            0.025009581164304 84.1056691142432 0.998089083086679 -2.22935799719817 0.998089083086679 -2.22935799719816 0.0250095980647326 84.104682088671  
! Gamma         0                0                0                0                
! Port Impedance         50               0                50               0                
4.5                            0.025567274908412 84.0947881000582 0.998056901878135 -2.27948979832333 0.998056901878135 -2.27948979832332 0.0255672925324783 84.093778129006  
! Gamma         0                0                0                0                
! Port Impedance         50               0                50               0                
4.6                            0.0261245453552169 84.0818971544997 0.998024280785352 -2.32959693929352 0.998024280785352 -2.32959693929351 0.0261245637211044 84.080864230699  
! Gamma         0                0                0                0                
! Port Impedance         50               0                50               0                
4.7                            0.0266813910589527 84.0671485765098 0.997991231157075 -2.37967942763366 0.997991231157076 -2.37967942763366 0.0266814101850299 84.0660926922404 
! Gamma         0                0                0                0                
! Port Impedance         50               0                50               0                
4.8                            0.0272378111305265 84.0506816278659 0.997957764142615 -2.42973729583829 0.997957764142615 -2.42973729583828 0.0272378310353316 84.0496027749884 
! Gamma         0                0                0                0                
! Port Impedance         50               0                50               0                
4.9                            0.0277938052002994 84.0326238245048 0.997923890676793 -2.47977059995003 0.997923890676793 -2.47977059995003 0.0277938259025253 84.0315219944913 
! Gamma         0                0                0                0                
! Port Impedance         50               0                50               0                
5                              0.028349373383084 84.0130920775537 0.997889621466703 -2.52977941818409 0.997889621466703 -2.52977941818408 0.0283493949015636 84.0119672615168 
! Gamma         0                0                0                0                
! Port Impedance         50               0                50               0                
5.1                            0.0289045162451309 83.992193704268  0.997854966980162 -2.57976384959599 0.997854966980162 -2.57976384959598 0.0289045385988226 83.9910458929886 
! Gamma         0                0                0                0                
! Port Impedance         50               0                50               0                
5.2                            0.0294592347729118 83.9700273260222 0.9978199374357  -2.62972401279093 0.997819937435699 -2.62972401279093 0.0294592579808856 83.9688565099756 
! Gamma         0                0                0                0                
! Port Impedance         50               0                50               0                
5.3                            0.0300135303435414 83.946683667958  0.997784542793998 -2.67966004467321 0.997784542793998 -2.67966004467321 0.0300135544249652 83.9454898373387 
! Gamma         0                0                0                0                
! Port Impedance         50               0                50               0                
5.4                            0.030567404696703 83.9222462727647 0.997748792750662 -2.72957209923466 0.997748792750662 -2.72957209923465 0.0305674296708296 83.92102941751   
! Gamma         0                0                0                0                
! Port Impedance         50               0                50               0                
5.5                            0.0311208599079662 83.8967921392806 0.997712696730229 -2.7794603463814 0.997712696730229 -2.7794603463814 0.0311208857941203 83.8955522490931 
! Gamma         0                0                0                0                
! Port Impedance         50               0                50               0                
5.6                            0.0316738983634014 83.8703922951024 0.997676263881337 -2.82932497079833 0.997676263881336 -2.82932497079832 0.0316739251809674 83.8691293594711 
! Gamma         0                0                0                0                
! Port Impedance         50               0                50               0                
5.7                            0.0322265227354105 83.8431123111168 0.997639503072961 -2.87916617085083 0.997639503072961 -2.87916617085083 0.03222655050382 83.8418263193378 
! Gamma         0                0                0                0                
! Port Impedance         50               0                50               0                
5.8                            0.032778735959704 83.8150127647966 0.997602422891655 -2.9289841575236 0.997602422891655 -2.9289841575236 0.0327787646984248 83.8137037059921 
! Gamma         0                0                0                0                
! Port Impedance         50               0                50               0                
5.9                            0.0333305412133659 83.7861496581844 0.997565031639704 -2.97877915339622 0.997565031639704 -2.97877915339622 0.0333305709418904 83.7848175213211 
! Gamma         0                0                0                0                
! Port Impedance         50               0                50               0                
6                              0.0338819418939532 83.756574795713  0.997527337334154 -3.02855139165525 0.997527337334154 -3.02855139165525 0.033881972631788 83.7552195696197 
! Gamma         0                0                0                0                
! Port Impedance         50               0                50               0                
6.1                            0.0344329415995863 83.7263361263431 0.997489347706622 -3.07830111514283 0.997489347706622 -3.07830111514283 0.0344329733662415 83.7249577997275 
! Gamma         0                0                0                0                
! Port Impedance         50               0                50               0                
6.2                            0.0349835441099871 83.6954780539313 0.997451070203846 -3.12802857544135 0.997451070203845 -3.12802857544135 0.0349835769249663 83.6940766153955 
! Gamma         0                0                0                0                
! Port Impedance         50               0                50               0                
6.3                            0.0355337533684303 83.6640417192483 0.99741251198891 -3.17773403199426 0.99741251198891 -3.17773403199426 0.0355337872512218 83.6626171573042 
! Gamma         0                0                0                0                
! Port Impedance         50               0                50               0                
6.4                            0.0360835734645742 83.6320652566517 0.997373679943101 -3.22741775126241 0.9973736799431  -3.22741775126241 0.0360836084346412 83.6306175597352 
! Gamma         0                0                0                0                
! Port Impedance         50               0                50               0                
6.5                            0.0366330086181396 83.5995840280481 0.997334580668314 -3.27708000591603 0.997334580668314 -3.27708000591603 0.0366330446949118 83.5981131845328 
! Gamma         0                0                0                0                
! Port Impedance         50               0                50               0                
6.6                            0.0371820631634086 83.5666308364697 0.997295220490003 -3.3267210740616 0.997295220490003 -3.3267210740616 0.037182100366274 83.5651368346798 
! Gamma         0                0                0                0                
! Port Impedance         50               0                50               0                
6.7                            0.0377307415345163 83.5332361213138 0.997255605460584 -3.37634123850356 0.997255605460584 -3.37634123850356 0.0377307798828134 83.5317189495364 
! Gamma         0                0                0                0                
! Port Impedance         50               0                50               0                
6.8                            0.0382790482515095 83.4994281370617 0.997215741363282 -3.42594078604014 0.997215741363281 -3.42594078604014 0.03827908776452 83.4978877835584 
! Gamma         0                0                0                0                
! Port Impedance         50               0                50               0                
6.9                            0.0388269879071476 83.465233117082  0.997175633716349 -3.47552000679298 0.997175633716348 -3.47552000679298 0.0388270286040892 83.4636695701002 
! Gamma         0                0                0                0                
! Port Impedance         50               0                50               0                
7                              0.0393745651544216 83.4306754239474 0.997135287777639 -3.52507919356996 0.997135287777638 -3.52507919356995 0.0393746070544415 83.4290886717306 
! Gamma         0                0                0                0                
! Port Impedance         50               0                50               0                
7.1                            0.0399217846947676 83.3957776875357 0.997094708549485 -3.57461864126046 0.997094708549484 -3.57461864126046 0.0399218278169364 83.3941677183332 
! Gamma         0                0                0                0                
! Port Impedance         50               0                50               0                
7.2                            0.0404686512669522 83.360560932046  0.99705390078384 -3.62413864626275 0.997053900783839 -3.62413864626275 0.0404686956302582 83.3589277341227 
! Gamma         0                0                0                0                
! Port Impedance         50               0                50               0                
7.3                            0.0410151696366073 83.3250446929445 0.997012868987664 -3.67363950594238 0.997012868987663 -3.67363950594238 0.0410152152599509 83.3233882545891 
! Gamma         0                0                0                0                
! Port Impedance         50               0                50               0                
7.4                            0.0415613445863911 83.2892471247426 0.996971617428506 -3.72312151812122 0.996971617428506 -3.72312151812122 0.0415613914885797 83.2875674342767 
! Gamma         0                0                0                0                
! Port Impedance         50               0                50               0                
7.5                            0.0421071809067544 83.2531851004215 0.996930150140265 -3.77258498059611 0.996930150140264 -3.77258498059611 0.0421072291064982 83.2514821462068 
! Gamma         0                0                0                0                
! Port Impedance         50               0                50               0                
7.6                            0.0426526833872903 83.2168743032305 0.996888470929086 -3.8220301906865 0.996888470929085 -3.8220301906865 0.0426527329031975 83.215148073676  
! Gamma         0                0                0                0                
! Port Impedance         50               0                50               0                
7.7                            0.0431978568086447 83.1803293115155 0.996846583379387 -3.8714574448101 0.996846583379386 -3.8714574448101 0.0431979076592179 83.178579795085  
! Gamma         0                0                0                0                
! Port Impedance         50               0                50               0                
7.8                            0.0437427059349681 83.1435636771695 0.996804490859966 -3.92086703808581 0.996804490859965 -3.9208670380858 0.0437427581386006 83.1417908623878 
! Gamma         0                0                0                0                
! Port Impedance         50               0                50               0                
7.9                            0.0442872355068865 83.1065899982381 0.99676219653018 -3.97025926396293 0.996762196530179 -3.97025926396293 0.0442872890818589 83.1047938736964 
! Gamma         0                0                0                0                
! Port Impedance         50               0                50               0                
8                              0.0448314502349702 83.0694199861613 0.996719703346178 -4.01963441387597 0.996719703346177 -4.01963441387596 0.0448315051994478 83.0676005405237 
! Gamma         0                0                0                0                
! Port Impedance         50               0                50               0                
8.1                            0.0453753547936823 83.0320645280913 0.996677014067152 -4.06899277692386 0.99667701406715 -4.06899277692385 0.045375411165712 83.0302217500992 
! Gamma         0                0                0                0                
! Port Impedance         50               0                50               0                
8.2                            0.0459189538157838 82.9945337446792 0.9966341312616  -4.11833463957294 0.996634131261599 -4.11833463957294 0.045919011613292 82.9926676231566 
! Gamma         0                0                0                0                
! Port Impedance         50               0                50               0                
8.3                            0.0464622518871772 82.9568370436939 0.996591057313586 -4.16766028538271 0.996591057313584 -4.1676602853827 0.0464623111279681 82.9549475675515 
! Gamma         0                0                0                0                
! Port Impedance         50               0                50               0                
8.4                            0.0470052535421698 82.9189831697971 0.996547794428965 -4.21696999475334 0.996547794428964 -4.21696999475333 0.0470053142439229 82.9170703280366 
! Gamma         0                0                0                0                
! Port Impedance         50               0                50               0                
8.5                            0.0475479632591351 82.8809802507762 0.996504344641579 -4.26626404469419 0.996504344641577 -4.26626404469418 0.0475480254394043 82.8790440324938 
! Gamma         0                0                0                0                
! Port Impedance         50               0                50               0                
8.6                            0.0480903854565558 82.8428358405045 0.996460709819395 -4.31554270861242 0.996460709819394 -4.31554270861241 0.0480904491327679 82.8408762348944 
! Gamma         0                0                0                0                
! Port Impedance         50               0                50               0                
8.7                            0.0486325244894297 82.8045569588785 0.996416891670586 -4.36480625612063 0.996416891670585 -4.36480625612062 0.0486325896788836 82.8025739552361 
! Gamma         0                0                0                0                
! Port Impedance         50               0                50               0                
8.8                            0.0491743846460193 82.7661501289599 0.99637289174953 -4.41405495286292 0.996372891749529 -4.41405495286291 0.0491744513658849 82.7641437166842 
! Gamma         0                0                0                0                
! Port Impedance         50               0                50               0                
8.9                            0.0497159701449297 82.7276214115291 0.996328711462732 -4.46328906035827 0.99632871146273 -4.46328906035826 0.0497160384122475 82.7255915801258 
! Gamma         0                0                0                0                
! Port Impedance         50               0                50               0                
9                              0.0502572851324954 82.6889764372432 0.996284352074646 -4.51250883586052 0.996284352074645 -4.5125088358605 0.0502573549641764 82.6869231763261 
! Gamma         0                0                0                0                
! Port Impedance         50               0                50               0                
9.1                            0.0507983336804626 82.6502204365714 0.996239814713411 -4.56171453223409 0.996239814713409 -4.56171453223407 0.0507984050932878 82.648143735865  
! Gamma         0                0                0                0                
! Port Impedance         50               0                50               0                
9.2                            0.0513391197839478 82.611358267671  0.99619510037646 -4.61090639784464 0.996195100376458 -4.61090639784462 0.0513391927945686 82.6092581170119 
! Gamma         0                0                0                0                
! Port Impedance         50               0                50               0                
9.3                            0.0518796473596595 82.5723944423504 0.996150209936038 -4.66008467646381 0.996150209936036 -4.66008467646379 0.0518797219845976 82.5702708316889 
! Gamma         0                0                0                0                
! Port Impedance         50               0                50               0                
9.4                            0.0524199202443669 82.5333331502572 0.996105144144585 -4.70924960718735 0.996105144144583 -4.70924960718733 0.052419996500015 82.5311860696583 
! Gamma         0                0                0                0                
! Port Impedance         50               0                50               0                
9.5                            0.052959942193602 82.4941782814153 0.99605990364001 -4.75840142436588 0.996059903640008 -4.75840142436586 0.0529600200962242 82.4920077210599 
! Gamma         0                0                0                0                
! Port Impedance         50               0                50               0                
9.6                            0.0534997168805797 82.4549334472294 0.996014488950831 -4.80754035754746 0.996014488950829 -4.80754035754744 0.0534997964463123 82.4527393974151 
! Gamma         0                0                0                0                
! Port Impedance         50               0                50               0                
9.7                            0.0540392478953239 82.4156020000616 0.995968900501192 -4.85666663143142 0.99596890050119 -4.85666663143139 0.0540393291401764 82.4133844512031 
! Gamma         0                0                0                0                
! Port Impedance         50               0                50               0                
9.8                            0.0545785387439868 82.3761870514814 0.99592313861575 -4.90578046583262 0.995923138615748 -4.9057804658326 0.0545786216838425 82.3739459941111 
! Gamma         0                0                0                0                
! Port Impedance         50               0                50               0                
9.9                            0.0551175928483467 82.3366914892795 0.995877203524426 -4.95488207565561 0.995877203524424 -4.95488207565558 0.0551176774989641 82.3344269140478 
! Gamma         0                0                0                0                
! Port Impedance         50               0                50               0                
10                             0.0556564135454757 82.2971179933308 0.995831095367026 -5.00397167087793 0.995831095367024 -5.0039716708779 0.0556564999224899 82.2948298910058 
! Gamma         0                0                0                0                
! Port Impedance         50               0                50               0                
10.1                           0.0561950040875632 82.2574690503849 0.995784814197727 -5.05304945654207 0.995784814197725 -5.05304945654204 0.0561950922064867 82.2551574118529 
! Gamma         0                0                0                0                
! Port Impedance         50               0                50               0                
10.2                           0.0567333676418857 82.217746967858  0.99573835998943 -5.10211563275542 0.995738359989428 -5.10211563275538 0.0567334575181104 82.2154117841227 
! Gamma         0                0                0                0                
! Port Impedance         50               0                50               0                
10.3                           0.0572715072909122 82.1779538866925 0.995691732637977 -5.1511703946977 0.995691732637975 -5.15117039469767 0.0572715989397106 82.1755951488749 
! Gamma         0                0                0                0                
! Port Impedance         50               0                50               0                
10.4                           0.057809426032535 82.1380917933483 0.995644931966236 -5.20021393263531 0.995644931966234 -5.20021393263528 0.0578095194690619 82.1357094926864 
! Gamma         0                0                0                0                
! Port Impedance         50               0                50               0                
10.5                           0.0583471267804164 82.098162530984  0.995597957728053 -5.24924643194205 0.99559795772805 -5.24924643194201 0.0583472220197105 82.0957566588318 
! Gamma         0                0                0                0                
! Port Impedance         50               0                50               0                
10.6                           0.0588846123644431 82.0581678098817 0.995550809612068 -5.29826807312585 0.995550809612066 -5.29826807312582 0.0588847094214291 82.0557383577087 
! Gamma         0                0                0                0                
! Port Impedance         50               0                50               0                
10.7                           0.0594218855312786 82.0181092171664 0.995503487245413 -5.34727903186089 0.995503487245411 -5.34727903186085 0.0594219844207685 82.0156561765567 
! Gamma         0                0                0                0                
! Port Impedance         50               0                50               0                
10.8                           0.059958948945006 81.9779882258677 0.995455990197265 -5.39627947902477 0.995455990197262 -5.39627947902472 0.0599590496817014 81.975511588519  
! Gamma         0                0                0                0                
! Port Impedance         50               0                50               0                
10.9                           0.0604958051878539 81.9378062033653 0.995408317982282 -5.44526958074026 0.99540831798228 -5.44526958074022 0.0604959077863476 81.9353059610881 
! Gamma         0                0                0                0                
! Port Impedance         50               0                50               0                
11                             0.0610324567609971 81.8975644192624 0.995360470063917 -5.4942494984213 0.995360470063915 -5.49424949842126 0.0610325612357752 81.8950405639785 
! Gamma         0                0                0                0                
! Port Impedance         50               0                50               0                
11.1                           0.0615689060854261 81.8572640527214 0.9953124458576  -5.54321938882275 0.995312445857597 -5.5432193888227 0.06156901245087 81.8547165764631 
! Gamma         0                0                0                0                
! Port Impedance         50               0                50               0                
11.2                           0.0621051555028785 81.8169061993004 0.995264244733803 -5.59217940409361 0.995264244733801 -5.59217940409356 0.0621052637732671 81.814335094209  
! Gamma         0                0                0                0                
! Port Impedance         50               0                50               0                
11.3                           0.0626412072768261 81.7764918773214 0.995215866020994 -5.64112969183346 0.995215866020991 -5.64112969183341 0.0626413174663375 81.773897135646  
! Gamma         0                0                0                0                
! Port Impedance         50               0                50               0                
11.4                           0.0631770635935119 81.7360220338025 0.995167309008465 -5.69007039515153 0.995167309008462 -5.69007039515148 0.0631771757162258 81.7334036478986 
! Gamma         0                0                0                0                
! Port Impedance         50               0                50               0                
11.5                           0.0637127265630317 81.6954975499815 0.995118572949054 -5.73900165272845 0.995118572949051 -5.73900165272839 0.0637128406329312 81.6928555123093 
! Gamma         0                0                0                0                
! Port Impedance         50               0                50               0                
11.6                           0.0642481982204548 81.6549192464584 0.995069657061757 -5.78792359888008 0.995069657061754 -5.78792359888002 0.0642483142514289 81.6522535495819 
! Gamma         0                0                0                0                
! Port Impedance         50               0                50               0                
11.7                           0.0647834805269798 81.6142878879831 0.995020560534228 -5.83683636362335 0.995020560534225 -5.83683636362329 0.0647835985328252 81.6115985245678 
! Gamma         0                0                0                0                
! Port Impedance         50               0                50               0                
11.8                           0.0653185753711197 81.5736041879086 0.99497128252518 -5.88574007274382 0.994971282525177 -5.88574007274376 0.0653186953655429 81.5708911507206 
! Gamma         0                0                0                0                
! Port Impedance         50               0                50               0                
11.9                           0.0658534845699131 81.5328688123353 0.994921822166679 -5.9346348478646 0.994921822166677 -5.93463484786454 0.0658536065665329 81.5301320942392 
! Gamma         0                0                0                0                
! Port Impedance         50               0                50               0                
12                             0.0663882098701572 81.4920823839635 0.994872178566347 -5.98352080651665 0.994872178566344 -5.98352080651659 0.0663883338825065 81.489321977921  
! Gamma         0                0                0                0                
! Port Impedance         50               0                50               0                
12.1                           0.0669227529496592 81.4512454856758 0.994822350809457 -6.03239806220998 0.994822350809454 -6.03239806220992 0.0669228789911872 81.448461384744  
! Gamma         0                0                0                0                
! Port Impedance         50               0                50               0                
12.2                           0.0674571154185014 81.4103586638655 0.99477233796095 -6.08126672450579 0.994772337960947 -6.08126672450573 0.0674572435025757 81.4075508611953 
! Gamma         0                0                0                0                
! Port Impedance         50               0                50               0                
12.3                           0.0679912988203189 81.369422431529  0.994722139067346 -6.1301268990892 0.994722139067344 -6.13012689908914 0.0679914289602278 81.366590920363  
! Gamma         0                0                0                0                
! Port Impedance         50               0                50               0                
12.4                           0.0685253046335852 81.3284372711363 0.994671753158585 -6.17897868784254 0.994671753158582 -6.17897868784247 0.0685254368425394 81.3255820448074 
! Gamma         0                0                0                0                
! Port Impedance         50               0                50               0                
12.5                           0.0690591342729029 81.2874036372956 0.994621179249762 -6.22782218891888 0.994621179249759 -6.22782218891881 0.0690592685640382 81.2845246892253 
! Gamma         0                0                0                0                
! Port Impedance         50               0                50               0                
12.6                           0.0695927890902992 81.2463219592253 0.994570416342802 -6.27665749681588 0.9945704163428  -6.27665749681581 0.0695929254766777 81.2434192829218 
! Gamma         0                0                0                0                
! Port Impedance         50               0                50               0                
12.7                           0.0701262703765199 81.2051926430457 0.994519463428043 -6.32548470244958 0.994519463428041 -6.32548470244951 0.0701264088711329 81.2022662321021 
! Gamma         0                0                0                0                
! Port Impedance         50               0                50               0                
12.8                           0.0706595793623241 81.1640160739024 0.994468319485744 -6.37430389322822 0.994468319485741 -6.37430389322814 0.0706597199780935 81.1610659219951 
! Gamma         0                0                0                0                
! Port Impedance         50               0                50               0                
12.9                           0.071192717219774 81.1227926179333 0.994416983487522 -6.42311515312576 0.994416983487519 -6.42311515312569 0.0711928599695547 81.1198187188199 
! Gamma         0                0                0                0                
! Port Impedance         50               0                50               0                
13                             0.07172568506352 81.0815226240888 0.994365454397718 -6.4719185627553 0.994365454397715 -6.47191856275522 0.0717258299601016 81.0785249716067 
! Gamma         0                0                0                0                
! Port Impedance         50               0                50               0                
13.1                           0.0722584839520785 81.0402064258155 0.994313731174693 -6.5207141994419 0.994313731174691 -6.52071419944182 0.0722586310081874 81.0371850138799 
! Gamma         0                0                0                0                
! Port Impedance         50               0                50               0                
13.2                           0.0727911148891016 80.9988443426126 0.99426181277206 -6.56950213729513 0.994261812772057 -6.56950213729505 0.0727912641174029 80.9957991652148 
! Gamma         0                0                0                0                
! Port Impedance         50               0                50               0                
13.3                           0.0733235788246364 80.9574366814685 0.994209698139846 -6.61828244728092 0.994209698139843 -6.61828244728085 0.0733237302377358 80.9543677326743 
! Gamma         0                0                0                0                
! Port Impedance         50               0                50               0                
13.4                           0.073855876656373 80.9159837381877 0.994157386225606 -6.6670551972929 0.994157386225603 -6.66705519729282 0.0738560302668185 80.9128910121354 
! Gamma         0                0                0                0                
! Port Impedance         50               0                50               0                
13.5                           0.0743880092308807 80.8744857986137 0.994104875975463 -6.71582045222295 0.99410487597546 -6.71582045222287 0.0743881650511647 80.8713692895123 
! Gamma         0                0                0                0                
! Port Impedance         50               0                50               0                
13.6                           0.0749199773448299 80.8329431397549 0.994052166335104 -6.76457827403109 0.994052166335101 -6.764578274031  0.0749201353873906 80.8298028418827 
! Gamma         0                0                0                0                
! Port Impedance         50               0                50               0                
13.7                           0.0754517817461999 80.7913560308214 0.993999256250714 -6.81332872181448 0.993999256250711 -6.81332872181439 0.0754519420234236 80.788191938524  
! Gamma         0                0                0                0                
! Port Impedance         50               0                50               0                
13.8                           0.0759834231354721 80.7497247341782 0.993946144669861 -6.86207185187566 0.993946144669858 -6.86207185187558 0.0759835856596943 80.7465368418669 
! Gamma         0                0                0                0                
! Port Impedance         50               0                50               0                
13.9                           0.0765149021668059 80.7080495062197 0.993892830542333 -6.91080771778983 0.99389283054233 -6.91080771778974 0.0765150669503136 80.7048378083699 
! Gamma         0                0                0                0                
! Port Impedance         50               0                50               0                
14                             0.0770462194491992 80.6663305981723 0.993839312820922 -6.95953637047118 0.99383931282092 -6.95953637047109 0.0770463865042322 80.6630950893215 
! Gamma         0                0                0                0                
! Port Impedance         50               0                50               0                
14.1                           0.0775773755476307 80.6245682568286 0.993785590462166 -7.00825785823833 0.993785590462164 -7.00825785823824 0.0775775448863833 80.6213089315751 
! Gamma         0                0                0                0                
! Port Impedance         50               0                50               0                
14.2                           0.0781083709841853 80.58276272522   0.993731662427047 -7.05697222687869 0.993731662427044 -7.0569722268786 0.0781085426188079 80.5794795782212 
! Gamma         0                0                0                0                
! Port Impedance         50               0                50               0                
14.3                           0.0786392062391606 80.5409142432295 0.993677527681644 -7.10567951971184 0.993677527681641 -7.10567951971175 0.0786393801817611 80.5376072692001 
! Gamma         0                0                0                0                
! Port Impedance         50               0                50               0                
14.4                           0.079169881752155 80.4990230481511 0.993623185197749 -7.15437977765189 0.993623185197747 -7.1543797776518 0.0791700580148008 80.4956922418616 
! Gamma         0                0                0                0                
! Port Impedance         50               0                50               0                
14.5                           0.0797003979231377 80.457089375198  0.993568633953446 -7.20307303926869 0.993568633953443 -7.2030730392686 0.0797005765178564 80.4537347314731 
! Gamma         0                0                0                0                
! Port Impedance         50               0                50               0                
14.6                           0.0802307551134984 80.4151134579644 0.993513872933643 -7.25175934084805 0.99351387293364 -7.25175934084796 0.08023093605228 80.4117349716815 
! Gamma         0                0                0                0                
! Port Impedance         50               0                50               0                
14.7                           0.0807609536470787 80.3730955288435 0.993458901130583 -7.30043871645085 0.993458901130581 -7.30043871645076 0.0807611369418765 80.369693194931  
! Gamma         0                0                0                0                
! Port Impedance         50               0                50               0                
14.8                           0.0812909938111837 80.3310358194051 0.993403717544313 -7.34911119797101 0.99340371754431 -7.34911119797092 0.0812911794739159 80.3276096328411 
! Gamma         0                0                0                0                
! Port Impedance         50               0                50               0                
14.9                           0.0818208758575739 80.2889345607356 0.993348321183119 -7.39777681519241 0.993348321183116 -7.39777681519232 0.0818210639001249 80.2854845165463 
! Gamma         0                0                0                0                
! Port Impedance         50               0                50               0                
15                             0.0823506000034381 80.2467919837436 0.993292711063937 -7.44643559584468 0.993292711063935 -7.44643559584458 0.0823507904376598 80.2433180770017 
! Gamma         0                0                0                0                
! Port Impedance         50               0                50               0                
15.1                           0.0828801664323459 80.204608319433  0.993236886212732 -7.49508756565783 0.993236886212729 -7.49508756565774 0.0828803592700589 80.2011105452567 
! Gamma         0                0                0                0                
! Port Impedance         50               0                50               0                
15.2                           0.0834095752951816 80.1623837991467 0.993180845664845 -7.5437327484159 0.993180845664842 -7.54373274841581 0.0834097705481765 80.1588621526975 
! Gamma         0                0                0                0                
! Port Impedance         50               0                50               0                
15.3                           0.0839388267110575 80.1201186547819 0.99312458846532 -7.59237116600935 0.993124588465318 -7.59237116600926 0.0839390243910958 80.1165731312639 
! Gamma         0                0                0                0                
! Port Impedance         50               0                50               0                
15.4                           0.0844679207682087 80.0778131189812 0.993068113669205 -7.64100283848645 0.993068113669202 -7.64100283848635 0.0844681208870244 80.0742437136395 
! Gamma         0                0                0                0                
! Port Impedance         50               0                50               0                
15.5                           0.0849968575248677 80.0354674252992 0.993011420341818 -7.68962778410351 0.993011420341816 -7.68962778410341 0.0849970600941683 80.0318741334183 
! Gamma         0                0                0                0                
! Port Impedance         50               0                50               0                
15.6                           0.0855256370101209 79.9930818083477 0.992954507559011 -7.73824601937408 0.992954507559008 -7.73824601937398 0.0855258420415881 79.9894646252505 
! Gamma         0                0                0                0                
! Port Impedance         50               0                50               0                
15.7                           0.0860542592247449 79.950656503921  0.992897374407388 -7.78685755911701 0.992897374407386 -7.78685755911692 0.0860544667300361 79.9470154249675 
! Gamma         0                0                0                0                
! Port Impedance         50               0                50               0                
15.8                           0.0865827241420246 79.9081917491029 0.992840019984524 -7.83546241650347 0.992840019984522 -7.83546241650337 0.0865829341327737 79.9045267696885 
! Gamma         0                0                0                0                
! Port Impedance         50               0                50               0                
15.9                           0.0871110317085523 79.8656877823563 0.992782443399148 -7.88406060310286 0.992782443399145 -7.88406060310277 0.0871112441963706 79.861998897911  
! Gamma         0                0                0                0                
! Port Impedance         50               0                50               0                
16                             0.0876391818450088 79.8231448435978 0.992724643771316 -7.93265212892776 0.992724643771313 -7.93265212892767 0.087639396841486 79.8194320495848 
! Gamma         0                0                0                0                
! Port Impedance         50               0                50               0                
16.1                           0.0881671744469253 79.7805631742576 0.992666620232565 -7.98123700247773 0.992666620232563 -7.98123700247764 0.0881673919636307 79.7768264661719 
! Gamma         0                0                0                0                
! Port Impedance         50               0                50               0                
16.2                           0.0886950093854286 79.7379430173265 0.99260837192605 -8.02981523078214 0.992608371926048 -8.02981523078205 0.0886952294339114 79.7341823906941 
! Gamma         0                0                0                0                
! Port Impedance         50               0                50               0                
16.3                           0.0892226865079673 79.695284617391  0.99254989800666 -8.07838681944202 0.992549898006658 -8.07838681944193 0.089222909099758 79.6915000677673 
! Gamma         0                0                0                0                
! Port Impedance         50               0                50               0                
16.4                           0.0897502056390213 79.6525882206572 0.992491197641128 -8.12695177267082 0.992491197641126 -8.12695177267072 0.089750430785632 79.6487797436262 
! Gamma         0                0                0                0                
! Port Impedance         50               0                50               0                
16.5                           0.0902775665807935 79.609854074965  0.992432270008121 -8.17551009333424 0.992432270008119 -8.17551009333415 0.0902777942937191 79.606021666138  
! Gamma         0                0                0                0                
! Port Impedance         50               0                50               0                
16.6                           0.0908047691138849 79.5670824297932 0.992373114298312 -8.22406178298915 0.99237311429831 -8.22406178298906 0.0908049994046037 79.5632260848078 
! Gamma         0                0                0                0                
! Port Impedance         50               0                50               0                
16.7                           0.0913318129979533 79.5242735362561 0.992313729714453 -8.27260684192139 0.992313729714451 -8.27260684192131 0.0913320458779274 79.520393250775  
! Gamma         0                0                0                0                
! Port Impedance         50               0                50               0                
16.8                           0.0918586979723544 79.4814276470931 0.992254115471422 -8.32114526918283 0.99225411547142 -8.32114526918275 0.091858933453031 79.4775234168031 
! Gamma         0                0                0                0                
! Port Impedance         50               0                50               0                
16.9                           0.0923854237567683 79.4385450166506 0.992194270796263 -8.36967706262736 0.992194270796261 -8.36967706262728 0.0923856618495799 79.4346168372618 
! Gamma         0                0                0                0                
! Port Impedance         50               0                50               0                
17                             0.0929119900518093 79.3956259008595 0.992134194928221 -8.41820221894604 0.992134194928219 -8.41820221894595 0.0929122307681742 79.3916737681039 
! Gamma         0                0                0                0                
! Port Impedance         50               0                50               0                
17.1                           0.0934383965396199 79.3526705572053 0.992073887118756 -8.46672073370132 0.992073887118754 -8.46672073370124 0.0934386398909432 79.348694466836  
! Gamma         0                0                0                0                
! Port Impedance         50               0                50               0                
17.2                           0.0939646428844508 79.3096792446948 0.992013346631559 -8.5152326013605 0.992013346631558 -8.51523260136042 0.0939648888821248 79.3056791924851 
! Gamma         0                0                0                0                
! Port Impedance         50               0                50               0                
17.3                           0.0944907287332246 79.2666522238174 0.99195257274255 -8.56373781532816 0.991952572742549 -8.56373781532808 0.0944909773886292 79.2626282055598 
! Gamma         0                0                0                0                
! Port Impedance         50               0                50               0                
17.4                           0.0950166537160856 79.2235897565036 0.991891564739871 -8.61223636797789 0.991891564739869 -8.61223636797781 0.095016905040589 79.219541768009  
! Gamma         0                0                0                0                
! Port Impedance         50               0                50               0                
17.5                           0.0955424174469356 79.1804921060792 0.99183032192387 -8.66072825068317 0.991830321923868 -8.66072825068309 0.0955426714518947 79.1764201431756 
! Gamma         0                0                0                0                
! Port Impedance         50               0                50               0                
17.6                           0.0960680195239547 79.1373595372166 0.991768843607081 -8.70921345384737 0.99176884360708 -8.7092134538473 0.0960682762207153 79.1332635957488 
! Gamma         0                0                0                0                
! Port Impedance         50               0                50               0                
17.7                           0.0965934595301091 79.0941923158842 0.991707129114192 -8.7576919669331 0.991707129114191 -8.75769196693303 0.0965937189300068 79.0900723917124 
! Gamma         0                0                0                0                
! Port Impedance         50               0                50               0                
17.8                           0.0971187370336453 79.0509907092927 0.99164517778201 -8.80616377849064 0.991645177782009 -8.80616377849057 0.0971189991480055 79.0468467982921 
! Gamma         0                0                0                0                
! Port Impedance         50               0                50               0                
17.9                           0.0976438515885715 79.0077549858404 0.991582988959416 -8.85462887618574 0.991582988959415 -8.85462887618567 0.0976441164287101 79.0035870839001 
! Gamma         0                0                0                0                
! Port Impedance         50               0                50               0                
18                             0.0981688027351252 78.9644854150559 0.99152056200732 -8.9030872468266 0.991520562007319 -8.90308724682653 0.0981690703123487 78.9602935180781 
! Gamma         0                0                0                0                
! Port Impedance         50               0                50               0                
18.1                           0.0986935900002296 78.9211822675402 0.991457896298604 -8.95153887639018 0.991457896298603 -8.95153887639012 0.0986938603258353 78.9169663714396 
! Gamma         0                0                0                0                
! Port Impedance         50               0                50               0                
18.2                           0.0992182128979365 78.8778458149076 0.991394991218066 -8.99998375004779 0.991394991218065 -8.99998375004772 0.0992184859832131 78.8736059156106 
! Gamma         0                0                0                0                
! Port Impedance         50               0                50               0                
18.3                           0.0997426709298579 78.8344763297258 0.991331846162355 -9.04842185218994 0.991331846162353 -9.04842185218988 0.0997429467860858 78.8302124231695 
! Gamma         0                0                0                0                
! Port Impedance         50               0                50               0                
18.4                           0.100266963585586 78.7910740854549 0.991268460539901 -9.09685316645064 0.9912684605399  -9.09685316645058 0.100267242224037 78.7867861675869 
! Gamma         0                0                0                0                
! Port Impedance         50               0                50               0                
18.5                           0.100791090343101 78.7476393563872 0.991204833770849 -9.14527767573093 0.991204833770848 -9.14527767573087 0.10079137177504 78.7433274231642 
! Gamma         0                0                0                0                
! Port Impedance         50               0                50               0                
18.6                           0.10131505066917 78.7041724175851 0.991140965286977 -9.19369536222178 0.991140965286977 -9.19369536222173 0.101315334905852 78.6998364649728 
! Gamma         0                0                0                0                
! Port Impedance         50               0                50               0                
18.7                           0.10183884401973 78.6606735448206 0.991076854531622 -9.24210620742648 0.991076854531622 -9.24210620742643 0.101839131072405 78.6563135687927 
! Gamma         0                0                0                0                
! Port Impedance         50               0                50               0                
18.8                           0.102362469840268 78.6171430145137 0.991012500959595 -9.29051019218223 0.991012500959594 -9.29051019218218 0.102362759720177 78.6127590110516 
! Gamma         0                0                0                0                
! Port Impedance         50               0                50               0                
18.9                           0.102885927566183 78.573581103672  0.990947904037093 -9.3389072966813 0.990947904037093 -9.33890729668126 0.10288622028456 78.5691730687635 
! Gamma         0                0                0                0                
! Port Impedance         50               0                50               0                
19                             0.103409216623142 78.5299880898294 0.990883063241618 -9.38729750049156 0.990883063241618 -9.38729750049152 0.103409512191214 78.5255560194688 
! Gamma         0                0                0                0                
! Port Impedance         50               0                50               0                
19.1                           0.103932336427427 78.4863642509868 0.990817978061883 -9.43568078257636 0.990817978061883 -9.43568078257633 0.103932634856414 78.4819081411739 
! Gamma         0                0                0                0                
! Port Impedance         50               0                50               0                
19.2                           0.10445528638627 78.4427098655523 0.990752647997716 -9.48405712131402 0.990752647997715 -9.48405712131399 0.104455587687385 78.4382297122917 
! Gamma         0                0                0                0                
! Port Impedance         50               0                50               0                
19.3                           0.104978065898179 78.3990252122821 0.99068707255997 -9.53242649451661 0.99068707255997 -9.53242649451658 0.104978370082628 78.3945210115832 
! Gamma         0                0                0                0                
! Port Impedance         50               0                50               0                
19.4                           0.105500674353256 78.3553105702232 0.990621251270427 -9.58078887944833 0.990621251270427 -9.58078887944831 0.105500981432238 78.3507823180989 
! Gamma         0                0                0                0                
! Port Impedance         50               0                50               0                
19.5                           0.106023111133506 78.3115662186553 0.990555183661695 -9.62914425284334 0.990555183661694 -9.62914425284331 0.106023421118214 78.3070139111219 
! Gamma         0                0                0                0                
! Port Impedance         50               0                50               0                
19.6                           0.106545375613137 78.2677924370351 0.990488869277111 -9.67749259092303 0.990488869277111 -9.67749259092301 0.106545688514755 78.2632160701117 
! Gamma         0                0                0                0                
! Port Impedance         50               0                50               0                
19.7                           0.107067467158851 78.2239895049405 0.990422307670643 -9.72583386941294 0.990422307670643 -9.72583386941293 0.107067782988558 78.2193890746485 
! Gamma         0                0                0                0                
! Port Impedance         50               0                50               0                
19.8                           0.107589385130126 78.1801577020166 0.990355498406783 -9.77416806355908 0.990355498406783 -9.77416806355907 0.107589703899094 78.1755332043791 
! Gamma         0                0                0                0                
! Port Impedance         50               0                50               0                
19.9                           0.108111128879495 78.1362973079219 0.990288441060445 -9.82249514814384 0.990288441060445 -9.82249514814383 0.108111450598889 78.1316487389631 
! Gamma         0                0                0                0                
! Port Impedance         50               0                50               0                
20                             0.108632697752811 78.0924086022762 0.990221135216863 -9.87081509750146 0.990221135216863 -9.87081509750146 0.108633022433788 78.0877359580214 
! Gamma         -0               -0               0                0                
! Port Impedance         50               0                50               0                
