! Touchstone file exported from HFSS 2026.1.0
!        File:           C:/ffzhzh/LocalFiles/Ansys_Project_Files/temp_train_TMRDL_239_1782984637_45328.aedt
!        Generated:      05:31:51 PM Jul  2, 2026
!        Design:         TMRDL
!        Project:        temp_train_TMRDL_239_1782984637_45328
!
! Variables:
!        h_bsmrdl = 2um
!        h_ox = 20um
!        h_rdl = 5um
!        h_sub = 80um
!        h_tmrdl = 2.09um
!        h_tsv = 80um
!        h_via = 3um
!        l_bsmrdl = 300um
!        l_sub = 806.3um
!        l_tmrdl = 406.3um
!        m_sub = 200um
!        pitch = 53.65um
!        r_tsv = 6um
!        s_tmrdl = 10um
!        w_bsmrdl = 18um
!        w_sub = 500um
!        w_tmrdl = 10.29um
!        x_tsv_center1 = 411.445um
!        x_tsv_center2 = 729.445um
!        x_tsv_center3 = 1146.035um
!        x_tsv_center4 = 1464.035um
!        x_tsv_center5 = 1880.625um
!        x_tsv_center6 = 2198.625um
!
# GHz S MA R 50.000000
! Terminal data exported
! Port[1] = TM_RDL1_1_T1
! Port[2] = TM_RDL1_1_T2
0.1                            0.0073966609586121 23.0062496417302 0.99319808136489 -0.210631277897231 0.99319808136489 -0.210631277897232 0.00739664706583132 23.0062673636284 
! Gamma         0                0                0                0                
! Port Impedance         50               0                50               0                
0.2                            0.00897203273071172 40.0868445427451 0.993161050891308 -0.421031810862168 0.993161050891308 -0.421031810862172 0.00897198974049144 40.0870005941911 
! Gamma         0                0                0                0                
! Port Impedance         50               0                50               0                
0.3                            0.0111044646906155 51.2179416631457 0.993101322662507 -0.630998371327991 0.993101322662507 -0.630998371328  0.0111043819327404 51.218319401883  
! Gamma         0                0                0                0                
! Port Impedance         50               0                50               0                
0.4                            0.0135249846815622 58.4381619016361 0.993021516009348 -0.840376041510461 0.993021516009348 -0.84037604151048 0.0135248535705379 58.4387999027203 
! Gamma         0                0                0                0                
! Port Impedance         50               0                50               0                
0.5                            0.016096121573069 63.2984911636494 0.992924685136551 -1.04906823328145 0.992924685136551 -1.04906823328148 0.0160959343357698 63.2994118024623 
! Gamma         0                0                0                0                
! Port Impedance         50               0                50               0                
0.6                            0.018748885676106 66.7114859289879 0.992813921774708 -1.25703570749983 0.992813921774709 -1.25703570749988 0.0187486358673923 66.7127061209755 
! Gamma         0                0                0                0                
! Port Impedance         50               0                50               0                
0.7                            0.0214471838536139 69.1999366340206 0.992692045645436 -1.46428742546443 0.992692045645437 -1.4642874254645 0.0214468669743266 69.2014698661536 
! Gamma         0                0                0                0                
! Port Impedance         50               0                50               0                
0.8                            0.0241713040961978 71.0720807723552 0.99256141672413 -1.67086732105838 0.99256141672413 -1.67086732105846 0.0241709178427801 71.0739370859996 
! Gamma         0                0                0                0                
! Port Impedance         50               0                50               0                
0.9                            0.0269101553576961 72.5170921829845 0.992423862990549 -1.87684066566034 0.992423862990549 -1.87684066566045 0.0269096995002196 72.5192781219395 
! Gamma         0                0                0                0                
! Port Impedance         50               0                50               0                
1                              0.0296573979356669 73.6557257898261 0.992280694437702 -2.08228240918405 0.992280694437702 -2.08228240918417 0.0296568739553542 73.6582446844893 
! Gamma         0                0                0                0                
! Port Impedance         50               0                50               0                
1.1                            0.0324093916565186 74.5678558071494 0.992132768484083 -2.28726851667995 0.992132768484083 -2.28726851668008 0.0324088022831585 74.5707083139474 
! Gamma         0                0                0                0                
! Port Impedance         50               0                50               0                
1.2                            0.0351640536121769 75.3080182822601 0.991980577214777 -2.49187032529517 0.991980577214777 -2.49187032529531 0.0351634023657672 75.311203023884  
! Gamma         0                0                0                0                
! Port Impedance         50               0                50               0                
1.3                            0.0379202011243981 75.9145203180441 0.991824336226636 -2.69615141471597 0.991824336226635 -2.69615141471612 0.0379194919210309 75.9180345046148 
! Gamma         0                0                0                0                
! Port Impedance         50               0                50               0                
1.4                            0.0406771669457987 76.4149664258756 0.99166406379695 -2.90016631466346 0.991664063796949 -2.90016631466362 0.0406764037916862 76.4188063896643 
! Gamma         0                0                0                0                
! Port Impedance         50               0                50               0                
1.5                            0.0434345725497625 76.8297157136549 0.991499645732645 -3.10396041548137 0.991499645732643 -3.10396041548153 0.0434337593238478 76.8338773321155 
! Gamma         0                0                0                0                
! Port Impedance         50               0                50               0                
1.6                            0.0461921950919368 77.1741042541852 0.991330885369511 -3.3075705798079 0.991330885369509 -3.30757057980805 0.0461913354052924 77.1785832624763 
! Gamma         0                0                0                0                
! Port Impedance         50               0                50               0                
1.7                            0.0489498903679769 77.4599088667258 0.991157540308877 -3.5110260997872 0.991157540308875 -3.51102609978735 0.0489489874837507 77.4647010742557 
! Gamma         0                0                0                0                
! Port Impedance         50               0                50               0                
1.8                            0.0517075492513835 77.696332788052  0.990979348286006 -3.71434976991758 0.990979348286004 -3.71434976991773 0.0517066060491629 77.7014342182214 
! Gamma         0                0                0                0                
! Port Impedance         50               0                50               0                
1.9                            0.0544650740102902 77.890683045387  0.990796044630257 -3.91755893985463 0.990796044630254 -3.91755893985477 0.0544640929810133 77.8960900174411 
! Gamma         0                0                0                0                
! Port Impedance         50               0                50               0                
2                              0.0572223662645556 78.0488448763072 0.990607373491097 -4.12066647599129 0.990607373491094 -4.12066647599143 0.0572213495250449 78.0545540456502 
! Gamma         0                0                0                0                
! Port Impedance         50               0                50               0                
2.1                            0.0599793216084456 78.1756199781289 0.990413094598099 -4.32368160162898 0.990413094598096 -4.32368160162911 0.0599782709274761 78.1816283481851 
! Gamma         0                0                0                0                
! Port Impedance         50               0                50               0                
2.2                            0.0627358279193641 78.2749717583358 0.990212986918021 -4.52661060976213 0.990212986918018 -4.52661060976225 0.0627347447495788 78.2812766738754 
! Gamma         0                0                0                0                
! Port Impedance         50               0                50               0                
2.3                            0.0654917655915976 78.3502059989975 0.990006850220644 -4.72945745556468 0.990006850220641 -4.7294574555648 0.0654906511034575 78.3568051281423 
! Gamma         0                0                0                0                
! Port Impedance         50               0                50               0                
2.4                            0.06824700867467 78.4041059495287 0.98979450528272 -4.93222424176926 0.989794505282717 -4.93222424176936 0.0682458637900153 78.4109972595012 
! Gamma         0                0                0                0                
! Port Impedance         50               0                50               0                
2.5                            0.0710014263423741 78.4390347741538 0.98957579324314 -5.13491161213187 0.989575793243136 -5.13491161213196 0.0710002517661542 78.4462165042032 
! Gamma         0                0                0                0                
! Port Impedance         50               0                50               0                
2.6                            0.0737548843844532 78.4570142741162 0.989350574462495 -5.33751906793139 0.989350574462491 -5.33751906793148 0.0737536806338591 78.4644849078655 
! Gamma         0                0                0                0                
! Port Impedance         50               0                50               0                
2.7                            0.0765072465685826 78.4597861287414 0.989118727124656 -5.54004522110431 0.989118727124653 -5.54004522110438 0.0765060139992554 78.4675443673548 
! Gamma         0                0                0                0                
! Port Impedance         50               0                50               0                
2.8                            0.0792583758091856 78.4488600867128 0.988880145736307 -5.74248799583173 0.988880145736303 -5.7424879958318 0.0792571146384555 78.4569048236963 
! Gamma         0                0                0                0                
! Port Impedance         50               0                50               0                
2.9                            0.0820081351284774 78.4255522941709 0.988634739623533 -5.94484478854837 0.98863473962353 -5.94484478854843 0.0820068454557549 78.4338825922266 
! Gamma         0                0                0                0                
! Port Impedance         50               0                50               0                
3                              0.0847563884203505 78.3910160803353 0.988382431485708 -6.14711259461853 0.988382431485705 -6.14711259461858 0.0847550702448822 78.3996311504323 
! Gamma         0                0                0                0                
! Port Impedance         50               0                50               0                
3.1                            0.0875030010392567 78.3462669113559 0.988123156040747 -6.34928810840538 0.988123156040743 -6.34928810840542 0.0875016542755009 78.3551660940181 
! Gamma         0                0                0                0                
! Port Impedance         50               0                50               0                
3.2                            0.0902478402401197 78.2922027881449 0.987856858778547 -6.55136780216738 0.987856858778544 -6.55136780216742 0.090246464731008 78.3013855368568 
! Gamma         0                0                0                0                
! Port Impedance         50               0                50               0                
3.3                            0.092990775495092 78.229621050153  0.987583494828336 -6.75334798814221 0.987583494828332 -6.75334798814224 0.0929893710234364 78.2390869167327 
! Gamma         0                0                0                0                
! Port Impedance         50               0                50               0                
3.4                            0.0957316787107483 78.1592323181    0.987303027938673 -6.95522486730001 0.98730302793867 -6.95522486730003 0.0957302450090361 78.1689809398631 
! Gamma         0                0                0                0                
! Port Impedance         50               0                50               0                
3.5                            0.0984704243662731 78.0816721398063 0.987015429564792 -7.15699456753732 0.987015429564789 -7.15699456753733 0.0984689611250683 78.0917032283349 
! Gamma         0                0                0                0                
! Port Impedance         50               0                50               0                
3.6                            0.101206889590004 77.9975107774124 0.986720678055683 -7.35865317351266 0.98672067805568 -7.35865317351267 0.101205396465152 78.0078241087513 
! Gamma         0                0                0                0                
! Port Impedance         50               0                50               0                
3.7                            0.103940954188675 77.907261479533  0.986418757932337 -7.56019674986943 0.986418757932334 -7.56019674986943 0.103939430807479 77.917856885643  
! Gamma         0                0                0                0                
! Port Impedance         50               0                50               0                
3.8                            0.106672500641019 77.8113875098981 0.98610965924827 -7.76162135922936 0.986109659248267 -7.76162135922935 0.106670946607541 77.8222648712108 
! Gamma         0                0                0                0                
! Port Impedance         50               0                50               0                
3.9                            0.109401414065066 77.710308148815  0.985793377023726 -7.96292307605265 0.985793377023723 -7.96292307605264 0.109399828964677 77.7214673877498 
! Gamma         0                0                0                0                
! Port Impedance         50               0                50               0                
4                              0.112127582166549 77.6044038410802 0.985469910745395 -8.16409799723301 0.985469910745392 -8.164097997233  0.112125965569842 77.6158449163982 
! Gamma         0                0                0                0                
! Port Impedance         50               0                50               0                
4.1                            0.114850895174236 77.4940206306636 0.985139263924163 -8.36514225011572 0.98513926392416 -8.3651422501157 0.114849246640392 77.5057435325485 
! Gamma         0                0                0                0                
! Port Impedance         50               0                50               0                
4.2                            0.11757124576668 77.3794739963099 0.98480144370407 -8.56605199848415 0.984801443704067 -8.56605199848414 0.117569564846369 77.3914787420799 
! Gamma         0                0                0                0                
! Port Impedance         50               0                50               0                
4.3                            0.120288528993871 77.2610521814803 0.984456460516382 -8.76682344694747 0.984456460516379 -8.76682344694745 0.120286815231757 77.2733388118453 
! Gamma         0                0                0                0                
! Port Impedance         50               0                50               0                
4.4                            0.123002642196422 77.1390190955341 0.984104327773314 -8.96745284407258 0.984104327773311 -8.96745284407255 0.123000895133326 77.1515876713274 
! Gamma         0                0                0                0                
! Port Impedance         50               0                50               0                
4.5                            0.125713484924244 77.0136168497965 0.983745061596605 -9.16793648453295 0.983745061596602 -9.16793648453292 0.125711704099016 77.0264674491159 
! Gamma         0                0                0                0                
! Port Impedance         50               0                50               0                
4.6                            0.128420958856182 76.8850679814521 0.983378680576688 -9.36827071049058 0.983378680576686 -9.36827071049055 0.128419143807326 76.8982006971563 
! Gamma         0                0                0                0                
! Port Impedance         50               0                50               0                
4.7                            0.131124967721644 76.7535774095118 0.98300520555873 -9.5684519123828 0.983005205558728 -9.56845191238277 0.131123117988721 76.7669923470251 
! Gamma         0                0                0                0                
! Port Impedance         50               0                50               0                
4.8                            0.133825417224953 76.6193341600034 0.982624659452269 -9.76847652925045 0.982624659452266 -9.76847652925042 0.133823532349804 76.6330314353876 
! Gamma         0                0                0                0                
! Port Impedance         50               0                50               0                
4.9                            0.136522214972909 76.4825128917076 0.982237067061577 -9.96834104871555 0.982237067061575 -9.96834104871551 0.136520294500715 76.4964926299657 
! Gamma         0                0                0                0                
! Port Impedance         50               0                50               0                
5                              0.139215270405861 76.3432752489547 0.981842454934268 -10.1680420066945 0.981842454934266 -10.1680420066944 0.139213313886062 76.3575375825374 
! Gamma         0                0                0                0                
! Port Impedance         50               0                50               0                
5.1                            0.141904494732446 76.2017710640147 0.981440851225922 -10.3675759869146 0.98144085122592 -10.3675759869145 0.141902501719535 76.2163161315018 
! Gamma         0                0                0                0                
! Port Impedance         50               0                50               0                
5.2                            0.144589800868036 76.058139428295  0.981032285578849 -10.566939620288 0.981032285578847 -10.5669396202879 0.144587770922252 76.0729673732307 
! Gamma         0                0                0                0                
! Port Impedance         50               0                50               0                
5.3                            0.147271103376883 75.912509648791  0.980616789013291 -10.7661295841853 0.980616789013289 -10.7661295841852 0.147269036064801 75.9276206186531 
! Gamma         0                0                0                0                
! Port Impedance         50               0                50               0                
5.4                            0.149948318417869 75.7650021039057 0.980194393829612 -10.9651426016424 0.98019439382961 -10.9651426016423 0.149946213312914 75.7803962491921 
! Gamma         0                0                0                0                
! Port Impedance         50               0                50               0                
5.5                            0.152621363693736 75.6157290107962 0.979765133520184 -11.1639754405264 0.979765133520183 -11.1639754405264 0.152619220376615 75.631406484214  
! Gamma         0                0                0                0                
! Port Impedance         50               0                50               0                
5.6                            0.155290158403654 75.4647951147486 0.979329042689854 -11.3626249126818 0.979329042689852 -11.3626249126818 0.155287976462726 75.480756070494  
! Gamma         0                0                0                0                
! Port Impedance         50               0                50               0                
5.7                            0.157954623198951 75.3122983096764 0.978886156983993 -11.5610878730715 0.978886156983991 -11.5610878730715 0.157952402230535 75.3285429027937 
! Gamma         0                0                0                0                
! Port Impedance         50               0                50               0                
5.8                            0.160614680141837 75.1583301976416 0.978436513023282 -11.7593612189258 0.978436513023281 -11.7593612189258 0.160612419750464 75.1748585834528 
! Gamma         0                0                0                0                
! Port Impedance         50               0                50               0                
5.9                            0.163270252666937 75.0029765942775 0.977980148344454 -11.9574418889083 0.977980148344453 -11.9574418889083 0.163267952465551 75.0197889278741 
! Gamma         0                0                0                0                
! Port Impedance         50               0                50               0                
6                              0.165921265545444 74.846317986117  0.977517101346336 -12.1553268623048 0.977517101346335 -12.1553268623048 0.165918925155566 74.8634144219066 
! Gamma         0                0                0                0                
! Port Impedance         50               0                50               0                
6.1                            0.168567644851742 74.6884299450796 0.977047411240598 -12.3530131582413 0.977047411240596 -12.3530131582413 0.168565263903579 74.7058106363821 
! Gamma         0                0                0                0                
! Port Impedance         50               0                50               0                
6.2                            0.171209317932286 74.5293835047248 0.976571118006687 -12.5504978349333 0.976571118006686 -12.5504978349333 0.171206896064813 74.547048603412  
! Gamma         0                0                0                0                
! Port Impedance         50               0                50               0                
6.3                            0.173846213376617 74.3692455023195 0.9760882623505  -12.7477779889699 0.976088262350499 -12.7477779889699 0.173843750237616 74.387195158494  
! Gamma         0                0                0                0                
! Port Impedance         50               0                50               0                
6.4                            0.176478260990321 74.2080788902874 0.975598885666363 -12.9448507546329 0.975598885666362 -12.9448507546329 0.176475756236388 74.226313251997  
! Gamma         0                0                0                0                
! Port Impedance         50               0                50               0                
6.5                            0.179105391769801 74.0459430201859 0.975103030001996 -13.1417133032524 0.975103030001995 -13.1417133032524 0.179102845066326 74.0644622331692 
! Gamma         0                0                0                0                
! Port Impedance         50               0                50               0                
6.6                            0.181727537878721 73.8828939019945 0.974600738026111 -13.3383628425984 0.97460073802611 -13.3383628425983 0.181724948899833 73.9016981094554 
! Gamma         0                0                0                0                
! Port Impedance         50               0                50               0                
6.7                            0.184344632625977 73.7189844411801 0.97409205299838 -13.534796616308 0.974092052998379 -13.534796616308 0.184342001054466 73.7380737835881 
! Gamma         0                0                0                0                
! Port Impedance         50               0                50               0                
6.8                            0.186956610445097 73.5542646557264 0.973577018741519 -13.7310119033485 0.973577018741518 -13.7310119033484 0.186953935972307 73.5736392706406 
! Gamma         0                0                0                0                
! Port Impedance         50               0                50               0                
6.9                            0.189563406874923 73.3887818750751 0.973055679615269 -13.9270060175129 0.973055679615268 -13.9270060175129 0.189560689200625 73.4084418969896 
! Gamma         0                0                0                0                
! Port Impedance         50               0                50               0                
7                              0.192164958541501 73.22258092271   0.972528080492064 -14.1227763069503 0.972528080492063 -14.1227763069502 0.19216219737374 73.2425264829192 
! Gamma         0                0                0                0                
! Port Impedance         50               0                50               0                
7.1                            0.194761203141055 73.0557042839308 0.971994266734231 -14.3183201537259 0.97199426673423 -14.3183201537259 0.194758398195976 73.0759355104124 
! Gamma         0                0                0                0                
! Port Impedance         50               0                50               0                
7.2                            0.197352079423969 72.8881922601985 0.971454284172535 -14.5136349734127 0.971454284172535 -14.5136349734127 0.197349230425626 72.9087092775135 
! Gamma         0                0                0                0                
! Port Impedance         50               0                50               0                
7.3                            0.199937527179686 72.7200831112876 0.970908179085971 -14.7087182147109 0.97090817908597 -14.7087182147109 0.199934633859829 72.7408860404954 
! Gamma         0                0                0                0                
! Port Impedance         50               0                50               0                
7.4                            0.202517487222445 72.5514131863548 0.97035599818263 -14.9035673590946 0.970355998182629 -14.9035673590946 0.202514549320291 72.5725021449424 
! Gamma         0                0                0                0                
! Port Impedance         50               0                50               0                
7.5                            0.205091901377787 72.3822170449173 0.969797788581567 -15.0981799204849 0.969797788581566 -15.0981799204848 0.205088918639776 72.4035921467423 
! Gamma         0                0                0                0                
! Port Impedance         50               0                50               0                
7.6                            0.207660712469766 72.2125275686366 0.969233597795555 -15.2925534449458 0.969233597795554 -15.2925534449458 0.207657684649301 72.2341889238821 
! Gamma         0                0                0                0                
! Port Impedance         50               0                50               0                
7.7                            0.210223864308797 72.0423760647117 0.968663473714631 -15.4866855104043 0.96866347371463 -15.4866855104042 0.210220791165966 72.0643237798525 
! Gamma         0                0                0                0                
! Port Impedance         50               0                50               0                
7.8                            0.212781301680088 71.8717923616074 0.968087464590367 -15.6805737263906 0.968087464590366 -15.6805737263906 0.212778182981381 71.8940265393872 
! Gamma         0                0                0                0                
! Port Impedance         50               0                50               0                
7.9                            0.215332970332604 71.7008048977728 0.967505619020786 -15.8742157337986 0.967505619020786 -15.8742157337986 0.215329805850615 71.7233256371916 
! Gamma         0                0                0                0                
! Port Impedance         50               0                50               0                
8                              0.217878816968525 71.5294408039423 0.966917985935865 -16.0676092046649 0.966917985935864 -16.0676092046649 0.217875606481639 71.552248200253  
! Gamma         0                0                0                0                
! Port Impedance         50               0                50               0                
8.1                            0.220418789233133 71.3577259795535 0.966324614583561 -16.2607518419646 0.96632461458356 -16.2607518419646 0.22041553252521 71.3808201242672 
! Gamma         0                0                0                0                
! Port Impedance         50               0                50               0                
8.2                            0.222952835705113 71.1856851637684 0.965725554516323 -16.453641379423 0.965725554516322 -16.453641379423 0.222949532565162 71.2090661446687 
! Gamma         0                0                0                0                
! Port Impedance         50               0                50               0                
8.3                            0.225480905887208 71.013342001537  0.965120855578024 -16.6462755813426 0.965120855578023 -16.6462755813426 0.225477556109051 71.0370099027016 
! Gamma         0                0                0                0                
! Port Impedance         50               0                50               0                
8.4                            0.228002950197217 70.8407191051041 0.964510567891293 -16.8386522424424 0.964510567891292 -16.8386522424424 0.227999553579153 70.864674006934  
! Gamma         0                0                0                0                
! Port Impedance         50               0                50               0                
8.5                            0.23051891995929 70.6678381113213 0.963894741845199 -17.0307691877105 0.963894741845198 -17.0307691877105 0.230515476303743 70.692080090577  
! Gamma         0                0                0                0                
! Port Impedance         50               0                50               0                
8.6                            0.233028767395492 70.4947197350956 0.963273428083255 -17.2226242722677 0.963273428083255 -17.2226242722677 0.233025276508668 70.5192488649401 
! Gamma         0                0                0                0                
! Port Impedance         50               0                50               0                
8.7                            0.23553244561762 70.321383819276  0.962646677491723 -17.414215381241 0.962646677491723 -17.414215381241 0.235528907309153 70.3462001693241 
! Gamma         0                0                0                0                
! Port Impedance         50               0                50               0                
8.8                            0.238029908619242 70.1478493812528 0.962014541188174 -17.6055404296472 0.962014541188174 -17.6055404296472 0.238026322701842 70.1729530176253 
! Gamma         0                0                0                0                
! Port Impedance         50               0                50               0                
8.9                            0.240521111267944 69.9741346565193 0.96137707051031 -17.796597362284 0.96137707051031 -17.796597362284 0.240517477557037 69.9995256419046 
! Gamma         0                0                0                0                
! Port Impedance         50               0                50               0                
9                              0.243006009297746 69.8002571394274 0.960734317004995 -17.9873841536295 0.960734317004995 -17.9873841536294 0.243002327611129 69.8259355331465 
! Gamma         0                0                0                0                
! Port Impedance         50               0                50               0                
9.1                            0.245484559301702 69.626233621345  0.960086332417505 -18.1778988077477 0.960086332417505 -18.1778988077477 0.245480829459181 69.6521994794226 
! Gamma         0                0                0                0                
! Port Impedance         50               0                50               0                
9.2                            0.247956718724634 69.4520802264075 0.959433168680961 -18.3681393582006 0.959433168680961 -18.3681393582006 0.24795294054768 69.4783336016472 
! Gamma         0                0                0                0                
! Port Impedance         50               0                50               0                
9.3                            0.250422445856009 69.27781244504   0.958774877905941 -18.5581038679654 0.958774877905941 -18.5581038679654 0.250418619167408 69.3043533871044 
! Gamma         0                0                0                0                
! Port Impedance         50               0                50               0                
9.4                            0.252881699822932 69.1034451654121 0.958111512370259 -18.7477904293558 0.958111512370259 -18.7477904293558 0.252877824446441 69.1302737209062 
! Gamma         0                0                0                0                
! Port Impedance         50               0                50               0                
9.5                            0.255334440583249 68.9289927029714 0.957443124508892 -18.9371971639478 0.957443124508892 -18.9371971639478 0.255330516343261 68.9561089155304 
! Gamma         0                0                0                0                
! Port Impedance         50               0                50               0                
9.6                            0.257780628918749 68.7544688281947 0.956769766904057 -19.1263222225089 0.956769766904057 -19.1263222225089 0.25777665563996 68.7818727385753 
! Gamma         0                0                0                0                
! Port Impedance         50               0                50               0                
9.7                            0.260220226428448 68.5798867926804 0.956091492275416 -19.3151637849298 0.956091492275416 -19.3151637849298 0.260216203935535 68.6075784388552 
! Gamma         0                0                0                0                
! Port Impedance         50               0                50               0                
9.8                            0.262653195521962 68.4052593536977 0.955408353470414 -19.5037200601583 0.955408353470414 -19.5037200601583 0.262649123639262 68.4332387709531 
! Gamma         0                0                0                0                
! Port Impedance         50               0                50               0                
9.9                            0.265079499412933 68.2305987973001 0.954720403454739 -19.6919892861354 0.954720403454739 -19.6919892861354 0.265075377964138 68.2588660183365 
! Gamma         0                0                0                0                
! Port Impedance         50               0                50               0                
10                             0.267499102112533 68.0559169600994 0.954027695302894 -19.8799697297325 0.954027695302894 -19.8799697297325 0.267494930920393 68.0844720151342 
! Gamma         0                0                0                0                
! Port Impedance         50               0                50               0                
10.1                           0.269911968423015 67.8812252497921 0.953330282188882 -20.0676596866893 0.953330282188882 -20.0676596866893 0.269907747309049 67.9100681666654 
! Gamma         0                0                0                0                
! Port Impedance         50               0                50               0                
10.2                           0.272318063931313 67.706534664521  0.952628217377   -20.2550574815527 0.952628217377   -20.2550574815527 0.272313792715534 67.7356654688029 
! Gamma         0                0                0                0                
! Port Impedance         50               0                50               0                
10.3                           0.274717355002692 67.5318558111494 0.951921554212735 -20.4421614676155 0.951921554212735 -20.4421614676155 0.274713033503343 67.5612745262501 
! Gamma         0                0                0                0                
! Port Impedance         50               0                50               0                
10.4                           0.27710980877443 67.3571989225194 0.951210346113764 -20.6289700268552 0.951210346113764 -20.6289700268552 0.277105436807731 67.3869055698    
! Gamma         0                0                0                0                
! Port Impedance         50               0                50               0                
10.5                           0.279495393149539 67.1825738737606 0.950494646561045 -20.8154815698719 0.950494646561045 -20.8154815698719 0.279490970529449 67.2125684726462 
! Gamma         0                0                0                0                
! Port Impedance         50               0                50               0                
10.6                           0.281874076790511 67.007990197709  0.949774509090017 -21.0016945358257 0.949774509090017 -21.0016945358257 0.281869603328507 67.038272765803  
! Gamma         0                0                0                0                
! Port Impedance         50               0                50               0                
10.7                           0.284245829113101 66.8334570994959 0.949049987281886 -21.1876073923735 0.949049987281886 -21.1876073923735 0.284241304617965 66.8640276526951 
! Gamma         0                0                0                0                
! Port Impedance         50               0                50               0                
10.8                           0.28661062028012 66.6589834703555 0.948321134755008 -21.3732186356034 0.948321134755008 -21.3732186356034 0.286606044557748 66.6898420229668 
! Gamma         0                0                0                0                
! Port Impedance         50               0                50               0                
10.9                           0.288968421195262 66.4845779007037 0.947588005156365 -21.5585267899686 0.947588005156366 -21.5585267899686 0.288963794048485 66.515724465561  
! Gamma         0                0                0                0                
! Port Impedance         50               0                50               0                
11                             0.291319203496943 66.3102486925308 0.946850652153139 -21.7435304082193 0.946850652153139 -21.7435304082193 0.291314524725363 66.3416832811127 
! Gamma         0                0                0                0                
! Port Impedance         50               0                50               0                
11.1                           0.293662939552154 66.1360038711524 0.946109129424368 -21.9282280713325 0.946109129424368 -21.9282280713325 0.293658208952002 66.1677264937004 
! Gamma         0                0                0                0                
! Port Impedance         50               0                50               0                
11.2                           0.295999602450337 65.9618511963553 0.945363490652706 -22.11261838844  0.945363490652706 -22.11261838844  0.295994819814343 65.9938618619923 
! Gamma         0                0                0                0                
! Port Impedance         50               0                50               0                
11.3                           0.298329165997264 65.7877981729781 0.944613789516269 -22.2966999967539 0.944613789516269 -22.2966999967539 0.298324331114547 65.8200968898269 
! Gamma         0                0                0                0                
! Port Impedance         50               0                50               0                
11.4                           0.300651604708935 65.6138520609573 0.943860079680573 -22.4804715614903 0.943860079680574 -22.4804715614903 0.300646717364914 65.646438836259  
! Gamma         0                0                0                0                
! Port Impedance         50               0                50               0                
11.5                           0.302966893805484 65.4400198848729 0.943102414790571 -22.66393177579  0.943102414790571 -22.66393177579  0.302961953781801 65.472894725105  
! Gamma         0                0                0                0                
! Port Impedance         50               0                50               0                
11.6                           0.305275009205093 65.2663084430213 0.942340848462774 -22.8470793606368 0.942340848462774 -22.8470793606368 0.305270016279556 65.299471354016  
! Gamma         0                0                0                0                
! Port Impedance         50               0                50               0                
11.7                           0.307575927517913 65.0927243160454 0.94157543427748 -23.029913064773 0.94157543427748 -23.029913064773 0.307570881464466 65.1261753031065 
! Gamma         0                0                0                0                
! Port Impedance         50               0                50               0                
11.8                           0.30986962604    64.9192738751446 0.940806225771081 -23.2124316646128 0.940806225771081 -23.2124316646128 0.309864526628701 64.9530129431645 
! Gamma         0                0                0                0                
! Port Impedance         50               0                50               0                
11.9                           0.312156082747249 64.7459632898912 0.94003327642848 -23.3946339641518 0.94003327642848 -23.3946339641518 0.312150929744274 64.7799904434669 
! Gamma         0                0                0                0                
! Port Impedance         50               0                50               0                
12                             0.314435276289342 64.5727985356748 0.939256639675595 -23.5765187948749 0.939256639675596 -23.5765187948749 0.314430069457006 64.6071137792227 
! Gamma         0                0                0                0                
! Port Impedance         50               0                50               0                
12.1                           0.316707185983696 64.3997854007955 0.938476368871965 -23.75808501566  0.938476368871966 -23.75808501566  0.316701925080495 64.4343887386657 
! Gamma         0                0                0                0                
! Port Impedance         50               0                50               0                
12.2                           0.318971791809426 64.2269294932255 0.937692517303449 -23.9393315126796 0.937692517303449 -23.9393315126796 0.318966476590098 64.2618209298143 
! Gamma         0                0                0                0                
! Port Impedance         50               0                50               0                
12.3                           0.321229074401303 64.0542362470584 0.936905138175026 -24.1202571992992 0.936905138175027 -24.1202571992992 0.321223704616909 64.0894157869203 
! Gamma         0                0                0                0                
! Port Impedance         50               0                50               0                
12.4                           0.323479015043729 63.8817109286621 0.936114284603698 -24.3008610159727 0.936114284603699 -24.3008610159727 0.323473590441752 63.9171785766197 
! Gamma         0                0                0                0                
! Port Impedance         50               0                50               0                
12.5                           0.32572159566471 63.7093586425528 0.935320009611484 -24.4811419301344 0.935320009611484 -24.4811419301344 0.325716115989177 63.7451144038057 
! Gamma         0                0                0                0                
! Port Impedance         50               0                50               0                
12.6                           0.327956798829839 63.537184337004  0.934522366118522 -24.6610989360885 0.934522366118522 -24.6610989360885 0.327951263821463 63.5732282172357 
! Gamma         0                0                0                0                
! Port Impedance         50               0                50               0                
12.7                           0.330184607736288 63.3651928094054 0.93372140693627 -24.8407310548954 0.933721406936271 -24.8407310548954 0.330179017132622 63.4015248148894 
! Gamma         0                0                0                0                
! Port Impedance         50               0                50               0                
12.8                           0.3324050062068  63.1933887113858 0.932917184760812 -25.0200373342547 0.932917184760813 -25.0200373342547 0.332399359742421 63.2300088490886 
! Gamma         0                0                0                0                
! Port Impedance         50               0                50               0                
12.9                           0.334617978683692 63.0217765537099 0.932109752166261 -25.1990168483852 0.932109752166261 -25.1990168483852 0.334612276090399 63.0586848313936 
! Gamma         0                0                0                0                
! Port Impedance         50               0                50               0                
13                             0.336823510222866 62.8503607109646 0.931299161598271 -25.3776686979027 0.931299161598271 -25.3776686979027 0.336817751229896 62.8875571372861 
! Gamma         0                0                0                0                
! Port Impedance         50               0                50               0                
13.1                           0.339021586487826 62.679145426042  0.930485465367651 -25.5559920096933 0.930485465367651 -25.5559920096932 0.339015770822093 62.7166300106517 
! Gamma         0                0                0                0                
! Port Impedance         50               0                50               0                
13.2                           0.341212193743705 62.5081348144325 0.929668715644086 -25.7339859367852 0.929668715644086 -25.7339859367852 0.341206321130054 62.5459075680696 
! Gamma         0                0                0                0                
! Port Impedance         50               0                50               0                
13.3                           0.343395318851296 62.3373328683357 0.92884896444996 -25.9116496582169 0.928848964449961 -25.9116496582169 0.343389389012779 62.3753938029225 
! Gamma         0                0                0                0                
! Port Impedance         50               0                50               0                
13.4                           0.345570949261094 62.1667434606001 0.92802626365429 -26.0889823789023 0.92802626365429 -26.0889823789023 0.345564961919262 62.2050925893333 
! Gamma         0                0                0                0                
! Port Impedance         50               0                50               0                
13.5                           0.347739073007353 61.9963703484986 0.927200664966759 -26.2659833294934 0.92720066496676 -26.2659833294934 0.347733027882568 62.0350076859385 
! Gamma         0                0                0                0                
! Port Impedance         50               0                50               0                
13.6                           0.349899678702142 61.826217177349  0.926372219931868 -26.4426517662399 0.926372219931868 -26.4426517662399 0.349893575513903 61.8651427395068 
! Gamma         0                0                0                0                
! Port Impedance         50               0                50               0                
13.7                           0.352052755529422 61.6562874839871 0.925540979923178 -26.6189869708461 0.925540979923179 -26.618986970846 0.352046593996714 61.6955012884094 
! Gamma         0                0                0                0                
! Port Impedance         50               0                50               0                
13.8                           0.354198293239123 61.4865847000993 0.92470699613768 -26.7949882503251 0.92470699613768 -26.7949882503251 0.354192073080778 61.5260867659505 
! Gamma         0                0                0                0                
! Port Impedance         50               0                50               0                
13.9                           0.356336282141242 61.3171121554221 0.923870319590255 -26.9706549368504 0.923870319590255 -26.9706549368504 0.35633000307632 61.3569025035641 
! Gamma         0                0                0                0                
! Port Impedance         50               0                50               0                
14                             0.358466713099949 61.1478730808142 0.923031001108255 -27.1459863876046 0.923031001108256 -27.1459863876046 0.358460374848133 61.187951733884  
! Gamma         0                0                0                0                
! Port Impedance         50               0                50               0                
14.1                           0.360589577527701 60.9788706112081 0.922189091326185 -27.3209819846258 0.922189091326186 -27.3209819846258 0.360583179809712 61.0192375936926 
! Gamma         0                0                0                0                
! Port Impedance         50               0                50               0                
14.2                           0.362704867379378 60.8101077884465 0.921344640680497 -27.4956411346511 0.921344640680498 -27.4956411346511 0.362698409917397 60.8507631267549 
! Gamma         0                0                0                0                
! Port Impedance         50               0                50               0                
14.3                           0.364812575146421 60.6415875640095 0.920497699404492 -27.6699632689583 0.920497699404493 -27.6699632689583 0.364806057664537 60.6825312865429 
! Gamma         0                0                0                0                
! Port Impedance         50               0                50               0                
14.4                           0.366912693850998 60.4733128016365 0.91964831752333 -27.8439478432046 0.919648317523331 -27.8439478432046 0.366906116075663 60.5145449388554 
! Gamma         0                0                0                0                
! Port Impedance         50               0                50               0                
14.5                           0.369005217040167 60.3052862798494 0.91879654484915 -28.0175943372633 0.918796544849151 -28.0175943372633 0.368998578700667 60.3468068643384 
! Gamma         0                0                0                0                
! Port Impedance         50               0                50               0                
14.6                           0.371090138780072 60.1375106943806 0.9179424309763  -28.1909022550577 0.917942430976301 -28.1909022550577 0.371083439609012 60.1793197609103 
! Gamma         0                0                0                0                
! Port Impedance         50               0                50               0                
14.7                           0.373167453650139 59.9699886605099 0.91708602527667 -28.3638711243937 0.917086025276671 -28.3638711243937 0.373160693383944 60.0120862460966 
! Gamma         0                0                0                0                
! Port Impedance         50               0                50               0                
14.8                           0.375237156737301 59.8027227153162 0.916227376895141 -28.5365004967894 0.916227376895142 -28.5365004967894 0.375230335116723 59.8451088592785 
! Gamma         0                0                0                0                
! Port Impedance         50               0                50               0                
14.9                           0.377299243630229 59.6357153198453 0.915366534745138 -28.7087899473029 0.915366534745139 -28.7087899473029 0.377292360400871 59.6783900638586 
! Gamma         0                0                0                0                
! Port Impedance         50               0                50               0                
15                             0.379353710413585 59.4689688611997 0.914503547504291 -28.8807390743582 0.914503547504292 -28.8807390743582 0.379346765326438 59.5119322493478 
! Gamma         0                0                0                0                
! Port Impedance         50               0                50               0                
15.1                           0.381400553662293 59.3024856545535 0.913638463610206 -29.0523474995693 0.913638463610207 -29.0523474995692 0.381393546474281 59.3457377333774 
! Gamma         0                0                0                0                
! Port Impedance         50               0                50               0                
15.2                           0.38343977043583 59.1362679450941 0.912771331256342 -29.2236148675615 0.912771331256343 -29.2236148675615 0.383432700910364 59.1798087636388 
! Gamma         0                0                0                0                
! Port Impedance         50               0                50               0                
15.3                           0.385471358272525 58.9703179098967 0.911902198387995 -29.3945408457922 0.911902198387996 -29.3945408457922 0.385464226180074 59.0141475197548 
! Gamma         0                0                0                0                
! Port Impedance         50               0                50               0                
15.4                           0.387495315183893 58.8046376597318 0.911031112698389 -29.565125124369 0.91103111269839 -29.565125124369 0.387488120302557 58.8487561150849 
! Gamma         0                0                0                0                
! Port Impedance         50               0                50               0                
15.5                           0.389511639648976 58.6392292408109 0.910158121624878 -29.7353674158664 0.910158121624879 -29.7353674158663 0.389504381765072 58.6836365984682 
! Gamma         0                0                0                0                
! Port Impedance         50               0                50               0                
15.6                           0.391520330608708 58.4740946364709 0.909283272345241 -29.9052674551406 0.909283272345242 -29.9052674551405 0.391513009517365 58.5187909559054 
! Gamma         0                0                0                0                
! Port Impedance         50               0                50               0                
15.7                           0.393521387460304 58.3092357688021 0.9084066117741  -30.0748249991435 0.908406611774101 -30.0748249991435 0.393514002966064 58.3542211121842 
! Gamma         0                0                0                0                
! Port Impedance         50               0                50               0                
15.8                           0.395514810051665 58.1446545002201 0.907528186559427 -30.2440398267345 0.907528186559428 -30.2440398267345 0.395507361969091 58.1899289324487 
! Gamma         0                0                0                0                
! Port Impedance         50               0                50               0                
15.9                           0.397500598675807 57.9803526349855 0.906648043079164 -30.412911738491 0.906648043079165 -30.412911738491 0.397493086830101 58.0259162237168 
! Gamma         0                0                0                0                
! Port Impedance         50               0                50               0                
16                             0.399478754065311 57.8163319206732 0.905766227437947 -30.5814405565177 0.905766227437948 -30.5814405565177 0.399471178292934 57.8621847363465 
! Gamma         0                0                0                0                
! Port Impedance         50               0                50               0                
16.1                           0.401449277386797 57.6525940495921 0.904882785463926 -30.7496261242545 0.904882785463927 -30.7496261242544 0.4014416375361  57.6987361654538 
! Gamma         0                0                0                0                
! Port Impedance         50               0                50               0                
16.2                           0.403412170235419 57.48914066016   0.903997762705693 -30.9174683062832 0.903997762705694 -30.9174683062832 0.403404466167273 57.5355721522849 
! Gamma         0                0                0                0                
! Port Impedance         50               0                50               0                
16.3                           0.405367434629384 57.3259733382325 0.90311120442931 -31.0849669881335 0.903111204429311 -31.0849669881334 0.40535966621782 57.3726942855427 
! Gamma         0                0                0                0                
! Port Impedance         50               0                50               0                
16.4                           0.407315073004496 57.1630936183902 0.902223155615439 -31.2521220760866 0.902223155615439 -31.2521220760865 0.407307240137347 57.2101041026716 
! Gamma         0                0                0                0                
! Port Impedance         50               0                50               0                
16.5                           0.40925508820872 57.0005029851843 0.901333660956566 -31.4189334969794 0.901333660956567 -31.4189334969794 0.409247190788267 57.0478030911009 
! Gamma         0                0                0                0                
! Port Impedance         50               0                50               0                
16.6                           0.411187483496777 56.8382028743429 0.900442764854336 -31.5854011980067 0.900442764854337 -31.5854011980067 0.411179521440397 56.8857926894492 
! Gamma         0                0                0                0                
! Port Impedance         50               0                50               0                
16.7                           0.413112262524758 56.6761946739402 0.89955051141697 -31.7515251465228 0.899550511416971 -31.7515251465227 0.413104235765576 56.7240742886904 
! Gamma         0                0                0                0                
! Port Impedance         50               0                50               0                
16.8                           0.415029429344768 56.5144797255284 0.898656944456795 -31.9173053298419 0.898656944456796 -31.9173053298419 0.41502133783231 56.5626492332845 
! Gamma         0                0                0                0                
! Port Impedance         50               0                50               0                
16.9                           0.41693898839959 56.3530593252359 0.897762107487861 -32.0827417550387 0.897762107487862 -32.0827417550387 0.41693083210044 56.4015188222727 
! Gamma         0                0                0                0                
! Port Impedance         50               0                50               0                
17                             0.418840944517383 56.1919347248311 0.896866043723654 -32.2478344487471 0.896866043723655 -32.2478344487471 0.418832723415835 56.2406843103396 
! Gamma         0                0                0                0                
! Port Impedance         50               0                50               0                
17.1                           0.420735302906397 56.0311071327545 0.895968796074912 -32.4125834569588 0.895968796074913 -32.4125834569588 0.420727017005118 56.0801469088433 
! Gamma         0                0                0                0                
! Port Impedance         50               0                50               0                
17.2                           0.422622069149728 55.87057771512   0.895070407147521 -32.5769888448217 0.895070407147522 -32.5769888448216 0.422613718470408 55.9199077868143 
! Gamma         0                0                0                0                
! Port Impedance         50               0                50               0                
17.3                           0.424501249200082 55.7103475966863 0.894170919240516 -32.7410506964367 0.894170919240517 -32.7410506964367 0.424492833784095 55.759968071925  
! Gamma         0                0                0                0                
! Port Impedance         50               0                50               0                
17.4                           0.426372849374586 55.5504178617994 0.893270374344169 -32.9047691146552 0.89327037434417 -32.9047691146552 0.426364369283643 55.6003288514306 
! Gamma         0                0                0                0                
! Port Impedance         50               0                50               0                
17.5                           0.428236876349611 55.3907895553087 0.892368814138164 -33.0681442208755 0.892368814138165 -33.0681442208754 0.428228331666417 55.4409911730826 
! Gamma         0                0                0                0                
! Port Impedance         50               0                50               0                
17.6                           0.430093337155635 55.2314636834552 0.891466279989868 -33.2311761548385 0.891466279989869 -33.2311761548385 0.430084727984537 55.2819560460157 
! Gamma         0                0                0                0                
! Port Impedance         50               0                50               0                
17.7                           0.431942239172127 55.0724412147353 0.890562812952686 -33.3938650744243 0.890562812952687 -33.3938650744243 0.431933565639768 55.1232244416098 
! Gamma         0                0                0                0                
! Port Impedance         50               0                50               0                
17.8                           0.433783590122464 54.9137230807397 0.889658453764508 -33.5562111554473 0.889658453764508 -33.5562111554473 0.433774852378427 54.9647972943264 
! Gamma         0                0                0                0                
! Port Impedance         50               0                50               0                
17.9                           0.435617398068872 54.7553101769685 0.888753242846233 -33.7182145914516 0.888753242846234 -33.7182145914516 0.435608596286329 54.8066755025232 
! Gamma         0                0                0                0                
! Port Impedance         50               0                50               0                
18                             0.437443671407407 54.5972033636243 0.887847220300394 -33.8798755935065 0.887847220300395 -33.8798755935065 0.437434805783753 54.6488599292442 
! Gamma         0                0                0                0                
! Port Impedance         50               0                50               0                
18.1                           0.439262418862952 54.4394034663825 0.88694042590985 -34.0411943900012 0.886940425909851 -34.0411943900012 0.439253489620446 54.4913514029891 
! Gamma         0                0                0                0                
! Port Impedance         50               0                50               0                
18.2                           0.441073649484255 54.2819112771408 0.886032899136574 -34.2021712264405 0.886032899136574 -34.2021712264405 0.441064656870654 54.3341507184613 
! Gamma         0                0                0                0                
! Port Impedance         50               0                50               0                
18.3                           0.442877372638994 54.1247275547488 0.885124679120514 -34.3628063652394 0.885124679120514 -34.3628063652393 0.442868316928177 54.1772586372953 
! Gamma         0                0                0                0                
! Port Impedance         50               0                50               0                
18.4                           0.44467359800887 53.9678530257172 0.884215804678543 -34.5231000855182 0.884215804678544 -34.5231000855181 0.444664479501461 54.0206758887652 
! Gamma         0                0                0                0                
! Port Impedance         50               0                50               0                
18.5                           0.446462335584734 53.8112883849087 0.883306314303483 -34.6830526828982 0.883306314303483 -34.6830526828981 0.446453154608722 53.8644031704735 
! Gamma         0                0                0                0                
! Port Impedance         50               0                50               0                
18.6                           0.448243595661746 53.6550342962106 0.882396246163207 -34.8426644692967 0.882396246163207 -34.8426644692967 0.448234352573091 53.7084411490223 
! Gamma         0                0                0                0                
! Port Impedance         50               0                50               0                
18.7                           0.450017388834559 53.4990913931889 0.881485638099823 -35.0019357727227 0.881485638099823 -35.0019357727226 0.450008084017804 53.5527904606669 
! Gamma         0                0                0                0                
! Port Impedance         50               0                50               0                
18.8                           0.451783725992547 53.343460279727  0.88057452762893 -35.1608669370727 0.88057452762893 -35.1608669370727 0.451774359861409 53.3974517119519 
! Gamma         0                0                0                0                
! Port Impedance         50               0                50               0                
18.9                           0.453542618315049 53.1881415306464 0.879662951938951 -35.3194583219268 0.879662951938952 -35.3194583219268 0.453533191313018 53.2424254803314 
! Gamma         0                0                0                0                
! Port Impedance         50               0                50               0                
19                             0.45529407726666 53.0331356923125 0.878750947890541 -35.4777103023451 0.878750947890541 -35.4777103023451 0.455284589867577 53.0877123147736 
! Gamma         0                0                0                0                
! Port Impedance         50               0                50               0                
19.1                           0.457038114592543 52.8784432832247 0.87783855201606 -35.6356232686647 0.877838552016061 -35.6356232686647 0.457028567301183 52.9333127363496 
! Gamma         0                0                0                0                
! Port Impedance         50               0                50               0                
19.2                           0.458774742313782 52.7240647945921 0.876925800519132 -35.7931976262963 0.876925800519133 -35.7931976262963 0.458765135666419 52.7792272388074 
! Gamma         0                0                0                0                
! Port Impedance         50               0                50               0                
19.3                           0.460503972722762 52.5700006908941 0.876012729274259 -35.9504337955227 0.876012729274259 -35.9504337955227 0.460494307287733 52.6254562891326 
! Gamma         0                0                0                0                
! Port Impedance         50               0                50               0                
19.4                           0.462225818378587 52.4162514104285 0.875099373826513 -36.1073322112962 0.875099373826513 -36.1073322112961 0.462216094756842 52.4720003280939 
! Gamma         0                0                0                0                
! Port Impedance         50               0                50               0                
19.5                           0.463940292102521 52.2628173658445 0.874185769391294 -36.2638933230376 0.874185769391294 -36.2638933230376 0.463930510928173 52.3188597707768 
! Gamma         0                0                0                0                
! Port Impedance         50               0                50               0                
19.6                           0.465647406973481 52.1096989446648 0.873271950854153 -36.4201175944355 0.873271950854153 -36.4201175944354 0.465637568914336 52.1660350071032 
! Gamma         0                0                0                0                
! Port Impedance         50               0                50               0                
19.7                           0.467347176323541 51.9568965097931 0.872357952770682 -36.5760055032458 0.872357952770682 -36.5760055032458 0.46733728208163 52.013526402339  
! Gamma         0                0                0                0                
! Port Impedance         50               0                50               0                
19.8                           0.469039613733488 51.8044104000116 0.871443809366471 -36.7315575410927 0.871443809366471 -36.7315575410927 0.469029664045581 51.8613342975901 
! Gamma         0                0                0                0                
! Port Impedance         50               0                50               0                
19.9                           0.470724733028402 51.6522409304648 0.870529554537119 -36.8867742132691 0.870529554537119 -36.8867742132691 0.470714728666517 51.7094590102859 
! Gamma         0                0                0                0                
! Port Impedance         50               0                50               0                
20                             0.472402548273272 51.5003883931339 0.869615221848319 -37.0416560385392 0.869615221848319 -37.0416560385392 0.472392490045175 51.5579008346523 
! Gamma         -0               -0               -0               -0               
! Port Impedance         50               0                50               0                
