! Touchstone file exported from HFSS 2026.1.0
!        File:           C:/ffzhzh/LocalFiles/Ansys_Project_Files/temp_train_RDL_269_1783501821_31944.aedt
!        Generated:      05:12:16 PM Jul  8, 2026
!        Design:         RDL
!        Project:        temp_train_RDL_269_1783501821_31944
!
! Variables:
!        h_bsmrdl = 2um
!        h_ox = 20um
!        h_rdl = 5um
!        h_sub = 80um
!        h_tmrdl = 3.6um
!        h_tsv = 80um
!        h_via = 3um
!        l_bsmrdl = 300um
!        l_sub = 1064.05um
!        l_tmrdl = 664.05um
!        m_sub = 200um
!        pitch = 44.91um
!        r_tsv = 6um
!        s_tmrdl = 10um
!        w_bsmrdl = 18um
!        w_sub = 500um
!        w_tmrdl = 29.43um
!        x_tsv_center1 = 678.765um
!        x_tsv_center2 = 996.765um
!        x_tsv_center3 = 1690.245um
!        x_tsv_center4 = 2008.245um
!        x_tsv_center5 = 2701.725um
!        x_tsv_center6 = 3019.725um
!
# GHz S MA R 50.000000
! Terminal data exported
! Port[1] = TM_RDL1_1_T1
! Port[2] = TM_RDL1_1_T2
0.1                            0.00311855768975155 36.0438092243865 0.997484317350012 -0.236095594171626 0.997484317350013 -0.236095594171621 0.00311855578279858 36.0440346285118 
! Gamma         0                0                0                0                
! Port Impedance         50               0                50               0                
0.2                            0.00445723295813458 51.4239572262909 0.997239781579231 -0.462107568122532 0.997239781579232 -0.46210756812264 0.00445716930970524 51.4243338027425 
! Gamma         0                0                0                0                
! Port Impedance         50               0                50               0                
0.3                            0.00584311321172087 58.9848372042665 0.997024915785432 -0.68043985625634 0.997024915785431 -0.68043985625648 0.0058430340517805 58.9861399016    
! Gamma         0                0                0                0                
! Port Impedance         50               0                50               0                
0.4                            0.00722884819322498 63.7263899747885 0.99686611830992 -0.895707272732625 0.996866118309918 -0.895707272732707 0.00722880348420364 63.7281165355751 
! Gamma         0                0                0                0                
! Port Impedance         50               0                50               0                
0.5                            0.00862252404474922 67.0461389611586 0.996747281962649 -1.11012028484107 0.996747281962646 -1.11012028484108 0.00862250644280783 67.0479940233842 
! Gamma         0                0                0                0                
! Port Impedance         50               0                50               0                
0.6                            0.0100273966159495 69.4968594510074 0.996652305056125 -1.32442544176204 0.996652305056123 -1.32442544176199 0.0100273831469657 69.4988238166244 
! Gamma         0                0                0                0                
! Port Impedance         50               0                50               0                
0.7                            0.0114432930656408 71.3647276735965 0.996570989627651 -1.53882824936423 0.996570989627649 -1.53882824936416 0.0114432667384036 71.3668700040509 
! Gamma         0                0                0                0                
! Port Impedance         50               0                50               0                
0.8                            0.0128689978918299 72.8195539170281 0.996497349411403 -1.75336348468995 0.996497349411402 -1.75336348468987 0.0128689503647488 72.8219413775281 
! Gamma         0                0                0                0                
! Port Impedance         50               0                50               0                
0.9                            0.0143030902986759 73.9701095253576 0.996427817942962 -1.96801804449156 0.996427817942962 -1.96801804449149 0.0143030190841991 73.9727869993335 
! Gamma         0                0                0                0                
! Port Impedance         50               0                50               0                
1                              0.0157442013719807 74.8898086224876 0.996360173985425 -2.18276858492209 0.996360173985425 -2.18276858492204 0.0157441069915292 74.8928012314248 
! Gamma         0                0                0                0                
! Port Impedance         50               0                50               0                
1.1                            0.017191092620832 75.6302074351781 0.996292962227359 -2.39759201079357 0.996292962227359 -2.39759201079354 0.0171909767913341 75.6335272513174 
! Gamma         0                0                0                0                
! Port Impedance         50               0                50               0                
1.2                            0.0186426748877279 76.2286664281195 0.996225184434771 -2.61246776539002 0.996225184434772 -2.61246776539001 0.0186425395659047 76.2323179744667 
! Gamma         0                0                0                0                
! Port Impedance         50               0                50               0                
1.3                            0.0200980042129316 76.7129556832376 0.996156130542296 -2.82737787459848 0.996156130542297 -2.82737787459848 0.0200978511612353 76.7169395093607 
! Gamma         0                0                0                0                
! Port Impedance         50               0                50               0                
1.4                            0.0215562683727794 77.1041549550037 0.996085282163756 -3.04230652449809 0.996085282163757 -3.0423065244981 0.0215560990017707 77.1084697353927 
! Gamma         0                0                0                0                
! Port Impedance         50               0                50               0                
1.5                            0.0230167703353406 77.4185518140612 0.996012254529192 -3.25723964691363 0.996012254529192 -3.25723964691365 0.0230165856788316 77.4231955026896 
! Gamma         0                0                0                0                
! Port Impedance         50               0                50               0                
1.6                            0.0244789116850709 77.6689246293503 0.995936759632732 -3.47216460209523 0.995936759632732 -3.47216460209526 0.0244787124320742 77.6738950588311 
! Gamma         0                0                0                0                
! Port Impedance         50               0                50               0                
1.7                            0.0259421774322051 77.8654333943939 0.995858581663539 -3.68706994864416 0.995858581663538 -3.68706994864419 0.0259419639782523 77.8707285635398 
! Gamma         0                0                0                0                
! Port Impedance         50               0                50               0                
1.8                            0.0274061227419895 78.0162524698681 0.9957775599225  -3.90194527507773 0.995777559922499 -3.90194527507776 0.0274058952426588 78.0218706627818 
! Gamma         0                0                0                0                
! Port Impedance         50               0                50               0                
1.9                            0.0288703616599234 78.1280288273925 0.995693576531692 -4.11678107207793 0.995693576531691 -4.11678107207796 0.0288701200795408 78.1339686450351 
! Gamma         0                0                0                0                
! Port Impedance         50               0                50               0                
2                              0.030334557690148 78.2062195594214 0.995606547350484 -4.331568631532  0.995606547350483 -4.33156863153203 0.0303343018434438 78.2124799082753 
! Gamma         0                0                0                0                
! Port Impedance         50               0                50               0                
2.1                            0.0317984159972458 78.2553441800948 0.995516415117729 -4.54629996383231 0.995516415117728 -4.54629996383234 0.0317981455838876 78.2619242419349 
! Gamma         0                0                0                0                
! Port Impedance         50               0                50               0                
2.2                            0.0332616769836351 78.2791757392559 0.995423144185909 -4.7609677283019 0.995423144185908 -4.76096772830192 0.0332613916163986 78.2860749345768 
! Gamma         0                0                0                0                
! Port Impedance         50               0                50               0                
2.3                            0.0347241110095049 78.2808873231038 0.995326716420696 -4.97556517360358 0.995326716420695 -4.97556517360359 0.0347238102370801 78.2881052744677 
! Gamma         0                0                0                0                
! Port Impedance         50               0                50               0                
2.4                            0.0361855140503115 78.2631655789243 0.995227127969469 -5.19008608611539 0.995227127969468 -5.1900860861154 0.0361851973757129 78.2707020771069 
! Gamma         0                0                0                0                
! Port Impedance         50               0                50               0                
2.5                            0.0376457041181752 78.2282995638241 0.995124386687361 -5.40452474488389 0.99512438668736 -5.40452474488389 0.0376453710136019 78.236154537856  
! Gamma         0                0                0                0                
! Port Impedance         50               0                50               0                
2.6                            0.0391045183033047 78.1782509202754 0.995018510066821 -5.61887588212462 0.99501851006682 -5.61887588212462 0.0391041682221478 78.1864244115705 
! Gamma         0                0                0                0                
! Port Impedance         50               0                50               0                
2.7                            0.0405618103178757 78.1147097750665 0.994909523556727 -5.83313464845455 0.994909523556726 -5.83313464845455 0.0405614427044313 78.1232019154032 
! Gamma         0                0                0                0                
! Port Impedance         50               0                50               0                
2.8                            0.0420174484470682 78.039139619088  0.994797459185628 -6.04729658218048 0.994797459185627 -6.04729658218046 0.0420170627443972 78.0479506120326 
! Gamma         0                0                0                0                
! Port Impedance         50               0                50               0                
2.9                            0.0434713138303976 77.9528136070194 0.994682354424345 -6.26135758206866 0.994682354424345 -6.26135758206864 0.043470909486677 77.961943712335  
! Gamma         0                0                0                0                
! Port Impedance         50               0                50               0                
3                              0.0449232990114931 77.8568441211241 0.994564251238493 -6.47531388309983 0.994564251238492 -6.47531388309981 0.0449228754851267 77.8662936417269 
! Gamma         0                0                0                0                
! Port Impedance         50               0                50               0                
3.1                            0.0463733067066047 77.7522070062891 0.994443195292802 -6.68916203478038 0.994443195292802 -6.68916203478035 0.0463728634703032 77.761976277356  
! Gamma         0                0                0                0                
! Port Impedance         50               0                50               0                
3.2                            0.0478212487518633 77.6397615590687 0.99431923527774 -6.90289888163813 0.994319235277739 -6.9028988816381 0.0478207852958569 77.6498509389549 
! Gamma         0                0                0                0                
! Port Impedance         50               0                50               0                
3.3                            0.049267045197125 77.5202671105201 0.994192422335368 -7.11652154558252 0.994192422335367 -7.11652154558249 0.0492665610316401 77.5306769731964 
! Gamma         0                0                0                0                
! Port Impedance         50               0                50               0                
3.4                            0.0507106235204773 77.3943968590278 0.994062809566417 -7.3300274098538 0.994062809566416 -7.33002740985377 0.0507101181775781 77.4051275877962 
! Gamma         0                0                0                0                
! Port Impedance         50               0                50               0                
3.5                            0.0521519179424817 77.2627494694621 0.993930451604312 -7.54341410432618 0.993930451604311 -7.54341410432615 0.0521513909773624 77.2738014517465 
! Gamma         0                0                0                0                
! Port Impedance         50               0                50               0                
3.6                            0.0535908688232302 77.125858847663  0.993795404244875 -7.75667949196491 0.993795404244875 -7.75667949196487 0.053590319815025 77.1372324707108 
! Gamma         0                0                0                0                
! Port Impedance         50               0                50               0                
3.7                            0.0550274221285038 76.9842024162446 0.993657724122715 -7.96982165626794 0.993657724122714 -7.9698216562679 0.0550268506806732 76.9958980635993 
! Gamma         0                0                0                0                
! Port Impedance         50               0                50               0                
3.8                            0.056461528953898 76.838208153094  0.993517468427084 -8.1828388895498 0.993517468427083 -8.18283888954976 0.0564609346942399 76.8502262017269 
! Gamma         0                0                0                0                
! Port Impedance         50               0                50               0                
3.9                            0.0578931450978557 76.6882606033222 0.993374694651425 -8.39572968194792 0.993374694651425 -8.39572968194789 0.0578925276781831 76.7006014213268 
! Gamma         0                0                0                0                
! Port Impedance         50               0                50               0                
4                              0.0593222306762169 76.5347060355091 0.993229460371887 -8.60849271105202 0.993229460371887 -8.60849271105198 0.0593215897717412 76.5473699802805 
! Gamma         0                0                0                0                
! Port Impedance         50               0                50               0                
4.1                            0.0607487497722488 76.3778568814431 0.993081823050976 -8.82112683207364 0.993081823050977 -8.8211268320736 0.0607480850807008 76.390844298276  
! Gamma         0                0                0                0                
! Port Impedance         50               0                50               0                
4.2                            0.0621726701172066 76.2179955733255 0.992931839863217 -9.03363106848767 0.992931839863217 -9.03363106848764 0.0621719813577282 76.2313067943744 
! Gamma         0                0                0                0                
! Port Impedance         50               0                50               0                
4.3                            0.0635939627973653 76.0553778721821 0.9927795675402  -9.24600460308976 0.9927795675402  -9.24600460308972 0.0635932497091984 76.0690132157368 
! Gamma         0                0                0                0                
! Port Impedance         50               0                50               0                
4.4                            0.0650126019841752 75.8902357649359 0.99262506223287 -9.45824676942371 0.99262506223287 -9.45824676942368 0.0650118643251759 75.9041955349713 
! Gamma         0                0                0                0                
! Port Impedance         50               0                50               0                
4.5                            0.0664285646847795 75.7227799944041 0.992468379389231 -9.67035704354202 0.992468379389231 -9.67035704354199 0.0664278022297818 75.7370644803692 
! Gamma         0                0                0                0                
! Port Impedance         50               0                50               0                
4.6                            0.0678418305106052 75.5532022757567 0.992309573645931 -9.88233503606935 0.992309573645931 -9.88233503606933 0.0678410430496582 75.5678117525729 
! Gamma         0                0                0                0                
! Port Impedance         50               0                50               0                
4.7                            0.0692523814621226 75.381677244218  0.992148698732411 -10.0941804845452 0.992148698732412 -10.0941804845452 0.069251568798624 75.3966119724584 
! Gamma         0                0                0                0                
! Port Impedance         50               0                50               0                
4.8                            0.0706602017281842 75.2083641716005 0.991985807386488 -10.3058932460268 0.991985807386489 -10.3058932460268 0.0706593636769301 75.2236243978282 
! Gamma         0                0                0                0                
! Port Impedance         50               0                50               0                
4.9                            0.0720652774986066 75.0334084833499 0.99182095128038 -10.5174732899372 0.991820951280381 -10.5174732899371 0.0720644138837785 75.0489944405931 
! Gamma         0                0                0                0                
! Port Impedance         50               0                50               0                
5                              0.0734675967888676 74.8569431028819 0.99165418095631 -10.7289206911468 0.99165418095631 -10.7289206911468 0.0734667074419763 74.8728550112278 
! Gamma         0                0                0                0                
! Port Impedance         50               0                50               0                
5.1                            0.0748671492759611 74.6790896459352 0.991485545770912 -10.9402356232803 0.991485545770913 -10.9402356232803 0.074866234033763 74.6953277132249 
! Gamma         0                0                0                0                
! Port Impedance         50               0                50               0                
5.2                            0.0762639261445865 74.4999594842817 0.99131509384776 -11.1514183522404 0.991315093847761 -11.1514183522404 0.0762629848469917 74.5165239068919 
! Gamma         0                0                0                0                
! Port Impedance         50               0                50               0                
5.3                            0.0776579199429645 74.3196546953097 0.991142872037373 -11.3624692299445 0.991142872037374 -11.3624692299445 0.0776569524309506 74.3365456590063 
! Gamma         0                0                0                0                
! Port Impedance         50               0                50               0                
5.4                            0.0790491244476607 74.1382689116275 0.990968925884156 -11.5733886882703 0.990968925884157 -11.5733886882703 0.0790481305612074 74.1554865924793 
! Gamma         0                0                0                0                
! Port Impedance         50               0                50               0                
5.5                            0.0804375345368709 73.9558880828404 0.990793299599725 -11.7841772332062 0.990793299599727 -11.7841772332062 0.0804365141129295 73.9734326481814 
! Gamma         0                0                0                0                
! Port Impedance         50               0                50               0                
5.6                            0.0818231460716859 73.7725911599727 0.990616036042162 -11.9948354392057 0.990616036042163 -11.9948354392057 0.0818220989421951 73.790462769402  
! Gamma         0                0                0                0                
! Port Impedance         50               0                50               0                
5.7                            0.0832059557848986 73.5884507115832 0.99043717670072 -12.2053639437417 0.990437176700721 -12.2053639437417 0.0832048817748584 73.6066495179941 
! Gamma         0                0                0                0                
! Port Impedance         50               0                50               0                
5.8                            0.0845859611769583 73.4035334794147 0.990256761685589 -12.4157634420619 0.99025676168559 -12.415763442062 0.0845848601025725 73.4220596300431 
! Gamma         0                0                0                0                
! Port Impedance         50               0                50               0                
5.9                            0.0859631604187091 73.2179008803881 0.990074829722312 -12.6260346821413 0.990074829722313 -12.6260346821413 0.0859620320856057 73.2367545178733 
! Gamma         0                0                0                0                
! Port Impedance         50               0                50               0                
6                              0.0873375522605778 73.0316094608757 0.989891418150478 -12.8361784598309 0.989891418150479 -12.8361784598309 0.0873363964621144 73.0507907243268 
! Gamma         0                0                0                0                
! Port Impedance         50               0                50               0                
6.1                            0.0887091359478941 72.8447113084357 0.989706562926369 -13.0461956142026 0.98970656292637 -13.0461956142026 0.0887079524635571 72.8642203344956 
! Gamma         0                0                0                0                
! Port Impedance         50               0                50               0                
6.2                            0.090077911142051 72.6572544255448 0.989520298629195 -13.2560870230861 0.989520298629196 -13.2560870230861 0.0900766997359541 72.6770913494479 
! Gamma         0                0                0                0                
! Port Impedance         50               0                50               0                
6.3                            0.091443877847223 72.469283069312  0.989332658470641 -13.4658535987976 0.989332658470643 -13.4658535987977 0.0914426382667099 72.4894480259296 
! Gamma         0                0                0                0                
! Port Impedance         50               0                50               0                
6.4                            0.0928070363423757 72.2808380606781 0.989143674307413 -13.675496284058 0.989143674307414 -13.6754962840581 0.0928057683167326 72.3013311855462 
! Gamma         0                0                0                0                
! Port Impedance         50               0                50               0                
6.5                            0.0941673871183124 72.0919570661899 0.988953376656502 -13.885016048097 0.988953376656503 -13.885016048097 0.0941660903575929 72.1127784965168 
! Gamma         0                0                0                0                
! Port Impedance         50               0                50               0                
6.6                            0.0955249308195097 71.9026748550826 0.988761794712918 -14.094413882942 0.988761794712919 -14.0944138829421 0.0955236050134758 71.9238247307312 
! Gamma         0                0                0                0                
! Port Impedance         50               0                50               0                
6.7                            0.0968796681905089 71.7130235340887 0.988568956369634 -14.3036907998883 0.988568956369635 -14.3036907998883 0.0968783130076891 71.7345019985315 
! Gamma         0                0                0                0                
! Port Impedance         50               0                50               0                
6.8                            0.0982316000266317 71.5230327621245 0.988374888239507 -14.5128478261464 0.988374888239508 -14.5128478261464 0.0982302151134991 71.5448399633678 
! Gamma         0                0                0                0                
! Port Impedance         50               0                50               0                
6.9                            0.0995807271288016 71.3327299467633 0.988179615678955 -14.7218860016649 0.988179615678956 -14.721886001665 0.0995793121090713 71.3548660382388 
! Gamma         0                0                0                0                
! Port Impedance         50               0                50               0                
7                              0.100927050262257 71.1421404242033 0.987983162813179 -14.9308063761238 0.98798316281318 -14.9308063761239 0.100925604736304 71.1646055656244 
! Gamma         0                0                0                0                
! Port Impedance         50               0                50               0                
7.1                            0.102270570118951 70.9512876242507 0.987785552562739 -15.1396100060945 0.98778555256274 -15.1396100060946 0.102269093663347 70.9740819824333 
! Gamma         0                0                0                0                
! Port Impedance         50               0                50               0                
7.2                            0.103611287283432 70.7601932216833 0.987586806671295 -15.3482979523631 0.987586806671296 -15.3482979523631 0.103609779450602 70.7833169713279 
! Gamma         0                0                0                0                
! Port Impedance         50               0                50               0                
7.3                            0.104949202202021 70.5688772752169 0.987386945734333 -15.5568712774121 0.987386945734334 -15.5568712774121 0.104947662520018 70.5923305996529 
! Gamma         0                0                0                0                
! Port Impedance         50               0                50               0                
7.4                            0.106284315155095 70.3773583551736 0.987185989228734 -15.7653310430564 0.987185989228735 -15.7653310430565 0.106282743127489 70.4011414470629 
! Gamma         0                0                0                0                
! Port Impedance         50               0                50               0                
7.5                            0.107616626232293 70.1856536608405 0.98698395554301 -15.9736783082285 0.986983955543011 -15.9736783082286 0.10761502133817 70.2097667228431 
! Gamma         0                0                0                0                
! Port Impedance         50               0                50               0                
7.6                            0.108946135310474 69.9937791284129 0.986780862008084 -16.1819141269087 0.986780862008085 -16.1819141269087 0.108944497004555 70.0182223738103 
! Gamma         0                0                0                0                
! Port Impedance         50               0                50               0                
7.7                            0.110272842034261 69.8017495303249 0.986576724928476 -16.3900395461953 0.986576724928477 -16.3900395461954 0.110271169747122 69.8265231836047 
! Gamma         0                0                0                0                
! Port Impedance         50               0                50               0                
7.8                            0.111596745799009 69.6095785666992 0.986371559613777 -16.5980556045103 0.986371559613778 -16.5980556045103 0.111595038937406 69.6346828640986 
! Gamma         0                0                0                0                
! Port Impedance         50               0                50               0                
7.9                            0.112917845736039 69.4172789495735 0.986165380410292 -16.8059633299343 0.986165380410293 -16.8059633299344 0.112916103683339 69.4427141395839 
! Gamma         0                0                0                0                
! Port Impedance         50               0                50               0                
8                              0.114236140699994 69.2248624805058 0.985958200732757 -17.0137637386683 0.985958200732757 -17.0137637386683 0.114234362816704 69.2506288243374 
! Gamma         0                0                0                0                
! Port Impedance         50               0                50               0                
8.1                            0.115551629258175 69.0323401221012 0.98575003309603 -17.2214578336141 0.985750033096031 -17.2214578336142 0.115549814882562 69.0584378941089 
! Gamma         0                0                0                0                
! Port Impedance         50               0                50               0                
8.2                            0.116864309681717 68.8397220639559 0.985540889146677 -17.4290466030717 0.985540889146677 -17.4290466030718 0.116862458130523 68.8661515520273 
! Gamma         0                0                0                0                
! Port Impedance         50               0                50               0                
8.3                            0.118174179938478 68.6470177834706 0.985330779694356 -17.6365310195457 0.985330779694356 -17.6365310195458 0.118172290507719 68.6737792893764 
! Gamma         0                0                0                0                
! Port Impedance         50               0                50               0                
8.4                            0.119481237687518 68.4542361019444 0.985119714742953 -17.8439120386584 0.985119714742953 -17.8439120386585 0.119479309653372 68.4813299416527 
! Gamma         0                0                0                0                
! Port Impedance         50               0                50               0                
8.5                            0.120785480275047 68.2613852363257 0.98490770352138 -18.0511905981631 0.984907703521381 -18.0511905981631 0.120783512894816 68.2888117402806 
! Gamma         0                0                0                0                
! Port Impedance         50               0                50               0                
8.6                            0.122086904731736 68.0684728469631 0.984694754513999 -18.2583676170535 0.984694754513999 -18.2583676170535 0.122084897244886 68.0962323603288 
! Gamma         0                0                0                0                
! Port Impedance         50               0                50               0                
8.7                            0.123385507771275 67.8755060816721 0.984480875490597 -18.4654439947645 0.984480875490597 -18.4654439947646 0.123383459400549 67.9035989645438 
! Gamma         0                0                0                0                
! Port Impedance         50               0                50               0                
8.8                            0.124681285790086 67.6824916164049 0.984266073535888 -18.67242061046  0.984266073535889 -18.67242061046  0.124679195742683 67.7109182439872 
! Gamma         0                0                0                0                
! Port Impedance         50               0                50               0                
8.9                            0.125974234868092 67.4894356927877 0.984050355078489 -18.879298322402 0.98405035507849 -18.879298322402 0.12597210233691 67.518196455542  
! Gamma         0                0                0                0                
! Port Impedance         50               0                50               0                
9                              0.127264350770455 67.2963441527689 0.983833725919331 -19.0860779673988 0.983833725919332 -19.0860779673989 0.127262174935393 67.3254394565308 
! Gamma         0                0                0                0                
! Port Impedance         50               0                50               0                
9.1                            0.128551628950184 67.1032224705996 0.983616191259486 -19.2927603603262 0.983616191259487 -19.2927603603262 0.128549408979506 67.1326527366672 
! Gamma         0                0                0                0                
! Port Impedance         50               0                50               0                
9.2                            0.129836064551561 66.9100757823523 0.983397755727374 -19.4993462937178 0.983397755727374 -19.4993462937178 0.129833799603301 66.9398414475477 
! Gamma         0                0                0                0                
! Port Impedance         50               0                50               0                
9.3                            0.131117652414274 66.716908913166  0.983178423405332 -19.7058365374218 0.983178423405332 -19.7058365374218 0.131115341637705 66.7470104298692 
! Gamma         0                0                0                0                
! Port Impedance         50               0                50               0                
9.4                            0.132396387078221 66.5237264023901 0.982958197855524 -19.9122318383181 0.982958197855524 -19.9122318383181 0.132394029615352 66.5541642385489 
! Gamma         0                0                0                0                
! Port Impedance         50               0                50               0                
9.5                            0.133672262788886 66.3305325267885 0.982737082145184 -20.1185329200944 0.982737082145184 -20.1185329200944 0.133669857776017 66.3613071659034 
! Gamma         0                0                0                0                
! Port Impedance         50               0                50               0                
9.6                            0.134945273503256 66.1373313219497 0.982515078871166 -20.3247404830754 0.982515078871166 -20.3247404830754 0.134942820072558 66.1684432630365 
! Gamma         0                0                0                0                
! Port Impedance         50               0                50               0                
9.7                            0.136215412896192 65.9441266020388 0.982292190183814 -20.5308552041036 0.982292190183814 -20.5308552041036 0.136212910177331 65.9755763595691 
! Gamma         0                0                0                0                
! Port Impedance         50               0                50               0                
9.8                            0.13748267436722 65.7509219780175 0.982068417810123 -20.7368777364666 0.982068417810123 -20.7368777364667 0.137480121489006 65.7827100818391 
! Gamma         0                0                0                0                
! Port Impedance         50               0                50               0                
9.9                            0.138747051047687 65.5577208744465 0.981843763076211 -20.9428087098694 0.981843763076211 -20.9428087098695 0.138744447139756 65.5898478696839 
! Gamma         0                0                0                0                
! Port Impedance         50               0                50               0                
10                             0.14000853580822 65.3645265449779 0.981618226929076 -21.1486487304468 0.981618226929076 -21.1486487304468 0.140005880002738 65.3969929919148 
! Gamma         0                0                0                0                
! Port Impedance         50               0                50               0                
10.1                           0.141267905389007 65.1714759838873 0.981391855944062 -21.354249118898 0.981391855944062 -21.354249118898 0.141265207433397 65.2042817962339 
! Gamma         0                0                0                0                
! Port Impedance         50               0                50               0                
10.2                           0.142524484416622 64.9784338184153 0.981164716752538 -21.5597478905921 0.981164716752539 -21.5597478905921 0.142521744453741 65.0115791408489 
! Gamma         0                0                0                0                
! Port Impedance         50               0                50               0                
10.3                           0.14377826820145 64.7854014563837 0.980936816951151 -21.765145319229 0.980936816951151 -21.765145319229 0.143775486364369 64.8188864338531 
! Gamma         0                0                0                0                
! Port Impedance         50               0                50               0                
10.4                           0.145029251774582 64.5923802119724 0.980708164027685 -21.9704416610842 0.980708164027686 -21.9704416610842 0.145026428186593 64.6262049900342 
! Gamma         0                0                0                0                
! Port Impedance         50               0                50               0                
10.5                           0.14627742989731 64.3993713148718 0.980478765374201 -22.1756371554666 0.980478765374202 -22.1756371554666 0.146274564671962 64.4335360400036 
! Gamma         0                0                0                0                
! Port Impedance         50               0                50               0                
10.6                           0.147522797070656 64.2063759186551 0.980248628299464 -22.3807320251834 0.980248628299464 -22.3807320251834 0.147519890311823 64.2408807385443 
! Gamma         0                0                0                0                
! Port Impedance         50               0                50               0                
10.7                           0.148765347544906 64.0133951084285 0.98001776004069 -22.5857264770111 0.980017760040691 -22.5857264770111 0.148762399346872 64.0482401722402 
! Gamma         0                0                0                0                
! Port Impedance         50               0                50               0                
10.8                           0.150005075329118 63.8204299078183 0.979786167774644 -22.7906207021711 0.979786167774644 -22.7906207021711 0.150002085776693 63.8556153664423 
! Gamma         0                0                0                0                
! Port Impedance         50               0                50               0                
10.9                           0.151241974200591 63.6274812853453 0.979553858628091 -22.9954148768078 0.979553858628092 -22.9954148768078 0.151238943369242 63.6630072916235 
! Gamma         0                0                0                0                
! Port Impedance         50               0                50               0                
11                             0.152476037714275 63.4345501602359 0.979320839687651 -23.2001091624688 0.979320839687652 -23.2001091624688 0.152472965670275 63.470416869171  
! Gamma         0                0                0                0                
! Port Impedance         50               0                50               0                
11.1                           0.153707259212093 63.2416374077124 0.979087118009055 -23.4047037065854 0.979087118009056 -23.4047037065854 0.153704146012696 63.27784497666   
! Gamma         0                0                0                0                
! Port Impedance         50               0                50               0                
11.2                           0.154935631832181 63.0487438638065 0.978852700625844 -23.6091986429529 0.978852700625844 -23.6091986429529 0.154932477525802 63.0852924526492 
! Gamma         0                0                0                0                
! Port Impedance         50               0                50               0                
11.3                           0.156161148518008 62.8558703297306 0.978617594557521 -23.8135940922089 0.978617594557522 -23.8135940922089 0.156157953144422 62.892760101038  
! Gamma         0                0                0                0                
! Port Impedance         50               0                50               0                
11.4                           0.157383802027382 62.6630175758452 0.978381806817189 -24.0178901623099 0.97838180681719 -24.0178901623099 0.157380565617934 62.7002486950188 
! Gamma         0                0                0                0                
! Port Impedance         50               0                50               0                
11.5                           0.158603584941315 62.4701863452525 0.978145344418681 -24.2220869490039 0.978145344418682 -24.2220869490039 0.158600307519145 62.5077589806565 
! Gamma         0                0                0                0                
! Port Impedance         50               0                50               0                
11.6                           0.159820489672759 62.277377357048  0.977908214383219 -24.4261845363002 0.977908214383221 -24.4261845363002 0.159817171253029 62.3152916801276 
! Gamma         0                0                0                0                
! Port Impedance         50               0                50               0                
11.7                           0.161034508475178 62.0845913092564 0.977670423745614 -24.630182996933 0.977670423745615 -24.630182996933 0.161031149065315 62.1228474946438 
! Gamma         0                0                0                0                
! Port Impedance         50               0                50               0                
11.8                           0.162245633450968 61.8918288814782 0.977431979560028 -24.8340823928217 0.977431979560029 -24.8340823928217 0.16224223305091 61.9304271070872 
! Gamma         0                0                0                0                
! Port Impedance         50               0                50               0                
11.9                           0.163453856559715 61.6990907372706 0.977192888905316 -25.0378827755237 0.977192888905317 -25.0378827755237 0.163450415162163 61.7380311843808 
! Gamma         0                0                0                0                
! Port Impedance         50               0                50               0                
12                             0.164659169626278 61.5063775262848 0.976953158889975 -25.2415841866823 0.976953158889977 -25.2415841866823 0.164655687216955 61.5456603796155 
! Gamma         0                0                0                0                
! Port Impedance         50               0                50               0                
12.1                           0.165861564348702 61.3136898861795 0.976712796656707 -25.4451866584677 0.976712796656708 -25.4451866584677 0.165858040906614 61.3533153339546 
! Gamma         0                0                0                0                
! Port Impedance         50               0                50               0                
12.2                           0.167061032305952 61.1210284443293 0.976471809386616 -25.6486902140101 0.976471809386617 -25.6486902140101 0.167057467803653 61.1609966783332 
! Gamma         0                0                0                0                
! Port Impedance         50               0                50               0                
12.3                           0.168257564965465 60.9283938193454 0.97623020430307 -25.852094867827 0.976230204303072 -25.852094867827 0.168253959369323 60.9687050349714 
! Gamma         0                0                0                0                
! Port Impedance         50               0                50               0                
12.4                           0.169451153690522 60.7357866224254 0.975987988675224 -26.0554006262415 0.975987988675225 -26.0554006262415 0.169447506960989 60.776441018716  
! Gamma         0                0                0                0                
! Port Impedance         50               0                50               0                
12.5                           0.170641789747436 60.543207458545  0.975745169821232 -26.2586074877941 0.975745169821233 -26.2586074877941 0.170638101839316 60.5842052382255 
! Gamma         0                0                0                0                
! Port Impedance         50               0                50               0                
12.6                           0.171829464312551 60.3506569275067 0.975501755111166 -26.461715443645 0.975501755111168 -26.461715443645 0.171825735175268 60.3919982970124 
! Gamma         0                0                0                0                
! Port Impedance         50               0                50               0                
12.7                           0.173014168479062 60.1581356248578 0.975257751969645 -26.6647244779695 0.975257751969647 -26.6647244779695 0.173010398056929 60.1998207943551 
! Gamma         0                0                0                0                
! Port Impedance         50               0                50               0                
12.8                           0.174195893263644 59.9656441426886 0.975013167878203 -26.8676345683445 0.975013167878205 -26.8676345683445 0.174192081496127 60.0076733260909 
! Gamma         0                0                0                0                
! Port Impedance         50               0                50               0                
12.9                           0.175374629612897 59.7731830703227 0.974768010377397 -27.0704456861264 0.974768010377399 -27.0704456861264 0.175370776434885 59.8155564853005 
! Gamma         0                0                0                0                
! Port Impedance         50               0                50               0                
13                             0.176550368409614 59.5807529949071 0.974522287068677 -27.2731577968208 0.974522287068678 -27.2731577968209 0.176546473751675 59.6234708628944 
! Gamma         0                0                0                0                
! Port Impedance         50               0                50               0                
13.1                           0.177723100478856 59.388354501914  0.974276005616025 -27.4757708604438 0.974276005616027 -27.4757708604439 0.1777191642675  59.4314170481095 
! Gamma         0                0                0                0                
! Port Impedance         50               0                50               0                
13.2                           0.178892816593853 59.1959881755597 0.974029173747384 -27.678284831874 0.974029173747386 -27.678284831874 0.178888838751789 59.2393956289249 
! Gamma         0                0                0                0                
! Port Impedance         50               0                50               0                
13.3                           0.180059507481725 59.0036545991512 0.973781799255871 -27.8806996611964 0.973781799255873 -27.8806996611964 0.180055487928109 59.0474071924043 
! Gamma         0                0                0                0                
! Port Impedance         50               0                50               0                
13.4                           0.181223163829024 58.8113543553643 0.973533890000812 -28.083015294038 0.973533890000814 -28.083015294038 0.181219102479709 58.8554523249712 
! Gamma         0                0                0                0                
! Port Impedance         50               0                50               0                
13.5                           0.182383776287101 58.6190880264634 0.973285453908583 -28.2852316718939 0.973285453908585 -28.285231671894 0.182379673054884 58.6635316126256 
! Gamma         0                0                0                0                
! Port Impedance         50               0                50               0                
13.6                           0.183541335477304 58.4268561944654 0.973036498973283 -28.4873487324461 0.973036498973285 -28.4873487324461 0.183537190272161 58.4716456411053 
! Gamma         0                0                0                0                
! Port Impedance         50               0                50               0                
13.7                           0.184695831996005 58.2346594412558 0.972787033257249 -28.6893664098723 0.972787033257251 -28.6893664098724 0.184691644725326 58.2797949959997 
! Gamma         0                0                0                0                
! Port Impedance         50               0                50               0                
13.8                           0.185847256419456 58.0424983486607 0.972537064891409 -28.891284635148 0.972537064891411 -28.891284635148 0.185843026988276 58.0879802628197 
! Gamma         0                0                0                0                
! Port Impedance         50               0                50               0                
13.9                           0.18699559930849 57.8503734984802 0.972286602075507 -29.0931033363387 0.972286602075508 -29.0931033363387 0.186991327619713 57.8962020270287 
! Gamma         0                0                0                0                
! Port Impedance         50               0                50               0                
14                             0.188140851213053 57.6582854724862 0.972035653078172 -29.2948224388849 0.972035653078174 -29.294822438885 0.188136537167668 57.7044608740398 
! Gamma         0                0                0                0                
! Port Impedance         50               0                50               0                
14.1                           0.189283002676583 57.4662348523901 0.971784226236886 -29.4964418658788 0.971784226236888 -29.4964418658788 0.189278646173877 57.5127573891808 
! Gamma         0                0                0                0                
! Port Impedance         50               0                50               0                
14.2                           0.190422044240233 57.2742222197825 0.971532329957809 -29.6979615383322 0.971532329957811 -29.6979615383323 0.190417645178002 57.3210921576336 
! Gamma         0                0                0                0                
! Port Impedance         50               0                50               0                
14.3                           0.191557966446946 57.0822481560495 0.971279972715509 -29.899381375438 0.971279972715511 -29.899381375438 0.19155352472169 57.1294657643488 
! Gamma         0                0                0                0                
! Port Impedance         50               0                50               0                
14.4                           0.192690759845375 56.8903132422669 0.971027163052584 -30.100701294822 0.971027163052586 -30.100701294822 0.192686275352498 56.9378787939396 
! Gamma         0                0                0                0                
! Port Impedance         50               0                50               0                
14.5                           0.193820414993666 56.6984180590774 0.970773909579183 -30.3019212127886 0.970773909579185 -30.3019212127886 0.193815887627663 56.7463318305576 
! Gamma         0                0                0                0                
! Port Impedance         50               0                50               0                
14.6                           0.194946922463098 56.5065631865506 0.970520220972441 -30.5030410445584 0.970520220972442 -30.5030410445584 0.19494235211774 56.5548254577526 
! Gamma         0                0                0                0                
! Port Impedance         50               0                50               0                
14.7                           0.196070272841585 56.3147492040301 0.970266105975829 -30.7040607044979 0.970266105975831 -30.704060704498 0.196065659410092 56.3633602583192 
! Gamma         0                0                0                0                
! Port Impedance         50               0                50               0                
14.8                           0.197190456737038 56.1229766899693 0.970011573398425 -30.9049801063431 0.970011573398426 -30.9049801063432 0.197185800112257 56.1719368141323 
! Gamma         0                0                0                0                
! Port Impedance         50               0                50               0                
14.9                           0.198307464780609 55.9312462217568 0.969756632114107 -31.1057991634145 0.969756632114109 -31.1057991634146 0.198302764855172 55.980555705972  
! Gamma         0                0                0                0                
! Port Impedance         50               0                50               0                
15                             0.199421287629793 55.7395583755348 0.969501291060691 -31.3065177888266 0.969501291060693 -31.3065177888266 0.19941654429628 55.789217513342  
! Gamma         0                0                0                0                
! Port Impedance         50               0                50               0                
15.1                           0.200531915971416 55.5479137260101 0.969245559238991 -31.5071358956891 0.969245559238993 -31.5071358956892 0.200527129122507 55.5979228142811 
! Gamma         0                0                0                0                
! Port Impedance         50               0                50               0                
15.2                           0.2016393405245  55.3563128462608 0.968989445711834 -31.7076533973028 0.968989445711836 -31.7076533973029 0.201634510053119 55.4066721851694 
! Gamma         0                0                0                0                
! Port Impedance         50               0                50               0                
15.3                           0.202743552043002 55.1647563075396 0.968732959603014 -31.908070207348 0.968732959603015 -31.908070207348 0.202738677842465 55.2154662005318 
! Gamma         0                0                0                0                
! Port Impedance         50               0                50               0                
15.4                           0.203844541318453 54.9732446790735 0.968476110096198 -32.1083862400666 0.9684761100962  -32.1083862400667 0.203839623282597 55.0243054328383 
! Gamma         0                0                0                0                
! Port Impedance         50               0                50               0                
15.5                           0.204942299182474 54.781778527863  0.968218906433796 -32.3086014104384 0.968218906433798 -32.3086014104385 0.204937337205786 54.8331904523032 
! Gamma         0                0                0                0                
! Port Impedance         50               0                50               0                
15.6                           0.206036816509188 54.5903584184801 0.967961357915775 -32.5087156343511 0.967961357915777 -32.5087156343512 0.206031810486932 54.6421218266838 
! Gamma         0                0                0                0                
! Port Impedance         50               0                50               0                
15.7                           0.207128084217527 54.3989849128667 0.967703473898447 -32.7087288287636 0.967703473898449 -32.7087288287637 0.20712303404586 54.4511001210789 
! Gamma         0                0                0                0                
! Port Impedance         50               0                50               0                
15.8                           0.208216093273436 54.2076585701341 0.96744526379322 -32.9086409118648 0.967445263793221 -32.9086409118649 0.208210998849522 54.2601258977292 
! Gamma         0                0                0                0                
! Port Impedance         50               0                50               0                
15.9                           0.209300834691982 54.0163799463643 0.967186737065318 -33.1084518032257 0.967186737065319 -33.1084518032258 0.209295695914094 54.0691997158188 
! Gamma         0                0                0                0                
! Port Impedance         50               0                50               0                
16                             0.210382299539359 53.8251495944127 0.966927903232473 -33.3081614239462 0.966927903232475 -33.3081614239463 0.210377116306984 53.8783221312787 
! Gamma         0                0                0                0                
! Port Impedance         50               0                50               0                
16.1                           0.211460478934806 53.6339680637146 0.966668771863597 -33.5077696967967 0.966668771863599 -33.5077696967968 0.211455251148743 53.687493696594  
! Gamma         0                0                0                0                
! Port Impedance         50               0                50               0                
16.2                           0.212535364052435 53.4428359000945 0.966409352577424 -33.7072765463543 0.966409352577425 -33.7072765463544 0.21253009161488 53.4967149606135 
! Gamma         0                0                0                0                
! Port Impedance         50               0                50               0                
16.3                           0.213606946122966 53.2517536455784 0.966149655041138 -33.9066818991337 0.96614965504114 -33.9066818991338 0.213601628937602 53.3059864683633 
! Gamma         0                0                0                0                
! Port Impedance         50               0                50               0                
16.4                           0.214675216435382 53.0607218382111 0.965889688968991 -34.1059856837135 0.965889688968992 -34.1059856837136 0.214669854407459 53.1153087608644 
! Gamma         0                0                0                0                
! Port Impedance         50               0                50               0                
16.5                           0.215740166338498 52.869741011877  0.965629464120889 -34.3051878308574 0.96562946412089 -34.3051878308575 0.215734759374908 52.9246823749545 
! Gamma         0                0                0                0                
! Port Impedance         50               0                50               0                
16.6                           0.216801787242455 52.6788116961257 0.965368990300987 -34.5042882736304 0.965368990300988 -34.5042882736305 0.216796335251805 52.734107843114  
! Gamma         0                0                0                0                
! Port Impedance         50               0                50               0                
16.7                           0.217860070620134 52.4879344160021 0.965108277356256 -34.703286947511 0.965108277356258 -34.7032869475111 0.217854573512808 52.5435856932976 
! Gamma         0                0                0                0                
! Port Impedance         50               0                50               0                
16.8                           0.218915008008489 52.2971096918817 0.964847335175055 -34.9021837904985 0.964847335175057 -34.9021837904986 0.218909465696715 52.3531164487696 
! Gamma         0                0                0                0                
! Port Impedance         50               0                50               0                
16.9                           0.219966591009822 52.1063380393107 0.964586173685688 -35.1009787432161 0.96458617368569 -35.1009787432162 0.219961003407728 52.1627006279455 
! Gamma         0                0                0                0                
! Port Impedance         50               0                50               0                
17                             0.221014811292973 51.9156199688511 0.964324802854963 -35.2996717490095 0.964324802854964 -35.2996717490096 0.22100917831664 51.9723387442377 
! Gamma         0                0                0                0                
! Port Impedance         50               0                50               0                
17.1                           0.222059660594453 51.7249559859316 0.964063232686741 -35.4982627540421 0.964063232686742 -35.4982627540422 0.222053982161964 51.782031305907  
! Gamma         0                0                0                0                
! Port Impedance         50               0                50               0                
17.2                           0.223101130719504 51.5343465907033 0.963801473220492 -35.6967517073851 0.963801473220493 -35.6967517073852 0.22309540675099 51.5917788159196 
! Gamma         0                0                0                0                
! Port Impedance         50               0                50               0                
17.3                           0.224139213543102 51.3437922779008 0.963539534529845 -35.8951385611049 0.963539534529846 -35.895138561105 0.224133443960781 51.4015817718087 
! Gamma         0                0                0                0                
! Port Impedance         50               0                50               0                
17.4                           0.225173901010891 51.1532935367088 0.963277426721141 -36.0934232703458 0.963277426721142 -36.0934232703459 0.225168085739109 51.2114406655424 
! Gamma         0                0                0                0                
! Port Impedance         50               0                50               0                
17.5                           0.226205185140064 50.9628508506344 0.963015159931989 -36.2916057934095 0.96301515993199 -36.2916057934096 0.226199324105328 51.0213559833961 
! Gamma         0                0                0                0                
! Port Impedance         50               0                50               0                
17.6                           0.227233058020188 50.7724646973836 0.962752744329827 -36.4896860918312 0.962752744329828 -36.4896860918313 0.227227151151194 50.8313282058308 
! Gamma         0                0                0                0                
! Port Impedance         50               0                50               0                
17.7                           0.228257511813965 50.5821355487447 0.962490190110485 -36.6876641304517 0.962490190110486 -36.6876641304518 0.228251559041627 50.6413578073767 
! Gamma         0                0                0                0                
! Port Impedance         50               0                50               0                
17.8                           0.229278538757946 50.391863870476  0.962227507496755 -36.8855398774865 0.962227507496757 -36.8855398774866 0.22927254001542 50.4514452565219 
! Gamma         0                0                0                0                
! Port Impedance         50               0                50               0                
17.9                           0.230296131163194 50.2016501221987 0.961964706736974 -37.0833133045918 0.961964706736975 -37.0833133045919 0.230290086385898 50.2615910156062 
! Gamma         0                0                0                0                
! Port Impedance         50               0                50               0                
18                             0.231310281415892 50.0114947572953 0.9617017981036  -37.2809843869272 0.961701798103601 -37.2809843869273 0.231304190541523 50.0717955407207 
! Gamma         0                0                0                0                
! Port Impedance         50               0                50               0                
18.1                           0.232320981977908 49.8213982228135 0.961438791891815 -37.4785531032151 0.961438791891816 -37.4785531032152 0.232314844946458 49.8820592816117 
! Gamma         0                0                0                0                
! Port Impedance         50               0                50               0                
18.2                           0.233328225387311 49.6313609593741 0.961175698418123 -37.6760194357973 0.961175698418124 -37.6760194357974 0.233322042141076 49.6923826815902 
! Gamma         0                0                0                0                
! Port Impedance         50               0                50               0                
18.3                           0.234332004258839 49.4413834010848 0.960912528018966 -37.8733833706893 0.960912528018967 -37.8733833706894 0.234325774742432 49.5027661774462 
! Gamma         0                0                0                0                
! Port Impedance         50               0                50               0                
18.4                           0.235332311284331 49.2514659754583 0.960649291049345 -38.0706448976307 0.960649291049346 -38.0706448976308 0.235326035444684 49.3132101993676 
! Gamma         0                0                0                0                
! Port Impedance         50               0                50               0                
18.5                           0.236329139233107 49.0616091033355 0.960385997881459 -38.2678040101339 0.96038599788146 -38.267804010134 0.236322817019479 49.1237151708642 
! Gamma         0                0                0                0                
! Port Impedance         50               0                50               0                
18.6                           0.237322480952319 48.8718131988131 0.960122658903352 -38.4648607055294 0.960122658903353 -38.4648607055296 0.237316112316297 48.9342815086964 
! Gamma         0                0                0                0                
! Port Impedance         50               0                50               0                
18.7                           0.238312329367253 48.6820786691758 0.95985928451757 -38.6618149850096 0.959859284517571 -38.6618149850097 0.23830591426275 48.7449096228077 
! Gamma         0                0                0                0                
! Port Impedance         50               0                50               0                
18.8                           0.239298677481601 48.4924059148334 0.959595885139837 -38.8586668536688 0.959595885139838 -38.8586668536689 0.239292215864852 48.5555999162629 
! Gamma         0                0                0                0                
! Port Impedance         50               0                50               0                
18.9                           0.240281518377688 48.3027953292616 0.959332471197739 -39.055416320542 0.959332471197739 -39.0554163205421 0.24027501020725 48.3663527851894 
! Gamma         0                0                0                0                
! Port Impedance         50               0                50               0                
19                             0.241260845216675 48.1132472989472 0.959069053129424 -39.2520633986407 0.959069053129425 -39.2520633986408 0.241254290453415 48.1771686187234 
! Gamma         0                0                0                0                
! Port Impedance         50               0                50               0                
19.1                           0.242236651238717 47.9237622033381 0.958805641382319 -39.4486081049868 0.95880564138232 -39.4486081049869 0.242230049845807 47.9880477989604 
! Gamma         0                0                0                0                
! Port Impedance         50               0                50               0                
19.2                           0.243208929763098 47.734340414796  0.958542246411853 -39.6450504606441 0.958542246411854 -39.6450504606442 0.243202281706003 47.798990700909  
! Gamma         0                0                0                0                
! Port Impedance         50               0                50               0                
19.3                           0.244177674188328 47.5449822985545 0.958278878680205 -39.841390490748 0.958278878680206 -39.8413904907481 0.244170979434794 47.6099976924492 
! Gamma         0                0                0                0                
! Port Impedance         50               0                50               0                
19.4                           0.245142877992212 47.3556882126799 0.95801554865506 -40.037628224533 0.95801554865506 -40.037628224533 0.245136136512254 47.4210691342941 
! Gamma         0                0                0                0                
! Port Impedance         50               0                50               0                
19.5                           0.246104534731891 47.166458508036  0.957752266808379 -40.2337636953581 0.95775226680838 -40.2337636953581 0.246097746497775 47.2322053799556 
! Gamma         0                0                0                0                
! Port Impedance         50               0                50               0                
19.6                           0.247062638043853 46.9772935282528 0.957489043615194 -40.4297969407307 0.957489043615195 -40.4297969407308 0.247055803030084 47.0434067757133 
! Gamma         0                0                0                0                
! Port Impedance         50               0                50               0                
19.7                           0.248017181643918 46.7881936096982 0.957225889552409 -40.6257280023282 0.95722588955241 -40.6257280023283 0.248010299827219 46.8546736605872 
! Gamma         0                0                0                0                
! Port Impedance         50               0                50               0                
19.8                           0.2489681593272  46.5991590814531 0.956962815097618 -40.8215569260184 0.956962815097619 -40.8215569260185 0.248961230686491 46.6660063663135 
! Gamma         0                0                0                0                
! Port Impedance         50               0                50               0                
19.9                           0.249915564968032 46.4101902652901 0.956699830727944 -41.0172837618774 0.956699830727944 -41.0172837618775 0.249908589484416 46.4774052173237 
! Gamma         0                0                0                0                
! Port Impedance         50               0                50               0                
20                             0.250859392519887 46.2212874756551 0.956436946918888 -41.2129085642065 0.956436946918889 -41.2129085642066 0.250852370176623 46.2888705307267 
! Gamma         0                0                0                0                
! Port Impedance         50               0                50               0                
20.1                           0.251799636015253 46.0324510196518 0.956174174143202 -41.4084313915474 0.956174174143203 -41.4084313915475 0.251792566797739 46.1004026162941 
! Gamma         0                0                0                0                
! Port Impedance         50               0                50               0                
20.2                           0.252736289565508 45.8436811970292 0.955911522869767 -41.6038523066957 0.955911522869768 -41.6038523066957 0.252729173461253 45.9120017764484 
! Gamma         0                0                0                0                
! Port Impedance         50               0                50               0                
20.3                           0.253669347360752 45.6549783001721 0.955649003562497 -41.7991713767125 0.955649003562497 -41.7991713767126 0.253662184359355 45.7236683062538 
! Gamma         0                0                0                0                
! Port Impedance         50               0                50               0                
20.4                           0.254598803669635 45.4663426140941 0.955386626679253 -41.9943886729357 0.955386626679254 -41.9943886729358 0.25459159376276 45.5354024934098 
! Gamma         0                0                0                0                
! Port Impedance         50               0                50               0                
20.5                           0.255524652839158 45.2777744164335 0.955124402670781 -42.1895042709886 0.955124402670781 -42.1895042709887 0.255517396020509 45.3472046182477 
! Gamma         0                0                0                0                
! Port Impedance         50               0                50               0                
20.6                           0.256446889294455 45.0892739774512 0.954862341979655 -42.3845182507879 0.954862341979655 -42.384518250788 0.256439585559748 45.1590749537292 
! Gamma         0                0                0                0                
! Port Impedance         50               0                50               0                
20.7                           0.257365507538555 44.9008415600316 0.954600455039246 -42.5794306965502 0.954600455039246 -42.5794306965503 0.257358156885493 44.9710137654473 
! Gamma         0                0                0                0                
! Port Impedance         50               0                50               0                
20.8                           0.258280502152132 44.7124774196854 0.954338752272703 -42.7742416967976 0.954338752272704 -42.7742416967976 0.258273104580379 44.7830213116302 
! Gamma         0                0                0                0                
! Port Impedance         50               0                50               0                
20.9                           0.259191867793233 44.5241818045551 0.954077244091953 -42.9689513443609 0.954077244091954 -42.968951344361 0.259184423304384 44.5950978431469 
! Gamma         0                0                0                0                
! Port Impedance         50               0                50               0                
21                             0.260099599196992 44.3359549554223 0.953815940896712 -43.1635597363833 0.953815940896713 -43.1635597363834 0.260092107794545 44.407243603515  
! Gamma         0                0                0                0                
! Port Impedance         50               0                50               0                
21.1                           0.261003691175325 44.1477971057168 0.953554853073517 -43.3580669743218 0.953554853073517 -43.3580669743219 0.260996152864656 44.2194588289105 
! Gamma         0                0                0                0                
! Port Impedance         50               0                50               0                
21.2                           0.261904138616617 43.9597084815286 0.953293990994772 -43.5524731639475 0.953293990994773 -43.5524731639476 0.261896553404947 44.0317437481801 
! Gamma         0                0                0                0                
! Port Impedance         50               0                50               0                
21.3                           0.262800936485385 43.771689301621  0.953033365017814 -43.7467784153457 0.953033365017814 -43.7467784153458 0.262793304381755 43.8440985828545 
! Gamma         0                0                0                0                
! Port Impedance         50               0                50               0                
21.4                           0.263694079821937 43.5837397774456 0.952772985483986 -43.940982842914 0.952772985483986 -43.9409828429141 0.263686400837176 43.6565235471643 
! Gamma         0                0                0                0                
! Port Impedance         50               0                50               0                
21.5                           0.264583563742008 43.3958601131596 0.952512862717734 -44.1350865653601 0.952512862717735 -44.1350865653602 0.264575837888706 43.4690188480574 
! Gamma         0                0                0                0                
! Port Impedance         50               0                50               0                
21.6                           0.265469383436394 43.2080505056442 0.952253007025722 -44.3290897056983 0.952253007025722 -44.3290897056984 0.265461610728871 43.2815846852176 
! Gamma         0                0                0                0                
! Port Impedance         50               0                50               0                
21.7                           0.266351534170562 43.0203111445245 0.951993428695948 -44.5229923912451 0.951993428695948 -44.5229923912452 0.26634371462484 43.0942212510858 
! Gamma         0                0                0                0                
! Port Impedance         50               0                50               0                
21.8                           0.267230011284259 42.8326422121918 0.951734137996895 -44.716794753614 0.951734137996895 -44.7167947536141 0.267222144918031 42.9069287308814 
! Gamma         0                0                0                0                
! Port Impedance         50               0                50               0                
21.9                           0.268104810191102 42.6450438838264 0.951475145176682 -44.9104969287096 0.951475145176682 -44.9104969287097 0.268096897023705 42.7197073026264 
! Gamma         0                0                0                0                
! Port Impedance         50               0                50               0                
22                             0.268975926378163 42.4575163274223 0.95121646046224 -45.1040990567205 0.95121646046224 -45.1040990567206 0.268967966430547 42.5325571371702 
! Gamma         0                0                0                0                
! Port Impedance         50               0                50               0                
22.1                           0.269843355405539 42.2700597038131 0.950958094058497 -45.2976012821117 0.950958094058498 -45.2976012821118 0.269835348700237 42.3454783982156 
! Gamma         0                0                0                0                
! Port Impedance         50               0                50               0                
22.2                           0.270707092905915 42.0826741666989 0.950700056147583 -45.4910037536162 0.950700056147583 -45.4910037536163 0.270699039467016 42.1584712423466 
! Gamma         0                0                0                0                
! Port Impedance         50               0                50               0                
22.3                           0.271567134584117 41.8953598626751 0.950442356888046 -45.6843066242258 0.950442356888046 -45.6843066242258 0.271559034437236 41.971535819057  
! Gamma         0                0                0                0                
! Port Impedance         50               0                50               0                
22.4                           0.272423476216656 41.7081169312616 0.950185006414084 -45.8775100511809 0.950185006414084 -45.8775100511809 0.272415329388905 41.7846722707801 
! Gamma         0                0                0                0                
! Port Impedance         50               0                50               0                
22.5                           0.273276113651264 41.5209455049336 0.949928014834796 -46.0706141959604 0.949928014834796 -46.0706141959604 0.273267920171224 41.5978807329199 
! Gamma         0                0                0                0                
! Port Impedance         50               0                50               0                
22.6                           0.274125042806419 41.3338457091532 0.949671392233438 -46.2636192242702 0.949671392233438 -46.2636192242703 0.274116802704112 41.4111613338828 
! Gamma         0                0                0                0                
! Port Impedance         50               0                50               0                
22.7                           0.274970259670869 41.1468176624016 0.949415148666706 -46.4565253060315 0.949415148666706 -46.4565253060316 0.274961972977729 41.2245141951105 
! Gamma         0                0                0                0                
! Port Impedance         50               0                50               0                
22.8                           0.27581176030314 40.9598614762133 0.949159294164019 -46.649332615368 0.94915929416402 -46.649332615368 0.275803427051985 41.0379394311141 
! Gamma         0                0                0                0                
! Port Impedance         50               0                50               0                
22.9                           0.27664954083104 40.7729772552102 0.948903838726831 -46.8420413305931 0.948903838726831 -46.8420413305931 0.276641161056049 40.8514371495085 
! Gamma         0                0                0                0                
! Port Impedance         50               0                50               0                
23                             0.277483597451164 40.5861650971367 0.948648792327944 -47.0346516341963 0.948648792327944 -47.0346516341963 0.277475171187842 40.6650074510481 
! Gamma         0                0                0                0                
! Port Impedance         50               0                50               0                
23.1                           0.278313926428379 40.3994250928961 0.948394164910841 -47.2271637128289 0.948394164910842 -47.2271637128289 0.278305453713538 40.4786504296628 
! Gamma         0                0                0                0                
! Port Impedance         50               0                50               0                
23.2                           0.279140524095313 40.212757326587  0.948139966389038 -47.4195777572894 0.948139966389038 -47.4195777572894 0.279132004967041 40.2923661724956 
! Gamma         0                0                0                0                
! Port Impedance         50               0                50               0                
23.3                           0.279963386851834 40.0261618755409 0.947886206645435 -47.6118939625083 0.947886206645434 -47.6118939625083 0.279954821349471 40.1061547599399 
! Gamma         0                0                0                0                
! Port Impedance         50               0                50               0                
23.4                           0.280782511164526 39.8396388103608 0.947632895531693 -47.8041125275325 0.947632895531693 -47.8041125275325 0.280773899328639 39.920016265678  
! Gamma         0                0                0                0                
! Port Impedance         50               0                50               0                
23.5                           0.281597893566158 39.653188194959  0.947380042867622 -47.9962336555091 0.947380042867622 -47.9962336555091 0.281589235438515 39.7339507567199 
! Gamma         0                0                0                0                
! Port Impedance         50               0                50               0                
23.6                           0.282409530655148 39.4668100865973 0.947127658440577 -48.1882575536687 0.947127658440577 -48.1882575536688 0.282400826278694 39.5479582934433 
! Gamma         0                0                0                0                
! Port Impedance         50               0                50               0                
23.7                           0.283217419095024 39.2805045359264 0.94687575200487 -48.3801844333091 0.94687575200487 -48.3801844333091 0.283208668513855 39.3620389296333 
! Gamma         0                0                0                0                
! Port Impedance         50               0                50               0                
23.8                           0.284021555613879 39.0942715870265 0.946624333281196 -48.5720145097768 0.946624333281196 -48.5720145097769 0.284012758873221 39.1761927125231 
! Gamma         0                0                0                0                
! Port Impedance         50               0                50               0                
23.9                           0.284821937003822 38.9081112774479 0.94637341195607 -48.7637480024504 0.94637341195607 -48.7637480024504 0.284813094150008 38.9904196828351 
! Gamma         0                0                0                0                
! Port Impedance         50               0                50               0                
24                             0.285618560120427 38.7220236382527 0.946122997681275 -48.9553851347216 0.946122997681275 -48.9553851347216 0.285609671200872 38.8047198748224 
! Gamma         0                0                0                0                
! Port Impedance         50               0                50               0                
24.1                           0.286411421882177 38.5360086940559 0.945873100073326 -49.146926133977 0.945873100073326 -49.1469261339771 0.286402486945358 38.6190933163108 
! Gamma         0                0                0                0                
! Port Impedance         50               0                50               0                
24.2                           0.287200519269904 38.350066463068  0.945623728712943 -49.3383712315797 0.945623728712942 -49.3383712315797 0.287191538365337 38.4335400287407 
! Gamma         0                0                0                0                
! Port Impedance         50               0                50               0                
24.3                           0.287985849326229 38.1641969571372 0.945374893144533 -49.5297206628492 0.945374893144532 -49.5297206628492 0.287976822504448 38.2480600272102 
! Gamma         0                0                0                0                
! Port Impedance         50               0                50               0                
24.4                           0.28876740915499 37.9784001817922 0.945126602875693 -49.7209746670429 0.945126602875693 -49.7209746670429 0.28875833646753 38.0626533205177 
! Gamma         0                0                0                0                
! Port Impedance         50               0                50               0                
24.5                           0.289545195920685 37.792676136285  0.944878867376716 -49.9121334873357 0.944878867376716 -49.9121334873357 0.289536077420056 37.8773199112052 
! Gamma         0                0                0                0                
! Port Impedance         50               0                50               0                
24.6                           0.29031920684789 37.6070248136345 0.944631696080112 -50.1031973708002 0.944631696080112 -50.1031973708003 0.290310042587563 37.6920597956018 
! Gamma         0                0                0                0                
! Port Impedance         50               0                50               0                
24.7                           0.291089439220695 37.4214462006701 0.944385098380138 -50.2941665683866 0.944385098380139 -50.2941665683866 0.291080229255079 37.5068729638676 
! Gamma         0                0                0                0                
! Port Impedance         50               0                50               0                
24.8                           0.291855890382123 37.2359402780749 0.944139083632343 -50.4850413349015 0.944139083632343 -50.4850413349015 0.29184663476655 37.3217594000371 
! Gamma         0                0                0                0                
! Port Impedance         50               0                50               0                
24.9                           0.292618557733556 37.0505070204303 0.943893661153118 -50.6758219289879 0.943893661153118 -50.6758219289879 0.292609256524262 37.136719082064  
! Gamma         0                0                0                0                
! Port Impedance         50               0                50               0                
25                             0.293377438734158 36.8651463962598 0.943648840219265 -50.8665086131034 0.943648840219265 -50.8665086131034 0.293368091988263 36.9517519818651 
! Gamma         0                0                0                0                
! Port Impedance         50               0                50               0                
25.1                           0.294132530900287 36.6798583680734 0.943404630067567 -51.0571016534995 0.943404630067567 -51.0571016534995 0.294123138675785 36.7668580653647 
! Gamma         0                0                0                0                
! Port Impedance         50               0                50               0                
25.2                           0.294883831804925 36.4946428924118 0.943161039894377 -51.2476013202   0.943161039894377 -51.2476013202   0.294874394160662 36.5820372925395 
! Gamma         0                0                0                0                
! Port Impedance         50               0                50               0                
25.3                           0.295631339077085 36.3094999198913 0.94291807885521 -51.4380078869789 0.94291807885521 -51.4380078869789 0.295621856072744 36.397289617463  
! Gamma         0                0                0                0                
! Port Impedance         50               0                50               0                
25.4                           0.29637505040123 36.1244293952481 0.942675756064352 -51.6283216313393 0.942675756064352 -51.6283216313393 0.29636552209732 36.2126149883506 
! Gamma         0                0                0                0                
! Port Impedance         50               0                50               0                
25.5                           0.29711496351669 35.9394312573832 0.942434080594473 -51.8185428344908 0.942434080594473 -51.8185428344908 0.297105389974529 36.0280133476039 
! Gamma         0                0                0                0                
! Port Impedance         50               0                50               0                
25.6                           0.297851076217074 35.7545054394071 0.942193061476255 -52.0086717813274 0.942193061476255 -52.0086717813274 0.297841457498775 35.8434846318564 
! Gamma         0                0                0                0                
! Port Impedance         50               0                50               0                
25.7                           0.298583386349684 35.5696518686844 0.941952707698024 -52.1987087604054 0.941952707698024 -52.1987087604054 0.298573722518142 35.6590287720177 
! Gamma         0                0                0                0                
! Port Impedance         50               0                50               0                
25.8                           0.299311891814928 35.3848704668792 0.941713028205395 -52.3886540639205 0.941713028205395 -52.3886540639205 0.299302182933808 35.4746456933192 
! Gamma         0                0                0                0                
! Port Impedance         50               0                50               0                
25.9                           0.300036590565733 35.2001611499994 0.941474031900927 -52.5785079876855 0.941474031900927 -52.5785079876855 0.300026836699456 35.2903353153585 
! Gamma         0                0                0                0                
! Port Impedance         50               0                50               0                
26                             0.300757480606954 35.015523828442  0.941235727643788 -52.7682708311075 0.941235727643788 -52.7682708311075 0.300747681820689 35.1060975521449 
! Gamma         0                0                0                0                
! Port Impedance         50               0                50               0                
26.1                           0.301474559994791 34.8309584070374 0.940998124249422 -52.9579428971646 0.940998124249422 -52.9579428971646 0.301464716354441 34.9219323121441 
! Gamma         0                0                0                0                
! Port Impedance         50               0                50               0                
26.2                           0.302187826836198 34.646464785095  0.940761230489233 -53.1475244923835 0.940761230489234 -53.1475244923835 0.302177938408391 34.7378394983233 
! Gamma         0                0                0                0                
! Port Impedance         50               0                50               0                
26.3                           0.302897279288297 34.4620428564474 0.940525055090277 -53.337015926816 0.940525055090277 -53.3370159268159 0.302887346140374 34.5538190081962 
! Gamma         0                0                0                0                
! Port Impedance         50               0                50               0                
26.4                           0.303602915557789 34.2776925094952 0.940289606734952 -53.5264175140156 0.940289606734953 -53.5264175140156 0.303592937757797 34.3698707338677 
! Gamma         0                0                0                0                
! Port Impedance         50               0                50               0                
26.5                           0.304304733900364 34.0934136272521 0.940054894060717 -53.7157295710148 0.940054894060717 -53.7157295710147 0.304294711517049 34.1859945620791 
! Gamma         0                0                0                0                
! Port Impedance         50               0                50               0                
26.6                           0.305002732620123 33.9092060873891 0.939820925659796 -53.9049524183011 0.939820925659796 -53.9049524183011 0.304992665722915 34.0021903742524 
! Gamma         0                0                0                0                
! Port Impedance         50               0                50               0                
26.7                           0.305696910068981 33.7250697622793 0.939587710078907 -54.0940863797941 0.939587710078907 -54.094086379794 0.305686798727992 33.8184580465355 
! Gamma         0                0                0                0                
! Port Impedance         50               0                50               0                
26.8                           0.306387264646089 33.5410045190423 0.939355255818991 -54.2831317828212 0.939355255818991 -54.2831317828211 0.306377108932104 33.6347974498463 
! Gamma         0                0                0                0                
! Port Impedance         50               0                50               0                
26.9                           0.307073794797245 33.3570102195885 0.939123571334954 -54.4720889580948 0.939123571334954 -54.4720889580947 0.307063594781716 33.4512084499177 
! Gamma         0                0                0                0                
! Port Impedance         50               0                50               0                
27                             0.307756499014313 33.1730867206636 0.93889266503541 -54.6609582396881 0.93889266503541 -54.6609582396881 0.307746254769351 33.2676909073419 
! Gamma         0                0                0                0                
! Port Impedance         50               0                50               0                
27.1                           0.308435375834637 32.9892338738924 0.938662545282438 -54.8497399650117 0.938662545282439 -54.8497399650116 0.308425087433008 33.0842446776142 
! Gamma         0                0                0                0                
! Port Impedance         50               0                50               0                
27.2                           0.309110423840459 32.8054515258232 0.938433220391345 -55.0384344747894 0.938433220391345 -55.0384344747894 0.309100091355578 32.900869611178  
! Gamma         0                0                0                0                
! Port Impedance         50               0                50               0                
27.3                           0.309781641658342 32.6217395179715 0.938204698630431 -55.2270421130351 0.938204698630431 -55.2270421130351 0.309771265164269 32.7175655534682 
! Gamma         0                0                0                0                
! Port Impedance         50               0                50               0                
27.4                           0.310449027958586 32.438097686864  0.93797698822077 -55.4155632270282 0.93797698822077 -55.4155632270281 0.310438607530018 32.5343323449557 
! Gamma         0                0                0                0                
! Port Impedance         50               0                50               0                
27.5                           0.311112581454649 32.2545258640818 0.937750097335991 -55.6039981672902 0.937750097335991 -55.6039981672901 0.311102117166924 32.3511698211905 
! Gamma         0                0                0                0                
! Port Impedance         50               0                50               0                
27.6                           0.311772300902575 32.0710238763044 0.937524034102071 -55.7923472875606 0.937524034102072 -55.7923472875606 0.311761792831659 32.1680778128461 
! Gamma         0                0                0                0                
! Port Impedance         50               0                50               0                
27.7                           0.312428185100411 31.887591545353  0.937298806597131 -55.9806109447732 0.937298806597131 -55.9806109447731 0.312417633322904 31.9850561457623 
! Gamma         0                0                0                0                
! Port Impedance         50               0                50               0                
27.8                           0.31308023288764 31.7042286882333 0.937074422851238 -56.1687894990318 0.937074422851238 -56.1687894990317 0.313069637480767 31.8021046409893 
! Gamma         0                0                0                0                
! Port Impedance         50               0                50               0                
27.9                           0.313728443144603 31.520935117179  0.936850890846219 -56.3568833135866 0.936850890846219 -56.3568833135866 0.313717804186215 31.61922311483   
! Gamma         0                0                0                0                
! Port Impedance         50               0                50               0                
28                             0.31437281479193 31.3377106396943 0.936628218515477 -56.5448927548101 0.936628218515478 -56.5448927548101 0.314362132360504 31.436411378884  
! Gamma         0                0                0                0                
! Port Impedance         50               0                50               0                
28.1                           0.315013346789971 31.1545550585971 0.936406413743816 -56.7328181921731 0.936406413743817 -56.7328181921731 0.315002620964605 31.2536692400895 
! Gamma         0                0                0                0                
! Port Impedance         50               0                50               0                
28.2                           0.315650038138229 30.9714681720609 0.936185484367267 -56.9206599982208 0.936185484367267 -56.9206599982207 0.315639268998643 31.070996500767  
! Gamma         0                0                0                0                
! Port Impedance         50               0                50               0                
28.3                           0.316282887874793 30.7884497736577 0.935965438172925 -57.1084185485486 0.935965438172926 -57.1084185485486 0.316272075501329 30.8883929586609 
! Gamma         0                0                0                0                
! Port Impedance         50               0                50               0                
28.4                           0.316911895075773 30.6054996524    0.935746282898796 -57.2960942217788 0.935746282898796 -57.2960942217788 0.316901039549397 30.7058584069822 
! Gamma         0                0                0                0                
! Port Impedance         50               0                50               0                
28.5                           0.317537058854743 30.4226175927827 0.935528026233635 -57.4836873995359 0.935528026233636 -57.4836873995358 0.31752616025704 30.5233926344509 
! Gamma         0                0                0                0                
! Port Impedance         50               0                50               0                
28.6                           0.318158378362176 30.239803374825  0.935310675816809 -57.6711984664231 0.935310675816809 -57.6711984664231 0.318147436775358 30.3409954253377 
! Gamma         0                0                0                0                
! Port Impedance         50               0                50               0                
28.7                           0.31877585278489 30.0570567741121 0.935094239238148 -57.8586278099984 0.935094239238149 -57.8586278099983 0.318764868291791 30.1586665595058 
! Gamma         0                0                0                0                
! Port Impedance         50               0                50               0                
28.8                           0.319389481345491 29.8743775618366 0.934878724037817 -58.0459758207503 0.934878724037817 -58.0459758207503 0.319378454029572 29.9764058124526 
! Gamma         0                0                0                0                
! Port Impedance         50               0                50               0                
28.9                           0.31999926330182 29.6917655048395 0.934664137706178 -58.2332428920747 0.934664137706178 -58.2332428920747 0.319988193247171 29.7942129553509 
! Gamma         0                0                0                0                
! Port Impedance         50               0                50               0                
29                             0.320605197946403 29.5092203656518 0.934450487683671 -58.4204294202504 0.934450487683672 -58.4204294202503 0.320594085237742 29.6120877550904 
! Gamma         0                0                0                0                
! Port Impedance         50               0                50               0                
29.1                           0.3212072846059  29.3267419025347 0.934237781360694 -58.6075358044154 0.934237781360694 -58.6075358044154 0.321196129328581 29.4300299743185 
! Gamma         0                0                0                0                
! Port Impedance         50               0                50               0                
29.2                           0.32180552264056 29.1443298695208 0.934026026077484 -58.7945624465436 0.934026026077485 -58.7945624465435 0.321794324880572 29.2480393714815 
! Gamma         0                0                0                0                
! Port Impedance         50               0                50               0                
29.3                           0.322399911443679 28.9619840164542 0.933815229124013 -58.9815097514202 0.933815229124014 -58.9815097514202 0.322388671287651 29.0661157008645 
! Gamma         0                0                0                0                
! Port Impedance         50               0                50               0                
29.4                           0.322990450441054 28.779704089031  0.933605397739879 -59.1683781266191 0.93360539773988 -59.168378126619 0.322979167976258 28.8842587126326 
! Gamma         0                0                0                0                
! Port Impedance         50               0                50               0                
29.5                           0.32357713909045 28.597489828839  0.933396539114209 -59.3551679824783 0.93339653911421 -59.3551679824782 0.323565814404806 28.7024681528706 
! Gamma         0                0                0                0                
! Port Impedance         50               0                50               0                
29.6                           0.324159976881058 28.4153409733982 0.933188660385561 -59.5418797320766 0.933188660385562 -59.5418797320766 0.324148610063136 28.5207437636234 
! Gamma         0                0                0                0                
! Port Impedance         50               0                50               0                
29.7                           0.324738963332965 28.2332572561996 0.932981768641836 -59.7285137912105 0.932981768641837 -59.7285137912104 0.324727554471992 28.3390852829355 
! Gamma         0                0                0                0                
! Port Impedance         50               0                50               0                
29.8                           0.32531409799662 28.0512384067452 0.932775870920189 -59.9150705783697 0.93277587092019 -59.9150705783696 0.325302647182484 28.1574924448907 
! Gamma         0                0                0                0                
! Port Impedance         50               0                50               0                
29.9                           0.325885380452308 27.8692841505873 0.932570974206951 -60.1015505147145 0.932570974206952 -60.1015505147144 0.325873887775563 27.9759649796518 
! Gamma         0                0                0                0                
! Port Impedance         50               0                50               0                
30                             0.326452810309623 27.687394209367  0.932367085437546 -60.2879540240521 0.932367085437547 -60.287954024052 0.326441275861496 27.7945026134994 
! Gamma         0                0                0                0                
! Port Impedance         50               0                50               0                
30.1                           0.327016387206946 27.5055683008536 0.932164211496424 -60.4742815328131 0.932164211496424 -60.474281532813 0.327004811079338 27.6131050688712 
! Gamma         0                0                0                0                
! Port Impedance         50               0                50               0                
30.2                           0.327576110810923 27.3238061389828 0.931962359216983 -60.6605334700281 0.931962359216984 -60.660533470028 0.327564493096421 27.4317720644007 
! Gamma         0                0                0                0                
! Port Impedance         50               0                50               0                
30.3                           0.328131980815948 27.1421074338954 0.931761535381515 -60.8467102673049 0.931761535381516 -60.8467102673048 0.328120321607827 27.2505033149557 
! Gamma         0                0                0                0                
! Port Impedance         50               0                50               0                
30.4                           0.328683996943649 26.9604718919751 0.931561746721133 -61.0328123588047 0.931561746721134 -61.0328123588046 0.32867229633588 27.069298531677  
! Gamma         0                0                0                0                
! Port Impedance         50               0                50               0                
30.5                           0.329232158942378 26.778899215887  0.931362999915722 -61.2188401812195 0.931362999915723 -61.2188401812194 0.329220417029635 26.8881574220161 
! Gamma         0                0                0                0                
! Port Impedance         50               0                50               0                
30.6                           0.329776466586699 26.5973891046151 0.93116530159388 -61.4047941737487 0.931165301593881 -61.4047941737486 0.329764683464365 26.707079689774  
! Gamma         0                0                0                0                
! Port Impedance         50               0                50               0                
30.7                           0.330316919676885 26.4159412534998 0.930968658332869 -61.590674778076 0.93096865833287 -61.5906747780759 0.33030509544106 26.5260650351377 
! Gamma         0                0                0                0                
! Port Impedance         50               0                50               0                
30.8                           0.330853518038412 26.2345553542753 0.930773076658569 -61.7764824383467 0.93077307665857 -61.7764824383466 0.330841652785919 26.3451131547193 
! Gamma         0                0                0                0                
! Port Impedance         50               0                50               0                
30.9                           0.331386261521464 26.0532310951072 0.930578563045436 -61.9622176011446 0.930578563045437 -61.9622176011445 0.331374355349857 26.1642237415921 
! Gamma         0                0                0                0                
! Port Impedance         50               0                50               0                
31                             0.331915150000432 25.8719681606287 0.930385123916457 -62.1478807154694 0.930385123916458 -62.1478807154693 0.331903203008005 25.9833964853285 
! Gamma         0                0                0                0                
! Port Impedance         50               0                50               0                
31.1                           0.332440183373422 25.690766231978  0.930192765643118 -62.3334722327136 0.93019276564312 -62.3334722327135 0.332428195659216 25.8026310720368 
! Gamma         0                0                0                0                
! Port Impedance         50               0                50               0                
31.2                           0.332961361561766 25.5096249868345 0.930001494545371 -62.51899260664  0.930001494545372 -62.5189926066398 0.332949333225576 25.6219271843978 
! Gamma         0                0                0                0                
! Port Impedance         50               0                50               0                
31.3                           0.33347868450953 25.3285440994553 0.929811316891599 -62.7044422933591 0.9298113168916  -62.7044422933589 0.333466615651917 25.4412845017017 
! Gamma         0                0                0                0                
! Port Impedance         50               0                50               0                
31.4                           0.333992152183037 25.1475232407112 0.929622238898593 -62.8898217513064 0.929622238898594 -62.8898217513063 0.33398004290533 25.2607026998841 
! Gamma         0                0                0                0                
! Port Impedance         50               0                50               0                
31.5                           0.33450176457038 24.966562078123  0.929434266731526 -63.0751314412202 0.929434266731527 -63.0751314412201 0.334489614974691 25.0801814515625 
! Gamma         0                0                0                0                
! Port Impedance         50               0                50               0                
31.6                           0.335007521680945 24.7856602758966 0.929247406503931 -63.2603718261187 0.929247406503932 -63.2603718261185 0.334995331870175 24.899720426072  
! Gamma         0                0                0                0                
! Port Impedance         50               0                50               0                
31.7                           0.335509423544939 24.6048174949592 0.929061664277685 -63.4455433712779 0.929061664277686 -63.4455433712778 0.335497193622787 24.7193192895013 
! Gamma         0                0                0                0                
! Port Impedance         50               0                50               0                
31.8                           0.336007470212918 24.4240333929944 0.92887704606299 -63.6306465442096 0.928877046062991 -63.6306465442095 0.33599520028389 24.5389777047282 
! Gamma         0                0                0                0                
! Port Impedance         50               0                50               0                
31.9                           0.336501661755316 24.243307624477  0.928693557818362 -63.8156818146387 0.928693557818364 -63.8156818146386 0.336489351924735 24.3586953314549 
! Gamma         0                0                0                0                
! Port Impedance         50               0                50               0                
32                             0.336991998261986 24.0626398407086 0.928511205450619 -64.0006496544814 0.928511205450621 -64.0006496544813 0.336979648635999 24.1784718262433 
! Gamma         0                0                0                0                
! Port Impedance         50               0                50               0                
32.1                           0.337478479841732 23.8820296898518 0.928329994814875 -64.1855505378228 0.928329994814877 -64.1855505378227 0.337466090527324 23.99830684255   
! Gamma         0                0                0                0                
! Port Impedance         50               0                50               0                
32.2                           0.337961106621855 23.701476816965  0.928149931714531 -64.3703849408955 0.928149931714533 -64.3703849408954 0.337948677726855 23.8182000307612 
! Gamma         0                0                0                0                
! Port Impedance         50               0                50               0                
32.3                           0.338439878747699 23.5209808640368 0.927971021901275 -64.555153342057 0.927971021901277 -64.5551533420569 0.33842741038079 23.6381510382271 
! Gamma         0                0                0                0                
! Port Impedance         50               0                50               0                
32.4                           0.338914796382196 23.3405414700201 0.927793271075081 -64.7398562217683 0.927793271075082 -64.7398562217682 0.338902288652926 23.4581595092965 
! Gamma         0                0                0                0                
! Port Impedance         50               0                50               0                
32.5                           0.339385859705423 23.1601582708659 0.927616684884207 -64.9244940625722 0.927616684884208 -64.9244940625721 0.339373312724214 23.2782250853508 
! Gamma         0                0                0                0                
! Port Impedance         50               0                50               0                
32.6                           0.339853068914152 22.9798308995576 0.927441268925201 -65.109067349071 0.927441268925203 -65.1090673490709 0.339840482792312 23.0983474048386 
! Gamma         0                0                0                0                
! Port Impedance         50               0                50               0                
32.7                           0.340316424221415 22.799558986144  0.927267028742909 -65.2935765679058 0.92726702874291 -65.2935765679057 0.340303799071144 22.9185261033091 
! Gamma         0                0                0                0                
! Port Impedance         50               0                50               0                
32.8                           0.34077592585606 22.6193421577732 0.927093969830478 -65.4780222077341 0.927093969830479 -65.478022207734 0.340763261790466 22.7387608134458 
! Gamma         0                0                0                0                
! Port Impedance         50               0                50               0                
32.9                           0.341231574062322 22.4391800387254 0.926922097629367 -65.6624047592091 0.926922097629369 -65.662404759209 0.341218871195427 22.5590511651003 
! Gamma         0                0                0                0                
! Port Impedance         50               0                50               0                
33                             0.341683369099392 22.2590722504464 0.926751417529363 -65.8467247149576 0.926751417529365 -65.8467247149575 0.341670627546143 22.3793967853255 
! Gamma         0                0                0                0                
! Port Impedance         50               0                50               0                
33.1                           0.342131311240987 22.0790184115802 0.926581934868588 -66.0309825695592 0.92658193486859 -66.0309825695591 0.342118531117268 22.1997972984086 
! Gamma         0                0                0                0                
! Port Impedance         50               0                50               0                
33.2                           0.342575400774928 21.8990181380016 0.926413654933517 -66.2151788195248 0.926413654933519 -66.2151788195247 0.342562582197569 22.0202523259043 
! Gamma         0                0                0                0                
! Port Impedance         50               0                50               0                
33.3                           0.343015638002721 21.7190710428491 0.926246582958997 -66.3993139632758 0.926246582958999 -66.3993139632757 0.34300278108951 21.8407614866676 
! Gamma         0                0                0                0                
! Port Impedance         50               0                50               0                
33.4                           0.343452023239138 21.5391767365568 0.926080724128263 -66.5833885011224 0.926080724128265 -66.5833885011223 0.343439128108832 21.6613243968863 
! Gamma         0                0                0                0                
! Port Impedance         50               0                50               0                
33.5                           0.343884556811807 21.3593348268867 0.92591608357296 -66.7674029352432 0.925916083572962 -66.7674029352431 0.343871623584141 21.4819406701135 
! Gamma         0                0                0                0                
! Port Impedance         50               0                50               0                
33.6                           0.344313239060802 21.1795449189608 0.925752666373162 -66.9513577696641 0.925752666373164 -66.951357769664 0.344300267856501 21.3026099172998 
! Gamma         0                0                0                0                
! Port Impedance         50               0                50               0                
33.7                           0.344738070338235 20.9998066152929 0.925590477557401 -67.1352535102371 0.925590477557403 -67.135253510237 0.344725061279025 21.1233317468258 
! Gamma         0                0                0                0                
! Port Impedance         50               0                50               0                
33.8                           0.345159051007856 20.8201195158199 0.925429522102685 -67.3190906646201 0.925429522102687 -67.31909066462  0.345146004216474 20.9441057645334 
! Gamma         0                0                0                0                
! Port Impedance         50               0                50               0                
33.9                           0.345576181444655 20.6404832179337 0.92526980493453 -67.5028697422557 0.925269804934532 -67.5028697422556 0.345563097044861 20.7649315737583 
! Gamma         0                0                0                0                
! Port Impedance         50               0                50               0                
34                             0.345989462034465 20.4608973165123 0.925111330926985 -67.686591254351 0.925111330926987 -67.6865912543509 0.345976340151052 20.5858087753612 
! Gamma         0                0                0                0                
! Port Impedance         50               0                50               0                
34.1                           0.34639889317357 20.2813614039509 0.92495410490266 -67.8702557138567 0.924954104902662 -67.8702557138566 0.346385733932378 20.4067369677592 
! Gamma         0                0                0                0                
! Port Impedance         50               0                50               0                
34.2                           0.346804475268324 20.1018750701931 0.924798131632759 -68.0538636354466 0.924798131632761 -68.0538636354465 0.346791278796246 20.2277157469575 
! Gamma         0                0                0                0                
! Port Impedance         50               0                50               0                
34.3                           0.347206208734758 19.9224379027612 0.92464341583711 -68.2374155354978 0.924643415837112 -68.2374155354977 0.347192975159756 20.0487447065801 
! Gamma         0                0                0                0                
! Port Impedance         50               0                50               0                
34.4                           0.347604093998205 19.7430494867875 0.924489962184194 -68.4209119320697 0.924489962184196 -68.4209119320696 0.347590823449319 19.869823437901  
! Gamma         0                0                0                0                
! Port Impedance         50               0                50               0                
34.5                           0.347998131492923 19.5637094050443 0.924337775291187 -68.6043533448839 0.924337775291189 -68.6043533448837 0.347984824100283 19.6909515298753 
! Gamma         0                0                0                0                
! Port Impedance         50               0                50               0                
34.6                           0.348388321661721 19.3844172379743 0.924186859723985 -68.7877402953042 0.924186859723987 -68.7877402953041 0.348374977556557 19.5121285691692 
! Gamma         0                0                0                0                
! Port Impedance         50               0                50               0                
34.7                           0.34877466495559 19.2051725637211 0.924037219997246 -68.9710733063165 0.924037219997248 -68.9710733063164 0.348761284270245 19.3333541401912 
! Gamma         0                0                0                0                
! Port Impedance         50               0                50               0                
34.8                           0.349157161833338 19.0259749581586 0.923888860574425 -69.1543529025088 0.923888860574426 -69.1543529025086 0.349143744701278 19.1546278251221 
! Gamma         0                0                0                0                
! Port Impedance         50               0                50               0                
34.9                           0.349535812761227 18.8468239949217 0.92374178586781 -69.3375796100507 0.923741785867812 -69.3375796100506 0.349522359317053 18.9759492039453 
! Gamma         0                0                0                0                
! Port Impedance         50               0                50               0                
35                             0.349910618212617 18.6677192454352 0.923596000238563 -69.5207539566745 0.923596000238565 -69.5207539566744 0.349897128592076 18.7973178544772 
! Gamma         0                0                0                0                
! Port Impedance         50               0                50               0                
35.1                           0.350281578667609 18.4886602789437 0.923451507996757 -69.7038764716545 0.923451507996759 -69.7038764716544 0.350268053007606 18.6187333523964 
! Gamma         0                0                0                0                
! Port Impedance         50               0                50               0                
35.2                           0.350648694612697 18.3096466625414 0.923308313401417 -69.8869476857876 0.923308313401419 -69.8869476857875 0.350635133051306 18.4401952712744 
! Gamma         0                0                0                0                
! Port Impedance         50               0                50               0                
35.3                           0.351011966540418 18.1306779612007 0.923166420660558 -70.0699681313738 0.92316642066056 -70.0699681313737 0.350998369216892 18.2617031826046 
! Gamma         0                0                0                0                
! Port Impedance         50               0                50               0                
35.4                           0.351371394949012 17.9517537378015 0.923025833931232 -70.2529383421963 0.923025833931234 -70.2529383421962 0.351357762003798 18.083256655832  
! Gamma         0                0                0                0                
! Port Impedance         50               0                50               0                
35.5                           0.35172698034208 17.7728735531608 0.922886557319565 -70.4358588535023 0.922886557319567 -70.4358588535022 0.351713311916829 17.9048552583829 
! Gamma         0                0                0                0                
! Port Impedance         50               0                50               0                
35.6                           0.352078723228252 17.5940369660606 0.922748594880801 -70.6187302019831 0.922748594880803 -70.618730201983 0.352065019465826 17.7264985556935 
! Gamma         0                0                0                0                
! Port Impedance         50               0                50               0                
35.7                           0.35242662412085 17.4152435332774 0.922611950619345 -70.8015529257551 0.922611950619347 -70.801552925755 0.35241288516534 17.5481861112397 
! Gamma         0                0                0                0                
! Port Impedance         50               0                50               0                
35.8                           0.352770683537563 17.2364928096103 0.922476628488808 -70.9843275643403 0.92247662848881 -70.9843275643402 0.352756909534299 17.3699174865656 
! Gamma         0                0                0                0                
! Port Impedance         50               0                50               0                
35.9                           0.353110902000124 17.0577843479095 0.922342632392049 -71.1670546586472 0.922342632392051 -71.1670546586471 0.353097093095682 17.1916922413125 
! Gamma         0                0                0                0                
! Port Impedance         50               0                50               0                
36                             0.353447280033985 16.8791176991048 0.922209966181222 -71.3497347509514 0.922209966181224 -71.3497347509513 0.353433436376205 17.0135099332477 
! Gamma         0                0                0                0                
! Port Impedance         50               0                50               0                
36.1                           0.353779818168006 16.7004924122338 0.922078633657818 -71.5323683848764 0.922078633657821 -71.5323683848763 0.353765939905998 16.8353701182931 
! Gamma         0                0                0                0                
! Port Impedance         50               0                50               0                
36.2                           0.354108516934137 16.5219080344695 0.921948638572715 -71.7149561053752 0.921948638572718 -71.7149561053751 0.354094604218295 16.6572723505536 
! Gamma         0                0                0                0                
! Port Impedance         50               0                50               0                
36.3                           0.35443337686711 16.3433641111489 0.921819984626217 -71.8974984587103 0.92181998462622 -71.8974984587102 0.354419429849125 16.4792161823453 
! Gamma         0                0                0                0                
! Port Impedance         50               0                50               0                
36.4                           0.354754398504137 16.1648601858    0.921692675468107 -72.0799959924358 0.921692675468109 -72.0799959924356 0.354740417337005 16.3012011642242 
! Gamma         0                0                0                0                
! Port Impedance         50               0                50               0                
36.5                           0.355071582384603 15.9863958001702 0.921566714697687 -72.2624492553776 0.92156671469769 -72.2624492553775 0.355057567222639 16.1232268450138 
! Gamma         0                0                0                0                
! Port Impedance         50               0                50               0                
36.6                           0.355384929049774 15.8079704942533 0.92144210586383 -72.4448587976153 0.921442105863833 -72.4448587976153 0.355370880048624 15.9452927718333 
! Gamma         0                0                0                0                
! Port Impedance         50               0                50               0                
36.7                           0.355694439042497 15.6295838063174 0.921318852465024 -72.6272251704634 0.921318852465027 -72.6272251704633 0.355680356359147 15.7673984901257 
! Gamma         0                0                0                0                
! Port Impedance         50               0                50               0                
36.8                           0.356000112906916 15.4512352729316 0.921196957949418 -72.8095489264521 0.92119695794942 -72.809548926452 0.355985996699705 15.5895435436852 
! Gamma         0                0                0                0                
! Port Impedance         50               0                50               0                
36.9                           0.35630195118818 15.2729244289939 0.92107642571487 -72.9918306193093 0.921076425714872 -72.9918306193092 0.356287801616812 15.411727474685  
! Gamma         0                0                0                0                
! Port Impedance         50               0                50               0                
37                             0.356599954432164 15.0946508077578 0.920957259108995 -73.1740708039415 0.920957259108997 -73.1740708039414 0.35658577165772 15.2339498237051 
! Gamma         0                0                0                0                
! Port Impedance         50               0                50               0                
37.1                           0.356894123185191 14.9164139408591 0.92083946142921 -73.356270036416 0.920839461429213 -73.3562700364159 0.356879907370138 15.0562101297591 
! Gamma         0                0                0                0                
! Port Impedance         50               0                50               0                
37.2                           0.357184457993752 14.7382133583434 0.920723035922785 -73.5384288739419 0.920723035922787 -73.5384288739418 0.357170209301958 14.8785079303225 
! Gamma         0                0                0                0                
! Port Impedance         50               0                50               0                
37.3                           0.357470959404244 14.5600485886923 0.920607985786885 -73.7205478748516 0.920607985786888 -73.7205478748516 0.357456678000985 14.7008427613588 
! Gamma         0                0                0                0                
! Port Impedance         50               0                50               0                
37.4                           0.357753627962691 14.38191915885   0.920494314168621 -73.9026275985834 0.920494314168623 -73.9026275985833 0.357739314014669 14.5232141573478 
! Gamma         0                0                0                0                
! Port Impedance         50               0                50               0                
37.5                           0.358032464214493 14.2038245942505 0.920382024165095 -74.084668605662 0.920382024165098 -74.084668605662 0.35801811788984 14.3456216513115 
! Gamma         0                0                0                0                
! Port Impedance         50               0                50               0                
37.6                           0.358307468704156 14.025764418843  0.920271118823449 -74.2666714576814 0.920271118823452 -74.2666714576813 0.358293090172453 14.168064774842  
! Gamma         0                0                0                0                
! Port Impedance         50               0                50               0                
37.7                           0.358578641975043 13.847738155119  0.920161601140912 -74.4486367172861 0.920161601140914 -74.448636717286 0.358564231407325 13.9905430581276 
! Gamma         0                0                0                0                
! Port Impedance         50               0                50               0                
37.8                           0.35884598456912 13.6697453241383 0.920053474064843 -74.630564948153 0.920053474064845 -74.6305649481529 0.358831542137893 13.8130560299801 
! Gamma         0                0                0                0                
! Port Impedance         50               0                50               0                
37.9                           0.359109497026706 13.491785445555  0.919946740492781 -74.8124567149739 0.919946740492784 -74.8124567149738 0.359095022905955 13.635603217861  
! Gamma         0                0                0                0                
! Port Impedance         50               0                50               0                
38                             0.359369179886234 13.3138580376436 0.919841403272493 -74.9943125834369 0.919841403272495 -74.9943125834368 0.359354674251436 13.4581841479084 
! Gamma         0                0                0                0                
! Port Impedance         50               0                50               0                
38.1                           0.359625033684004 13.135962617325  0.919737465202015 -75.1761331202089 0.919737465202018 -75.1761331202088 0.35961049671214 13.2807983449633 
! Gamma         0                0                0                0                
! Port Impedance         50               0                50               0                
38.2                           0.359877058953953 12.9580987001921 0.919634929029705 -75.3579188929174 0.919634929029707 -75.3579188929173 0.359862490823518 13.103445332596  
! Gamma         0                0                0                0                
! Port Impedance         50               0                50               0                
38.3                           0.360125256227417 12.780265800536  0.919533797454281 -75.539670470133 0.919533797454283 -75.5396704701329 0.360110657118434 12.9261246331323 
! Gamma         0                0                0                0                
! Port Impedance         50               0                50               0                
38.4                           0.360369626032906 12.602463431371  0.919434073124871 -75.7213884213513 0.919434073124874 -75.7213884213512 0.360354996126936 12.74883576768   
! Gamma         0                0                0                0                
! Port Impedance         50               0                50               0                
38.5                           0.360610168895878 12.4246911044608 0.919335758641059 -75.9030733169752 0.919335758641062 -75.9030733169751 0.36059550837603 12.5715782561548 
! Gamma         0                0                0                0                
! Port Impedance         50               0                50               0                
38.6                           0.360846885338515 12.2469483303435 0.919238856552928 -76.0847257282977 0.919238856552931 -76.0847257282976 0.360832194389463 12.3943516173064 
! Gamma         0                0                0                0                
! Port Impedance         50               0                50               0                
38.7                           0.361079775879512 12.0692346183572 0.919143369361104 -76.2663462274834 0.919143369361107 -76.2663462274833 0.3610650546875  12.2171553687443 
! Gamma         0                0                0                0                
! Port Impedance         50               0                50               0                
38.8                           0.361308841033857 11.8915494766654 0.919049299516801 -76.4479353875518 0.919049299516804 -76.4479353875517 0.361294089786717 12.0399890269644 
! Gamma         0                0                0                0                
! Port Impedance         50               0                50               0                
38.9                           0.361534081312625 11.713892412282  0.918956649421866 -76.6294937823591 0.918956649421868 -76.629493782359 0.361519300199784 11.8628521073736 
! Gamma         0                0                0                0                
! Port Impedance         50               0                50               0                
39                             0.361755497222772 11.5362629310967 0.918865421428818 -76.8110219865811 0.91886542142882 -76.811021986581 0.361740686435267 11.6857441243169 
! Gamma         0                0                0                0                
! Port Impedance         50               0                50               0                
39.1                           0.361973089266934 11.3586605378997 0.918775617840896 -76.9925205756953 0.918775617840898 -76.9925205756953 0.361958248997421 11.5086645911021 
! Gamma         0                0                0                0                
! Port Impedance         50               0                50               0                
39.2                           0.362186857943227 11.181084736407  0.918687240912099 -77.1739901259643 0.918687240912102 -77.1739901259642 0.362171988385994 11.3316130200258 
! Gamma         0                0                0                0                
! Port Impedance         50               0                50               0                
39.3                           0.362396803745053 11.0035350292855 0.918600292847228 -77.3554312144172 0.918600292847231 -77.3554312144172 0.362381905096032 11.154588922399  
! Gamma         0                0                0                0                
! Port Impedance         50               0                50               0                
39.4                           0.362602927160912 10.8260109181773 0.918514775801929 -77.5368444188337 0.918514775801931 -77.5368444188336 0.362587999617692 10.9775918085724 
! Gamma         0                0                0                0                
! Port Impedance         50               0                50               0                
39.5                           0.362805228674212 10.6485119037248 0.918430691882728 -77.7182303177254 0.918430691882731 -77.7182303177254 0.362790272436049 10.8006211879621 
! Gamma         0                0                0                0                
! Port Impedance         50               0                50               0                
39.6                           0.363003708763091 10.4710374855955 0.91834804314708 -77.8995894903198 0.918348043147083 -77.8995894903198 0.362988724030921 10.6236765690746 
! Gamma         0                0                0                0                
! Port Impedance         50               0                50               0                
39.7                           0.363198367900236 10.2935871625064 0.918266831603406 -78.0809225165422 0.918266831603409 -78.0809225165421 0.363183354876685 10.4467574595323 
! Gamma         0                0                0                0                
! Port Impedance         50               0                50               0                
39.8                           0.363389206552704 10.1161604322488 0.918187059211128 -78.2622299769988 0.91818705921113 -78.2622299769987 0.363374165442103 10.2698633660988 
! Gamma         0                0                0                0                
! Port Impedance         50               0                50               0                
39.9                           0.36357622518176 9.93875679171265 0.91810872788071 -78.4435124529597 0.918108727880713 -78.4435124529596 0.363561156190155 10.0929937947039 
! Gamma         0                0                0                0                
! Port Impedance         50               0                50               0                
40                             0.363759424242702 9.76137573691115 0.918031839473702 -78.6247705263417 0.918031839473704 -78.6247705263416 0.363744327577866 9.91614825046913 
! Gamma         0                0                0                0                
! Port Impedance         50               0                50               0                
40.1                           0.3639388041847  9.58401676300494 0.917956395802768 -78.8060047796912 0.91795639580277 -78.8060047796912 0.363923680056147 9.7393262377322  
! Gamma         0                0                0                0                
! Port Impedance         50               0                50               0                
40.2                           0.364114365450641 9.40667936432663 0.917882398631728 -78.9872157961673 0.917882398631731 -78.9872157961672 0.364099214069635 9.56252726007263 
! Gamma         0                0                0                0                
! Port Impedance         50               0                50               0                
40.3                           0.364286108476964 9.22936303440498 0.917809849675598 -79.1684041595244 0.917809849675601 -79.1684041595243 0.364270930056535 9.38575082033641 
! Gamma         0                0                0                0                
! Port Impedance         50               0                50               0                
40.4                           0.364454033693519 9.05206726598916 0.917738750600616 -79.3495704540958 0.917738750600619 -79.3495704540957 0.36443882844847 9.2089964206611  
! Gamma         0                0                0                0                
! Port Impedance         50               0                50               0                
40.5                           0.36461814152341 8.87479155107289 0.917669103024285 -79.5307152647764 0.917669103024288 -79.5307152647763 0.364602909670336 9.03226356250062 
! Gamma         0                0                0                0                
! Port Impedance         50               0                50               0                
40.6                           0.364778432382857 8.69753538091859 0.917600908515406 -79.7118391770058 0.917600908515408 -79.7118391770057 0.364763174140152 8.85555174665014 
! Gamma         0                0                0                0                
! Port Impedance         50               0                50               0                
40.7                           0.364934906681053 8.52029824608147 0.917534168594107 -79.8929427767516 0.917534168594109 -79.8929427767515 0.364919622268924 8.67886047327097 
! Gamma         0                0                0                0                
! Port Impedance         50               0                50               0                
40.8                           0.36508756482003 8.34307963643348 0.91746888473188 -80.0740266504923 0.917468884731883 -80.0740266504923 0.365072254460509 8.50218924191522 
! Gamma         0                0                0                0                
! Port Impedance         50               0                50               0                
40.9                           0.365236407194521 8.16587904118737 0.917405058351616 -80.2550913852009 0.917405058351619 -80.2550913852009 0.365221071111481 8.32553755155064 
! Gamma         0                0                0                0                
! Port Impedance         50               0                50               0                
41                             0.36538143419184 7.98869594892061 0.917342690827628 -80.4361375683276 0.917342690827631 -80.4361375683275 0.365366072611001 8.14890490058526 
! Gamma         0                0                0                0                
! Port Impedance         50               0                50               0                
41.1                           0.365522646191749 7.81152984759922 0.917281783485689 -80.6171657877832 0.917281783485692 -80.6171657877832 0.365507259340697 7.97229078689214 
! Gamma         0                0                0                0                
! Port Impedance         50               0                50               0                
41.2                           0.365660043566343 7.63438022460172 0.917222337603061 -80.7981766319227 0.917222337603063 -80.7981766319227 0.365644631674538 7.7956947078339  
! Gamma         0                0                0                0                
! Port Impedance         50               0                50               0                
41.3                           0.365793626679929 7.4572465667429  0.917164354408517 -80.9791706895281 0.91716435440852 -80.979170689528 0.365778189978721 7.6191161602875  
! Gamma         0                0                0                0                
! Port Impedance         50               0                50               0                
41.4                           0.365923395888915 7.28012836029755 0.917107835082383 -81.1601485497919 0.917107835082385 -81.1601485497918 0.365907934611556 7.44255464066866 
! Gamma         0                0                0                0                
! Port Impedance         50               0                50               0                
41.5                           0.366049351541699 7.1030250910243  0.917052780756551 -81.3411108023004 0.917052780756554 -81.3411108023004 0.366033865923354 7.26600964495654 
! Gamma         0                0                0                0                
! Port Impedance         50               0                50               0                
41.6                           0.366171493978566 6.92593624418928 0.916999192514518 -81.5220580370173 0.91699919251452 -81.5220580370173 0.366155984256329 7.08948066871824 
! Gamma         0                0                0                0                
! Port Impedance         50               0                50               0                
41.7                           0.366289823531584 6.7488613045898  0.916947071391403 -81.7029908442667 0.916947071391406 -81.7029908442666 0.366274289944488 6.91296720713334 
! Gamma         0                0                0                0                
! Port Impedance         50               0                50               0                
41.8                           0.366404340524506 6.57179975657801 0.916896418373979 -81.8839098147164 0.916896418373982 -81.8839098147164 0.366388783313539 6.73646875501839 
! Gamma         0                0                0                0                
! Port Impedance         50               0                50               0                
41.9                           0.366515045272678 6.39475108408452 0.916847234400694 -82.0648155393619 0.916847234400696 -82.0648155393619 0.366499464680795 6.5599848068514  
! Gamma         0                0                0                0                
! Port Impedance         50               0                50               0                
42                             0.366621938082947 6.21771477064202 0.916799520361694 -82.2457086095093 0.916799520361696 -82.2457086095093 0.366606334355084 6.38351485679631 
! Gamma         0                0                0                0                
! Port Impedance         50               0                50               0                
42.1                           0.366725019253577 6.04069029940883 0.916753277098848 -82.4265896167589 0.916753277098851 -82.4265896167589 0.366709392636661 6.20705839872744 
! Gamma         0                0                0                0                
! Port Impedance         50               0                50               0                
42.2                           0.366824289074164 5.86367715319247 0.916708505405771 -82.6074591529886 0.916708505405774 -82.6074591529885 0.366808639817132 6.03061492625398 
! Gamma         0                0                0                0                
! Port Impedance         50               0                50               0                
42.3                           0.366919747825558 5.68667481447314 0.916665206027842 -82.7883178103375 0.916665206027844 -82.7883178103374 0.366904076179366 5.85418393274435 
! Gamma         0                0                0                0                
! Port Impedance         50               0                50               0                
42.4                           0.367011395779788 5.50968276542732 0.916623379662225 -82.9691661811892 0.916623379662228 -82.9691661811892 0.366995701997428 5.67776491135071 
! Gamma         0                0                0                0                
! Port Impedance         50               0                50               0                
42.5                           0.367099233199994 5.33270048795123 0.916583026957892 -83.1500048581557 0.916583026957894 -83.1500048581556 0.367083517536506 5.50135735503333 
! Gamma         0                0                0                0                
! Port Impedance         50               0                50               0                
42.6                           0.367183260340357 5.15572746368426 0.916544148515637 -83.3308344340601 0.916544148515639 -83.3308344340601 0.367167523052843 5.32496075658507 
! Gamma         0                0                0                0                
! Port Impedance         50               0                50               0                
42.7                           0.367263477446035 4.97876317403256 0.916506744888096 -83.5116555019212 0.916506744888098 -83.5116555019212 0.367247718793675 5.14857460865574 
! Gamma         0                0                0                0                
! Port Impedance         50               0                50               0                
42.8                           0.367339884753106 4.80180710019236 0.916470816579765 -83.6924686549361 0.916470816579768 -83.692468654936 0.367324104997168 4.97219840377654 
! Gamma         0                0                0                0                
! Port Impedance         50               0                50               0                
42.9                           0.367412482488512 4.62485872317353 0.916436364047015 -83.8732744864641 0.916436364047018 -83.8732744864641 0.367396681892372 4.79583163438453 
! Gamma         0                0                0                0                
! Port Impedance         50               0                50               0                
43                             0.367481270870006 4.44791752382294 0.916403387698106 -84.0540735900105 0.916403387698109 -84.0540735900104 0.367465449699157 4.61947379284701 
! Gamma         0                0                0                0                
! Port Impedance         50               0                50               0                
43.1                           0.367546250106105 4.27098298284798 0.916371887893204 -84.2348665592097 0.916371887893206 -84.2348665592097 0.367530408628175 4.44312437148594 
! Gamma         0                0                0                0                
! Port Impedance         50               0                50               0                
43.2                           0.367607420396047 4.09405458083992 0.916341864944392 -84.4156539878091 0.916341864944394 -84.4156539878091 0.367591558880812 4.26678286260248 
! Gamma         0                0                0                0                
! Port Impedance         50               0                50               0                
43.3                           0.367664781929748 3.91713179829734 0.916313319115684 -84.5964364696525 0.916313319115686 -84.5964364696525 0.367648900649148 4.09044875850132 
! Gamma         0                0                0                0                
! Port Impedance         50               0                50               0                
43.4                           0.36771833488777 3.74021411564965 0.916286250623037 -84.7772145986637 0.91628625062304 -84.7772145986637 0.367702434115922 3.91412155151527 
! Gamma         0                0                0                0                
! Port Impedance         50               0                50               0                
43.5                           0.367768079441283 3.5633010132804  0.916260659634362 -84.9579889688303 0.916260659634364 -84.9579889688302 0.367752159454498 3.73780073402963 
! Gamma         0                0                0                0                
! Port Impedance         50               0                50               0                
43.6                           0.367814015752041 3.38639197155084 0.916236546269531 -85.1387601741867 0.916236546269533 -85.1387601741866 0.367798076828839 3.5614857985068  
! Gamma         0                0                0                0                
! Port Impedance         50               0                50               0                
43.7                           0.367856143972354 3.20948647082324 0.916213910600391 -85.3195288087983 0.916213910600394 -85.3195288087983 0.367840186393479 3.38517623751073 
! Gamma         0                0                0                0                
! Port Impedance         50               0                50               0                
43.8                           0.36789446424507 3.03258399148442 0.916192752650769 -85.500295466745 0.916192752650772 -85.500295466745 0.367878488293505 3.20887154373147 
! Gamma         0                0                0                0                
! Port Impedance         50               0                50               0                
43.9                           0.367928976703557 2.85568401396919 0.91617307239648 -85.6810607421045 0.916173072396483 -85.6810607421044 0.367912982664539 3.03257121000978 
! Gamma         0                0                0                0                
! Port Impedance         50               0                50               0                
44                             0.367959681471686 2.67878601878381 0.916154869765335 -85.8618252289359 0.916154869765337 -85.8618252289359 0.367943669632725 2.85627472936165 
! Gamma         0                0                0                0                
! Port Impedance         50               0                50               0                
44.1                           0.367986578663827 2.50188948652948 0.916138144637141 -86.0425895212636 0.916138144637144 -86.0425895212636 0.367970549314718 2.67998159500299 
! Gamma         0                0                0                0                
! Port Impedance         50               0                50               0                
44.2                           0.36800966838484 2.3249938979258  0.916122896843717 -86.2233542130608 0.916122896843719 -86.2233542130607 0.367993621817682 2.50369130037418 
! Gamma         0                0                0                0                
! Port Impedance         50               0                50               0                
44.3                           0.368028950730075 2.14809873383436 0.916109126168884 -86.4041198982326 0.916109126168886 -86.4041198982326 0.368012887239286 2.32740333916487 
! Gamma         0                0                0                0                
! Port Impedance         50               0                50               0                
44.4                           0.368044425785371 1.9712034752822  0.91609683234848 -86.5848871706004 0.916096832348482 -86.5848871706004 0.368028345667705 2.15111720533862 
! Gamma         0                0                0                0                
! Port Impedance         50               0                50               0                
44.5                           0.368056093627067 1.79430760348541 0.916086015070354 -86.7656566238847 0.916086015070356 -86.7656566238847 0.36803999718163 1.97483239315764 
! Gamma         0                0                0                0                
! Port Impedance         50               0                50               0                
44.6                           0.368063954322007 1.61741059987268 0.916076673974373 -86.9464288516892 0.916076673974375 -86.9464288516891 0.368047841850273 1.79854839720761 
! Gamma         0                0                0                0                
! Port Impedance         50               0                50               0                
44.7                           0.368068007927554 1.44051194610889 0.916068808652416 -87.1272044474841 0.916068808652419 -87.127204447484 0.368051879733387 1.62226471242247 
! Gamma         0                0                0                0                
! Port Impedance         50               0                50               0                
44.8                           0.368068254491613 1.26361112411878 0.916062418648382 -87.3079840045896 0.916062418648384 -87.3079840045896 0.368052110881277 1.44598083410936 
! Gamma         0                0                0                0                
! Port Impedance         50               0                50               0                
44.9                           0.368064694052645 1.08670761611057 0.916057503458182 -87.4887681161599 0.916057503458184 -87.4887681161599 0.368048535334826 1.26969625797342 
! Gamma         0                0                0                0                
! Port Impedance         50               0                50               0                
45                             0.368057326639694 0.909800904599633 0.916054062529736 -87.669557375166 0.916054062529738 -87.669557375166 0.368041153125517 1.09341048014286 
! Gamma         0                0                0                0                
! Port Impedance         50               0                50               0                
45.1                           0.368046152272419 0.732890472432261 0.916052095262977 -87.8503523743799 0.91605209526298 -87.8503523743799 0.368029964275464 0.917122997193914 
! Gamma         0                0                0                0                
! Port Impedance         50               0                50               0                
45.2                           0.368031170961126 0.555975802809341 0.916051601009843 -88.0311537063577 0.916051601009845 -88.0311537063577 0.368014968797448 0.740833306175868 
! Gamma         0                0                0                0                
! Port Impedance         50               0                50               0                
45.3                           0.3680123827068  0.379056379310231 0.916052579074268 -88.2119619634233 0.91605257907427 -88.2119619634233 0.367996166694946 0.564540904636255 
! Gamma         0                0                0                0                
! Port Impedance         50               0                50               0                
45.4                           0.367989787501151 0.202131685916516 0.916055028712185 -88.392777737652 0.916055028712187 -88.3927777376519 0.367973557962179 0.388245290645964 
! Gamma         0                0                0                0                
! Port Impedance         50               0                50               0                
45.5                           0.367963385326655 0.0252012070359035 0.916058949131514 -88.5736016208534 0.916058949131517 -88.5736016208534 0.367947142584154 0.21194596282449 
! Gamma         0                0                0                0                
! Port Impedance         50               0                50               0                
45.6                           0.367933176156605 -0.151735572473878 0.916064339492157 -88.7544342045559 0.916064339492159 -88.7544342045558 0.367916920536709 0.0356424203651936 
! Gamma         0                0                0                0                
! Port Impedance         50               0                50               0                
45.7                           0.367899159955159 -0.328679167281117 0.916071198905987 -88.9352760799889 0.916071198905989 -88.9352760799889 0.367882891786571 -0.140665836939312 
! Gamma         0                0                0                0                
! Port Impedance         50               0                50               0                
45.8                           0.367861336677399 -0.505630091556144 0.916079526436845 -89.1161278380674 0.916079526436847 -89.1161278380674 0.367845056291408 -0.316979308671779 
! Gamma         0                0                0                0                
! Port Impedance         50               0                50               0                
45.9                           0.36781970626939 -0.68258885894727 0.916089321100524 -89.2969900693748 0.916089321100526 -89.2969900693747 0.367803413999891 -0.493298493764834 
! Gamma         0                0                0                0                
! Port Impedance         50               0                50               0                
46                             0.367774268668241 -0.859555982556681 0.916100581864763 -89.477863364146 0.916100581864765 -89.477863364146 0.367757964851757 -0.669623890475411 
! Gamma         0                0                0                0                
! Port Impedance         50               0                50               0                
46.1                           0.367725023802176 -1.03653197491635 0.916113307649234 -89.6587483122518 0.916113307649236 -89.6587483122518 0.367708708777873 -0.845955996359195 
! Gamma         0                0                0                0                
! Port Impedance         50               0                50               0                
46.2                           0.367671971590604 -1.21351734796372 0.91612749732553 -89.8396455031813 0.916127497325532 -89.8396455031813 0.367655645700316 -1.02229530824483 
! Gamma         0                0                0                0                
! Port Impedance         50               0                50               0                
46.3                           0.367615111944192 -1.39051261301759 0.916143149717153 -90.0205555260258 0.916143149717155 -90.0205555260258 0.367598775532439 -1.19864232220823 
! Gamma         0                0                0                0                
! Port Impedance         50               0                50               0                
46.4                           0.367554444764947 -1.56751828075366 0.916160263599501 -90.2014789694616 0.916160263599503 -90.2014789694616 0.367538098178954 -1.37499753354668 
! Gamma         0                0                0                0                
! Port Impedance         50               0                50               0                
46.5                           0.367489969946295 -1.74453486118027 0.916178837699851 -90.3824164217342 0.916178837699853 -90.3824164217342 0.367473613536018 -1.55136143675294 
! Gamma         0                0                0                0                
! Port Impedance         50               0                50               0                
46.6                           0.367421687373171 -1.9215628636139 0.916198870697348 -90.5633684706405 0.91619887069735 -90.5633684706405 0.367405321491315 -1.7277345254892 
! Gamma         0                0                0                0                
! Port Impedance         50               0                50               0                
46.7                           0.367349596922107 -2.09860279665468 0.916220361222987 -90.744335703513 0.916220361222989 -90.744335703513 0.367333221924147 -1.90411729256101 
! Gamma         0                0                0                0                
! Port Impedance         50               0                50               0                
46.8                           0.367273698461327 -2.2756551681618 0.916243307859595 -90.9253187072025 0.916243307859597 -90.9253187072024 0.367257314705532 -2.08051022989106 
! Gamma         0                0                0                0                
! Port Impedance         50               0                50               0                
46.9                           0.367193991850847 -2.45272048522893 0.916267709141818 -91.1063180680613 0.916267709141819 -91.1063180680613 0.367177599698299 -2.25691382849292 
! Gamma         0                0                0                0                
! Port Impedance         50               0                50               0                
47                             0.367110476942573 -2.62979925415943 0.916293563556098 -91.2873343719268 0.9162935635561  -91.2873343719268 0.367094076757192 -2.43332857844468 
! Gamma         0                0                0                0                
! Port Impedance         50               0                50               0                
47.1                           0.367023153580408 -2.80689198044166 0.916320869540662 -91.4683682041044 0.916320869540663 -91.4683682041044 0.367006745728975 -2.60975496886246 
! Gamma         0                0                0                0                
! Port Impedance         50               0                50               0                
47.2                           0.366932021600365 -2.98399916872404 0.916349625485493 -91.6494201493506 0.916349625485495 -91.6494201493506 0.366915606452542 -2.78619348787384 
! Gamma         0                0                0                0                
! Port Impedance         50               0                50               0                
47.3                           0.366837080830675 -3.16112132279015 0.916379829732319 -91.8304907918562 0.916379829732321 -91.8304907918562 0.366820658759031 -2.96264462259121 
! Gamma         0                0                0                0                
! Port Impedance         50               0                50               0                
47.4                           0.366738331091909 -3.33825894553374 0.916411480574587 -92.0115807152294 0.916411480574588 -92.0115807152294 0.366721902471941 -3.13910885908498 
! Gamma         0                0                0                0                
! Port Impedance         50               0                50               0                
47.5                           0.366635772197096 -3.51541253893358 0.916444576257443 -92.1926905024787 0.916444576257445 -92.1926905024787 0.366619337407256 -3.31558668235673 
! Gamma         0                0                0                0                
! Port Impedance         50               0                50               0                
47.6                           0.366529403951849 -3.69258260402831 0.916479114977711 -92.3738207359963 0.916479114977713 -92.3738207359963 0.366512963373564 -3.49207857631221 
! Gamma         0                0                0                0                
! Port Impedance         50               0                50               0                
47.7                           0.366419226154494 -3.86976964089119 0.916515094883873 -92.5549719975406 0.916515094883875 -92.5549719975406 0.366402780172195 -3.6685850237342 
! Gamma         0                0                0                0                
! Port Impedance         50               0                50               0                
47.8                           0.366305238596203 -4.04697414860472 0.916552514076039 -92.7361448682197 0.916552514076041 -92.7361448682197 0.366288787597346 -3.84510650625539 
! Gamma         0                0                0                0                
! Port Impedance         50               0                50               0                
47.9                           0.366187441061129 -4.2241966252352 0.916591370605931 -92.917339928474 0.916591370605933 -92.917339928474 0.366170985436222 -4.02164350433097 
! Gamma         0                0                0                0                
! Port Impedance         50               0                50               0                
48                             0.366065833326548 -4.40143756780719 0.916631662476854 -93.0985577580591 0.916631662476855 -93.0985577580591 0.366049373469174 -4.19819649721123 
! Gamma         0                0                0                0                
! Port Impedance         50               0                50               0                
48.1                           0.365940415163001 -4.57869747227789 0.916673387643672 -93.2797989360288 0.916673387643674 -93.2797989360288 0.365923951469849 -4.37476596291397 
! Gamma         0                0                0                0                
! Port Impedance         50               0                50               0                
48.2                           0.365811186334446 -4.75597683351138 0.916716544012786 -93.461064040718 0.916716544012788 -93.461064040718 0.365794719205331 -4.5513523781968 
! Gamma         0                0                0                0                
! Port Impedance         50               0                50               0                
48.3                           0.365678146598404 -4.93327614525284 0.916761129442104 -93.6423536497254 0.916761129442105 -93.6423536497254 0.365661676436297 -4.72795621852934 
! Gamma         0                0                0                0                
! Port Impedance         50               0                50               0                
48.4                           0.365541295706121 -5.11059590010253 0.916807141741015 -93.8236683398963 0.916807141741016 -93.8236683398963 0.365524822917175 -4.90457795806525 
! Gamma         0                0                0                0                
! Port Impedance         50               0                50               0                
48.5                           0.365400633402722 -5.28793658948987 0.916854578670366 -94.0050086873053 0.916854578670367 -94.0050086873053 0.365384158396299 -5.08121806961415 
! Gamma         0                0                0                0                
! Port Impedance         50               0                50               0                
48.6                           0.36525615942738 -5.46529870364716 0.916903437942431 -94.1863752672392 0.916903437942433 -94.1863752672391 0.365239682616076 -5.2578770246134 
! Gamma         0                0                0                0                
! Port Impedance         50               0                50               0                
48.7                           0.365107873513477 -5.64268273158345 0.916953717220885 -94.3677686541792 0.916953717220886 -94.3677686541792 0.365091395313155 -5.43455529309972 
! Gamma         0                0                0                0                
! Port Impedance         50               0                50               0                
48.8                           0.364955775388781 -5.82008916105809 0.917005414120774 -94.5491894217844 0.917005414120775 -94.5491894217844 0.364939296218595 -5.61125334368074 
! Gamma         0                0                0                0                
! Port Impedance         50               0                50               0                
48.9                           0.364799864775616 -5.99751847855426 0.917058526208489 -94.7306381428735 0.91705852620849 -94.7306381428735 0.364783385058041 -5.78797164350627 
! Gamma         0                0                0                0                
! Port Impedance         50               0                50               0                
49                             0.364640141391044 -6.17497116925243 0.917113051001733 -94.9121153894077 0.917113051001734 -94.9121153894077 0.364623661551906 -5.9647106582396 
! Gamma         0                0                0                0                
! Port Impedance         50               0                50               0                
49.1                           0.364476604947046 -6.35244771700357 0.917168985969497 -95.0936217324736 0.917168985969499 -95.0936217324736 0.364460125415549 -6.14147085202846 
! Gamma         0                0                0                0                
! Port Impedance         50               0                50               0                
49.2                           0.364309255150712 -6.52994860430234 0.917226328532026 -95.2751577422649 0.917226328532027 -95.2751577422649 0.364292776359467 -6.31825268747597 
! Gamma         0                0                0                0                
! Port Impedance         50               0                50               0                
49.3                           0.364138091704424 -6.70747431226014 0.917285076060789 -95.4567239880656 0.91728507606079 -95.4567239880656 0.364121614089485 -6.49505662561138 
! Gamma         0                0                0                0                
! Port Impedance         50               0                50               0                
49.4                           0.363963114306058 -6.88502532057799 0.917345225878449 -95.6383210382321 0.91734522587845 -95.6383210382321 0.363946638306946 -6.67188312586065 
! Gamma         0                0                0                0                
! Port Impedance         50               0                50               0                
49.5                           0.363784322649177 -7.06260210751934 0.917406775258835 -95.8199494601754 0.917406775258836 -95.8199494601754 0.363767848708913 -6.84873264601685 
! Gamma         0                0                0                0                
! Port Impedance         50               0                50               0                
49.6                           0.363601716423235 -7.24020514988268 0.917469721426906 -96.0016098203437 0.917469721426907 -96.0016098203437 0.363585244988373 -7.02560564221043 
! Gamma         0                0                0                0                
! Port Impedance         50               0                50               0                
49.7                           0.363415295313782 -7.4178349229741 0.917534061558724 -96.1833026842045 0.917534061558724 -96.1833026842045 0.363398826834439 -7.20250256887929 
! Gamma         0                0                0                0                
! Port Impedance         50               0                50               0                
49.8                           0.363225059002673 -7.59549190057962 0.917599792781416 -96.365028616227 0.917599792781417 -96.365028616227 0.363208593932562 -7.37942387873869 
! Gamma         0                0                0                0                
! Port Impedance         50               0                50               0                
49.9                           0.363031007168284 -7.77317655493746 0.917666912173152 -96.5467881798643 0.917666912173153 -96.5467881798643 0.363014545964745 -7.55637002275101 
! Gamma         0                0                0                0                
! Port Impedance         50               0                50               0                
50                             0.362833139485725 -7.95088935671011 0.917735416763102 -96.7285819375353 0.917735416763103 -96.7285819375352 0.362816682609762 -7.73334145009526 
! Gamma         0                0                0                0                
! Port Impedance         50               0                50               0                
50.1                           0.362631455627064 -8.12863077495628 0.917805303531411 -96.910410450607 0.917805303531412 -96.9104104506069 0.362615003543374 -7.91033860813645 
! Gamma         0                0                0                0                
! Port Impedance         50               0                50               0                
50.2                           0.362425955261554 -8.30640127710271 0.917876569409165 -97.0922742793767 0.917876569409165 -97.0922742793767 0.362409508438562 -8.08736194239483 
! Gamma         0                0                0                0                
! Port Impedance         50               0                50               0                
50.3                           0.362216638055853 -8.48420132891579 0.917949211278354 -97.2741739830539 0.917949211278355 -97.2741739830538 0.36220019696575 -8.2644118965148 
! Gamma         0                0                0                0                
! Port Impedance         50               0                50               0                
50.4                           0.362003503674269 -8.66203139447308 0.918023225971846 -97.4561101197421 0.918023225971846 -97.4561101197421 0.361987068793041 -8.4414889122338 
! Gamma         0                0                0                0                
! Port Impedance         50               0                50               0                
50.5                           0.361786551778986 -8.83989193613464 0.918098610273347 -97.6380832464211 0.918098610273348 -97.6380832464211 0.361770123586454 -8.6185934293508 
! Gamma         0                0                0                0                
! Port Impedance         50               0                50               0                
50.6                           0.361565782030309 -9.01778341451419 0.918175360917376 -97.8200939189287 0.918175360917377 -97.8200939189287 0.361549361010163 -8.79572588569481 
! Gamma         0                0                0                0                
! Port Impedance         50               0                50               0                
50.7                           0.361341194086907 -9.19570628845016 0.918253474589223 -98.0021426919424 0.918253474589224 -98.0021426919424 0.361324780726743 -8.97288671709303 
! Gamma         0                0                0                0                
! Port Impedance         50               0                50               0                
50.8                           0.361112787606062 -9.37366101497645 0.918332947924923 -98.1842301189616 0.918332947924924 -98.1842301189616 0.361096382397418 -9.15007635733881 
! Gamma         0                0                0                0                
! Port Impedance         50               0                50               0                
50.9                           0.360880562243919 -9.55164804929325 0.918413777511219 -98.3663567522889 0.91841377751122 -98.3663567522889 0.360864165682313 -9.32729523815948 
! Gamma         0                0                0                0                
! Port Impedance         50               0                50               0                
51                             0.360644517655744 -9.72966784473739 0.918495959885529 -98.5485231430121 0.91849595988553 -98.5485231430121 0.360628130240709 -9.50454378918387 
! Gamma         0                0                0                0                
! Port Impedance         50               0                50               0                
51.1                           0.360404653496179 -9.90772085275282 0.918579491535916 -98.730729840986 0.918579491535916 -98.7307298409859 0.360388275731306 -9.68182243790968 
! Gamma         0                0                0                0                
! Port Impedance         50               0                50               0                
51.2                           0.360160969419509 -10.0858075228606 0.918664368901049 -98.9129773948133 0.918664368901049 -98.9129773948133 0.360144601812485 -9.85913160967057 
! Gamma         0                0                0                0                
! Port Impedance         50               0                50               0                
51.3                           0.359913465079931 -10.2639283026291 0.918750588370178 -99.0952663518272 0.918750588370178 -99.0952663518272 0.359897108142572 -10.0364717276031 
! Gamma         0                0                0                0                
! Port Impedance         50               0                50               0                
51.4                           0.359662140131817 -10.4420836376434 0.918838146283093 -99.2775972580722 0.918838146283093 -99.2775972580722 0.359645794380117 -10.2138432126133 
! Gamma         0                0                0                0                
! Port Impedance         50               0                50               0                
51.5                           0.359406994229996 -10.6202739714755 0.918927038930095 -99.4599706582856 0.918927038930096 -99.4599706582856 0.359390660184162 -10.3912464833431 
! Gamma         0                0                0                0                
! Port Impedance         50               0                50               0                
51.6                           0.359148027030031 -10.798499745653 0.919017262551968 -99.6423870958793 0.919017262551968 -99.6423870958793 0.359131705214524 -10.5686819561367 
! Gamma         0                0                0                0                
! Port Impedance         50               0                50               0                
51.7                           0.358885238188497 -10.9767613996289 0.919108813339935 -99.8248471129208 0.919108813339936 -99.8248471129208 0.358868929132077 -10.7461500450064 
! Gamma         0                0                0                0                
! Port Impedance         50               0                50               0                
51.8                           0.358618627363273 -11.1550593707504 0.919201687435638 -100.007351250115 0.919201687435638 -100.007351250115 0.358602331599037 -10.9236511615979 
! Gamma         0                0                0                0                
! Port Impedance         50               0                50               0                
51.9                           0.358348194213829 -11.3333940942277 0.919295880931098 -100.189900046784 0.919295880931098 -100.189900046784 0.358331912279254 -11.1011857151566 
! Gamma         0                0                0                0                
! Port Impedance         50               0                50               0                
52                             0.358073938401518 -11.5117660031025 0.919391389868685 -100.372494040852 0.919391389868686 -100.372494040852 0.358057670838508 -11.2787541124919 
! Gamma         0                0                0                0                
! Port Impedance         50               0                50               0                
52.1                           0.357795859589877 -11.6901755282166 0.91948821024109 -100.555133768821 0.919488210241091 -100.555133768821 0.357779606944803 -11.4563567579427 
! Gamma         0                0                0                0                
! Port Impedance         50               0                50               0                
52.2                           0.357513957444925 -11.8686230981802 0.91958633799129 -100.737819765757 0.919586337991291 -100.737819765757 0.357497720268672 -11.6339940533417 
! Gamma         0                0                0                0                
! Port Impedance         50               0                50               0                
52.3                           0.357228231635472 -12.0471091393393 0.919685769012519 -100.920552565267 0.91968576901252 -100.920552565267 0.357212010483482 -11.8116663979801 
! Gamma         0                0                0                0                
! Port Impedance         50               0                50               0                
52.4                           0.356938681833422 -12.2256340757444 0.919786499148236 -101.103332699484 0.919786499148236 -101.103332699484 0.35692247726574 -11.9893741885715 
! Gamma         0                0                0                0                
! Port Impedance         50               0                50               0                
52.5                           0.356645307714092 -12.4041983291169 0.919888524192096 -101.286160699046 0.919888524192097 -101.286160699046 0.356629120295414 -12.1671178192156 
! Gamma         0                0                0                0                
! Port Impedance         50               0                50               0                
52.6                           0.356348108956525 -12.5828023188175 0.919991839887923 -101.469037093074 0.919991839887923 -101.469037093074 0.356331939256242 -12.344897681362 
! Gamma         0                0                0                0                
! Port Impedance         50               0                50               0                
52.7                           0.356047085243808 -12.7614464618124 0.920096441929675 -101.651962409159 0.920096441929676 -101.651962409159 0.356030933836057 -12.5227141637737 
! Gamma         0                0                0                0                
! Port Impedance         50               0                50               0                
52.8                           0.355742236263402 -12.9401311726409 0.920202325961423 -101.834937173338 0.920202325961423 -101.834937173338 0.35572610372711 -12.7005676524891 
! Gamma         0                0                0                0                
! Port Impedance         50               0                50               0                
52.9                           0.355433561707464 -13.1188568633811 0.920309487577314 -102.017961910077 0.920309487577314 -102.017961910077 0.3554174486264  -12.8784585307859 
! Gamma         0                0                0                0                
! Port Impedance         50               0                50               0                
53                             0.35512106127318 -13.2976239436173 0.920417922321552 -102.20103714225 0.920417922321552 -102.20103714225 0.355104968236005 -13.0563871791424 
! Gamma         0                0                0                0                
! Port Impedance         50               0                50               0                
53.1                           0.354804734663103 -13.4764328204053 0.920527625688366 -102.384163391122 0.920527625688366 -102.384163391122 0.354788662263417 -13.2343539752002 
! Gamma         0                0                0                0                
! Port Impedance         50               0                50               0                
53.2                           0.354484581585489 -13.6552838982387 0.920638593121984 -102.567341176328 0.920638593121984 -102.567341176328 0.354468530421884 -13.4123592937256 
! Gamma         0                0                0                0                
! Port Impedance         50               0                50               0                
53.3                           0.354160601754638 -13.8341775790144 0.92075082001661 -102.750571015853 0.92075082001661 -102.750571015853 0.354144572430749 -13.5904035065711 
! Gamma         0                0                0                0                
! Port Impedance         50               0                50               0                
53.4                           0.353832794891246 -14.0131142619977 0.920864301716397 -102.933853426014 0.920864301716397 -102.933853426014 0.353816788015804 -13.7684869826366 
! Gamma         0                0                0                0                
! Port Impedance         50               0                50               0                
53.5                           0.35350116072275 -14.1920943437879 0.920979033515421 -103.117188921441 0.920979033515421 -103.117188921441 0.353485176909632 -13.94661008783  
! Gamma         0                0                0                0                
! Port Impedance         50               0                50               0                
53.6                           0.353165698983683 -14.3711182182828 0.921095010657662 -103.300578015055 0.921095010657662 -103.300578015055 0.353149738851971 -14.1247731850275 
! Gamma         0                0                0                0                
! Port Impedance         50               0                50               0                
53.7                           0.352826409416034 -14.550186276643 0.921212228336977 -103.484021218049 0.921212228336977 -103.484021218049 0.352810473590064 -14.302976634034 
! Gamma         0                0                0                0                
! Port Impedance         50               0                50               0                
53.8                           0.352483291769605 -14.7292989072569 0.921330681697081 -103.667519039872 0.921330681697081 -103.667519039872 0.352467380879026 -14.4812207915424 
! Gamma         0                0                0                0                
! Port Impedance         50               0                50               0                
53.9                           0.352136345802381 -14.908456495704 0.921450365831523 -103.851071988202 0.921450365831523 -103.851071988202 0.352120460482208 -14.6595060110933 
! Gamma         0                0                0                0                
! Port Impedance         50               0                50               0                
54                             0.351785571280893 -15.0876594247188 0.92157127578367 -104.034680568935 0.921571275783669 -104.034680568935 0.351769712171567 -14.837832643034 
! Gamma         0                0                0                0                
! Port Impedance         50               0                50               0                
54.1                           0.351430967980596 -15.2669080741544 0.921693406546681 -104.218345286157 0.921693406546681 -104.218345286157 0.351415135728038 -15.0162010344768 
! Gamma         0                0                0                0                
! Port Impedance         50               0                50               0                
54.2                           0.35107253568624 -15.4462028209454 0.921816753063496 -104.402066642129 0.921816753063496 -104.402066642129 0.35105673094191 -15.1946115292573 
! Gamma         0                0                0                0                
! Port Impedance         50               0                50               0                
54.3                           0.350710274192251 -15.6255440390709 0.921941310226814 -104.585845137266 0.921941310226814 -104.585845137266 0.350694497613211 -15.3730644678928 
! Gamma         0                0                0                0                
! Port Impedance         50               0                50               0                
54.4                           0.350344183303118 -15.8049320995168 0.922067072879078 -104.769681270117 0.922067072879078 -104.769681270117 0.350328435552086 -15.5515601875392 
! Gamma         0                0                0                0                
! Port Impedance         50               0                50               0                
54.5                           0.349974262833773 -15.9843673702382 0.922194035812459 -104.953575537344 0.922194035812458 -104.953575537344 0.349958544579187 -15.7300990219482 
! Gamma         0                0                0                0                
! Port Impedance         50               0                50               0                
54.6                           0.349600512609989 -16.163850216121 0.922322193768841 -105.137528433703 0.922322193768841 -105.137528433703 0.349584824526068 -15.908681301424 
! Gamma         0                0                0                0                
! Port Impedance         50               0                50               0                
54.7                           0.349222932468767 -16.3433809989438 0.922451541439812 -105.321540452023 0.922451541439811 -105.321540452023 0.349207275235573 -16.08730735278  
! Gamma         0                0                0                0                
! Port Impedance         50               0                50               0                
54.8                           0.348841522258739 -16.5229600773391 0.922582073466646 -105.505612083189 0.922582073466645 -105.505612083189 0.348825896562241 -16.2659774992939 
! Gamma         0                0                0                0                
! Port Impedance         50               0                50               0                
54.9                           0.348456281840567 -16.7025878067537 0.922713784440296 -105.689743816114 0.922713784440296 -105.689743816114 0.348440688372705 -16.4446920606637 
! Gamma         0                0                0                0                
! Port Impedance         50               0                50               0                
55                             0.348067211087349 -16.8822645394099 0.922846668901386 -105.873936137729 0.922846668901385 -105.873936137729 0.348051650546097 -16.6234513529626 
! Gamma         0                0                0                0                
! Port Impedance         50               0                50               0                
55.1                           0.347674309885026 -17.0619906242652 0.922980721340195 -106.058189532954 0.922980721340195 -106.058189532954 0.347658782974461 -16.8022556885932 
! Gamma         0                0                0                0                
! Port Impedance         50               0                50               0                
55.2                           0.347277578132795 -17.2417664069728 0.923115936196661 -106.242504484682 0.92311593619666 -106.242504484682 0.347262085563162 -16.9811053762422 
! Gamma         0                0                0                0                
! Port Impedance         50               0                50               0                
55.3                           0.346877015743524 -17.4215922298403 0.923252307860364 -106.426881473759 0.923252307860363 -106.426881473759 0.346861558231303 -17.1600007208337 
! Gamma         0                0                0                0                
! Port Impedance         50               0                50               0                
55.4                           0.346472622644174 -17.6014684317893 0.923389830670531 -106.61132097896 0.923389830670531 -106.61132097896 0.34645720091215 -17.3389420234824 
! Gamma         0                0                0                0                
! Port Impedance         50               0                50               0                
55.5                           0.346064398776216 -17.7813953483143 0.923528498916028 -106.795823476972 0.923528498916028 -106.795823476972 0.346049013553549 -17.5179295814464 
! Gamma         0                0                0                0                
! Port Impedance         50               0                50               0                
55.6                           0.345652344096061 -17.9613733114408 0.923668306835359 -106.980389442372 0.923668306835358 -106.980389442372 0.345636996118357 -17.6969636880794 
! Gamma         0                0                0                0                
! Port Impedance         50               0                50               0                
55.7                           0.345236458575493 -18.1414026496833 0.923809248616667 -107.165019347605 0.923809248616667 -107.165019347605 0.345221148584871 -17.8760446327827 
! Gamma         0                0                0                0                
! Port Impedance         50               0                50               0                
55.8                           0.344816742202092 -18.3214836880033 0.923951318397737 -107.349713662966 0.923951318397736 -107.349713662966 0.344801470947264 -18.055172700956 
! Gamma         0                0                0                0                
! Port Impedance         50               0                50               0                
55.9                           0.344393194979681 -18.501616747766 0.924094510265994 -107.534472856579 0.924094510265994 -107.534472856579 0.344377963216019 -18.2343481739487 
! Gamma         0                0                0                0                
! Port Impedance         50               0                50               0                
56                             0.343965816928761 -18.6818021466974 0.924238818258515 -107.719297394373 0.924238818258514 -107.719297394373 0.343950625418376 -18.4135713290094 
! Gamma         0                0                0                0                
! Port Impedance         50               0                50               0                
56.1                           0.343534608086955 -18.862040198841 0.924384236362028 -107.904187740064 0.924384236362027 -107.904187740064 0.343519457598769 -18.5928424392367 
! Gamma         0                0                0                0                
! Port Impedance         50               0                50               0                
56.2                           0.343099568509454 -19.0423312145132 0.924530758512925 -108.089144355136 0.924530758512924 -108.089144355136 0.34308445981928 -18.7721617735271 
! Gamma         0                0                0                0                
! Port Impedance         50               0                50               0                
56.3                           0.34266069826947 -19.2226755002592 0.92467837859727 -108.274167698814 0.924678378597269 -108.274167698814 0.34264563216009 -18.9515295965249 
! Gamma         0                0                0                0                
! Port Impedance         50               0                50               0                
56.4                           0.342217997458688 -19.4030733588083 0.924827090450811 -108.459258228049 0.924827090450811 -108.459258228049 0.342202974719929 -19.1309461685691 
! Gamma         0                0                0                0                
! Port Impedance         50               0                50               0                
56.5                           0.341771466187722 -19.5835250890281 0.924976887858993 -108.644416397495 0.924976887858993 -108.644416397495 0.341756487616538 -19.3104117456419 
! Gamma         0                0                0                0                
! Port Impedance         50               0                50               0                
56.6                           0.341321104586579 -19.7640309858792 0.925127764556973 -108.829642659486 0.925127764556972 -108.829642659486 0.34130617098713 -19.4899265793149 
! Gamma         0                0                0                0                
! Port Impedance         50               0                50               0                
56.7                           0.340866912805116 -19.944591340369 0.925279714229636 -109.01493746402 0.925279714229635 -109.01493746402 0.340852024988856 -19.6694909166961 
! Gamma         0                0                0                0                
! Port Impedance         50               0                50               0                
56.8                           0.340408891013517 -20.1252064395045 0.925432730511616 -109.20030125873 0.925432730511615 -109.20030125873 0.34039404979927 -19.8491050003751 
! Gamma         0                0                0                0                
! Port Impedance         50               0                50               0                
56.9                           0.339947039402752 -20.3058765662458 0.925586806987317 -109.385734488872 0.925586806987316 -109.385734488872 0.339932245616801 -20.0287690683685 
! Gamma         0                0                0                0                
! Port Impedance         50               0                50               0                
57                             0.339481358185059 -20.486601999458 0.925741937190934 -109.571237597296 0.925741937190933 -109.571237597296 0.339466612661234 -20.2084833540645 
! Gamma         0                0                0                0                
! Port Impedance         50               0                50               0                
57.1                           0.339011847594419 -20.6673830138635 0.925898114606477 -109.75681102443 0.925898114606476 -109.75681102443 0.338997151174177 -20.3882480861664 
! Gamma         0                0                0                0                
! Port Impedance         50               0                50               0                
57.2                           0.338538507887032 -20.8482198799927 0.926055332667804 -109.942455208256 0.926055332667803 -109.942455208256 0.338523861419554 -20.5680634886367 
! Gamma         0                0                0                0                
! Port Impedance         50               0                50               0                
57.3                           0.338061339341806 -21.0291128641358 0.926213584758642 -110.128170584289 0.926213584758641 -110.128170584289 0.338046743684079 -20.7479297806386 
! Gamma         0                0                0                0                
! Port Impedance         50               0                50               0                
57.4                           0.33758034226084 -21.2100622282924 0.926372864212625 -110.313957585558 0.926372864212624 -110.313957585558 0.337565798277754 -20.9278471764787 
! Gamma         0                0                0                0                
! Port Impedance         50               0                50               0                
57.5                           0.337095516969914 -21.3910682301214 0.926533164313322 -110.49981664258 0.926533164313321 -110.49981664258 0.337081025534349 -21.1078158855479 
! Gamma         0                0                0                0                
! Port Impedance         50               0                50               0                
57.6                           0.336606863818983 -21.5721311228908 0.926694478294281 -110.685748183345 0.92669447829428 -110.685748183345 0.336592425811907 -21.2878361122623 
! Gamma         0                0                0                0                
! Port Impedance         50               0                50               0                
57.7                           0.336114383182671 -21.7532511554258 0.926856799339055 -110.871752633287 0.926856799339054 -110.871752633287 0.336099999493232 -21.4679080560025 
! Gamma         0                0                0                0                
! Port Impedance         50               0                50               0                
57.8                           0.335618075460771 -21.9344285720574 0.927020120581254 -111.057830415271 0.927020120581253 -111.05783041527 0.335603746986396 -21.6480319110531 
! Gamma         0                0                0                0                
! Port Impedance         50               0                50               0                
57.9                           0.335117941078749 -22.1156636125697 0.927184435104583 -111.243981949562 0.927184435104581 -111.243981949562 0.335103668725239 -21.828207866541 
! Gamma         0                0                0                0                
! Port Impedance         50               0                50               0                
58                             0.334613980488245 -22.2969565121472 0.927349735942882 -111.430207653812 0.927349735942881 -111.430207653812 0.334599765169876 -22.008436106373 
! Gamma         0                0                0                0                
! Port Impedance         50               0                50               0                
58.1                           0.334106194167585 -22.4783075013211 0.927516016080185 -111.616507943034 0.927516016080185 -111.616507943034 0.334092036807206 -22.1887168091728 
! Gamma         0                0                0                0                
! Port Impedance         50               0                50               0                
58.2                           0.333594582622288 -22.6597168059149 0.927683268450762 -111.802883229581 0.927683268450761 -111.802883229581 0.333580484151428 -22.3690501482166 
! Gamma         0                0                0                0                
! Port Impedance         50               0                50               0                
58.3                           0.333079146385585 -22.8411846469901 0.927851485939173 -111.989333923125 0.927851485939171 -111.989333923125 0.333065107744551 -22.549436291369 
! Gamma         0                0                0                0                
! Port Impedance         50               0                50               0                
58.4                           0.332559886018931 -23.0227112407901 0.928020661380322 -112.175860430635 0.928020661380321 -112.175860430635 0.332545908156918 -22.729875401017 
! Gamma         0                0                0                0                
! Port Impedance         50               0                50               0                
58.5                           0.33203680211253 -23.2042967986848 0.928190787559524 -112.362463156355 0.928190787559522 -112.362463156355 0.332022885987723 -22.9103676340041 
! Gamma         0                0                0                0                
! Port Impedance         50               0                50               0                
58.6                           0.331509895285853 -23.3859415271135 0.92836185721255 -112.549142501784 0.928361857212549 -112.549142501784 0.331496041865539 -23.0909131415626 
! Gamma         0                0                0                0                
! Port Impedance         50               0                50               0                
58.7                           0.330979166188167 -23.5676456275277 0.928533863025706 -112.735898865651 0.928533863025705 -112.735898865651 0.330965376448843 -23.2715120692456 
! Gamma         0                0                0                0                
! Port Impedance         50               0                50               0                
58.8                           0.33044461549906 -23.7494092963328 0.92870679763589 -112.922732643896 0.928706797635889 -112.922732643896 0.330430890426545 -23.4521645568584 
! Gamma         0                0                0                0                
! Port Impedance         50               0                50               0                
58.9                           0.329906243928977 -23.9312327248294 0.928880653630661 -113.109644229649 0.92888065363066 -113.109644229649 0.329892584518525 -23.6328707383882 
! Gamma         0                0                0                0                
! Port Impedance         50               0                50               0                
59                             0.32936405221975 -24.1131160991543 0.929055423548316 -113.296634013204 0.929055423548315 -113.296634013204 0.329350459476166 -23.8136307419338 
! Gamma         0                0                0                0                
! Port Impedance         50               0                50               0                
59.1                           0.328818041145136 -24.2950596002194 0.929231099877962 -113.483702382002 0.929231099877961 -113.483702382002 0.32880451608289 -23.9944446896334 
! Gamma         0                0                0                0                
! Port Impedance         50               0                50               0                
59.2                           0.328268211511358 -24.4770634036516 0.92940767505959 -113.670849720606 0.929407675059588 -113.670849720606 0.328254755154705 -24.1753126975921 
! Gamma         0                0                0                0                
! Port Impedance         50               0                50               0                
59.3                           0.327714564157645 -24.6591276797307 0.929585141484161 -113.858076410679 0.92958514148416 -113.858076410679 0.327701177540745 -24.3562348758084 
! Gamma         0                0                0                0                
! Port Impedance         50               0                50               0                
59.4                           0.327157099956775 -24.8412525933271 0.929763491493689 -114.045382830967 0.929763491493688 -114.045382830967 0.327143784123816 -24.5372113280994 
! Gamma         0                0                0                0                
! Port Impedance         50               0                50               0                
59.5                           0.326595819815629 -25.0234383038385 0.929942717381325 -114.23276935727 0.929942717381323 -114.23276935727 0.326582575820948 -24.718242152025 
! Gamma         0                0                0                0                
! Port Impedance         50               0                50               0                
59.6                           0.326030724675734 -25.2056849651258 0.930122811391447 -114.420236362425 0.930122811391445 -114.420236362425 0.326017553583945 -24.8993274388115 
! Gamma         0                0                0                0                
! Port Impedance         50               0                50               0                
59.7                           0.325461815513817 -25.3879927254484 0.930303765719757 -114.607784216282 0.930303765719755 -114.607784216282 0.325448718399939 -25.0804672732735 
! Gamma         0                0                0                0                
! Port Impedance         50               0                50               0                
59.8                           0.324889093342363 -25.5703617273985 0.930485572513371 -114.795413285684 0.93048557251337 -114.795413285684 0.324876071291948 -25.2616617337355 
! Gamma         0                0                0                0                
! Port Impedance         50               0                50               0                
59.9                           0.32431255921017 -25.7527921078345 0.930668223870927 -114.983123934442 0.930668223870925 -114.983123934442 0.324299613319434 -25.4429108919511 
! Gamma         0                0                0                0                
! Port Impedance         50               0                50               0                
60                             0.323732214202907 -25.9352839978133 0.930851711842678 -115.170916523318 0.930851711842676 -115.170916523317 0.323719345578866 -25.6242148130229 
! Gamma         0                0                0                0                
! Port Impedance         50               0                50               0                
60.1                           0.323148059443681 -26.1178375225228 0.931036028430604 -115.358791409995 0.931036028430603 -115.358791409995 0.323135269204285 -25.8055735553193 
! Gamma         0                0                0                0                
! Port Impedance         50               0                50               0                
60.2                           0.322560096093597 -26.3004528012117 0.931221165588523 -115.546748949066 0.931221165588522 -115.546748949066 0.322547385367867 -25.9869871703917 
! Gamma         0                0                0                0                
! Port Impedance         50               0                50               0                
60.3                           0.321968325352325 -26.4831299471201 0.931407115222199 -115.734789492002 0.931407115222197 -115.734789492002 0.321955695280497 -26.1684557028897 
! Gamma         0                0                0                0                
! Port Impedance         50               0                50               0                
60.4                           0.321372748458673 -26.6658690674081 0.931593869189459 -115.922913387135 0.931593869189457 -115.922913387135 0.321360200192335 -26.3499791904746 
! Gamma         0                0                0                0                
! Port Impedance         50               0                50               0                
60.5                           0.320773366691155 -26.848670263084 0.931781419300318 -116.111120979637 0.931781419300317 -116.111120979637 0.320760901393393 -26.5315576637334 
! Gamma         0                0                0                0                
! Port Impedance         50               0                50               0                
60.6                           0.320170181368563 -27.0315336289307 0.931969757317098 -116.299412611494 0.931969757317097 -116.299412611494 0.32015780021411 -26.713191146089 
! Gamma         0                0                0                0                
! Port Impedance         50               0                50               0                
60.7                           0.319563193850547 -27.2144592534323 0.932158874954555 -116.487788621488 0.932158874954553 -116.487788621488 0.319550898025929 -26.8948796537115 
! Gamma         0                0                0                0                
! Port Impedance         50               0                50               0                
60.8                           0.318952405538189 -27.3974472186986 0.932348763880012 -116.676249345173 0.932348763880011 -116.676249345173 0.318940196241879 -27.0766231954265 
! Gamma         0                0                0                0                
! Port Impedance         50               0                50               0                
60.9                           0.318337817874585 -27.580497600389 0.932539415713491 -116.864795114853 0.93253941571349 -116.864795114853 0.318325696317153 -27.2584217726225 
! Gamma         0                0                0                0                
! Port Impedance         50               0                50               0                
61                             0.317719432345424 -27.7636104676356 0.932730822027855 -117.053426259562 0.932730822027853 -117.053426259562 0.317707399749698 -27.4402753791574 
! Gamma         0                0                0                0                
! Port Impedance         50               0                50               0                
61.1                           0.317097250479576 -27.9467858829642 0.932922974348943 -117.24214310504 0.932922974348941 -117.24214310504 0.317085308080795 -27.6221840012627 
! Gamma         0                0                0                0                
! Port Impedance         50               0                50               0                
61.2                           0.316471273849671 -28.1300239022155 0.933115864155724 -117.430945973711 0.933115864155722 -117.430945973711 0.316459422895653 -27.804147617447 
! Gamma         0                0                0                0                
! Port Impedance         50               0                50               0                
61.3                           0.315841504072694 -28.3133245744641 0.933309482880441 -117.619835184663 0.93330948288044 -117.619835184663 0.315829745823994 -27.986166198397 
! Gamma         0                0                0                0                
! Port Impedance         50               0                50               0                
61.4                           0.315207942810568 -28.4966879419367 0.933503821908768 -117.808811053625 0.933503821908766 -117.808811053625 0.315196278540648 -28.1682397068784 
! Gamma         0                0                0                0                
! Port Impedance         50               0                50               0                
61.5                           0.31457059177075 -28.6801140399291 0.933698872579961 -117.997873892945 0.93369887257996 -117.997873892945 0.314559022766146 -28.3503680976337 
! Gamma         0                0                0                0                
! Port Impedance         50               0                50               0                
61.6                           0.313929452706819 -28.8636028967223 0.93389462618703 -118.187024011569 0.933894626187028 -118.187024011569 0.313917980267314 -28.5325513172794 
! Gamma         0                0                0                0                
! Port Impedance         50               0                50               0                
61.7                           0.313284527419074 -29.0471545334961 0.934091073976895 -118.376261715018 0.934091073976894 -118.376261715018 0.313273152857875 -28.714789304201 
! Gamma         0                0                0                0                
! Port Impedance         50               0                50               0                
61.8                           0.312635817755129 -29.2307689642432 0.93428820715056 -118.565587305367 0.934288207150558 -118.565587305367 0.312624542399041 -28.8970819884465 
! Gamma         0                0                0                0                
! Port Impedance         50               0                50               0                
61.9                           0.31198332561051 -29.4144461956806 0.934486016863285 -118.755001081224 0.934486016863284 -118.755001081224 0.311972150800118 -29.0794292916185 
! Gamma         0                0                0                0                
! Port Impedance         50               0                50               0                
62                             0.311327052929254 -29.5981862271597 0.934684494224769 -118.944503337706 0.934684494224767 -118.944503337706 0.311315980019109 -29.2618311267636 
! Gamma         0                0                0                0                
! Port Impedance         50               0                50               0                
62.1                           0.310667001704511 -29.7819890505762 0.93488363029932 -119.13409436642 0.934883630299319 -119.13409436642 0.310656032063314 -29.4442873982609 
! Gamma         0                0                0                0                
! Port Impedance         50               0                50               0                
62.2                           0.310003173979146 -29.9658546502772 0.935083416106058 -119.323774455438 0.935083416106056 -119.323774455438 0.309992308989937 -29.6267980017084 
! Gamma         0                0                0                0                
! Port Impedance         50               0                50               0                
62.3                           0.309335571846339 -30.1497830029673 0.935283842619091 -119.51354388928 0.935283842619089 -119.51354388928 0.309324812906694 -29.8093628238067 
! Gamma         0                0                0                0                
! Port Impedance         50               0                50               0                
62.4                           0.308664197450194 -30.3337740776138 0.935484900767717 -119.703402948889 0.935484900767715 -119.703402948889 0.30865354597242 -29.991981742242 
! Gamma         0                0                0                0                
! Port Impedance         50               0                50               0                
62.5                           0.307989052986344 -30.5178278353492 0.935686581436622 -119.893351911608 0.935686581436621 -119.893351911608 0.307978510397675 -30.1746546255665 
! Gamma         0                0                0                0                
! Port Impedance         50               0                50               0                
62.6                           0.307310140702556 -30.7019442293735 0.935888875466086 -120.083391051163 0.935888875466085 -120.083391051163 0.307299708445361 -30.3573813330762 
! Gamma         0                0                0                0                
! Port Impedance         50               0                50               0                
62.7                           0.306627462899341 -30.8861232048535 0.936091773652186 -120.27352063764 0.936091773652184 -120.27352063764 0.306617142431327 -30.5401617146874 
! Gamma         0                0                0                0                
! Port Impedance         50               0                50               0                
62.8                           0.305941021930563 -31.0703646988216 0.936295266747013 -120.46374093746 0.936295266747011 -120.46374093746 0.305930814724988 -30.722995610811 
! Gamma         0                0                0                0                
! Port Impedance         50               0                50               0                
62.9                           0.305250820204049 -31.2546686400722 0.936499345458888 -120.654052213362 0.936499345458886 -120.654052213362 0.305240727749933 -30.9058828522237 
! Gamma         0                0                0                0                
! Port Impedance         50               0                50               0                
63                             0.304556860182202 -31.4390349490566 0.936704000452582 -120.84445472438 0.93670400045258 -120.84445472438 0.304546883984547 -31.088823259938 
! Gamma         0                0                0                0                
! Port Impedance         50               0                50               0                
63.1                           0.30385914438261 -31.6234635377762 0.936909222349545 -121.034948725822 0.936909222349544 -121.034948725822 0.303849285962621 -31.2718166450694 
! Gamma         0                0                0                0                
! Port Impedance         50               0                50               0                
63.2                           0.303157675378664 -31.807954309674 0.937115001728139 -121.225534469248 0.937115001728137 -121.225534469248 0.303147936273969 -31.454862808701 
! Gamma         0                0                0                0                
! Port Impedance         50               0                50               0                
63.3                           0.302452455800166 -31.9925071595235 0.937321329123865 -121.416212202448 0.937321329123864 -121.416212202448 0.302442837565053 -31.6379615417459 
! Gamma         0                0                0                0                
! Port Impedance         50               0                50               0                
63.4                           0.301743488333948 -32.1771219733167 0.937528195029614 -121.606982169425 0.937528195029612 -121.606982169425 0.301733992539593 -31.8211126248074 
! Gamma         0                0                0                0                
! Port Impedance         50               0                50               0                
63.5                           0.301030775724487 -32.3617986281494 0.937735589895906 -121.79784461037 0.937735589895904 -121.797844610369 0.301021403959191 -32.0043158280356 
! Gamma         0                0                0                0                
! Port Impedance         50               0                50               0                
63.6                           0.300314320774517 -32.5465369921049 0.937943504131139 -121.98879976164 0.937943504131137 -121.98879976164 0.30030507464395 -32.1875709109829 
! Gamma         0                0                0                0                
! Port Impedance         50               0                50               0                
63.7                           0.299594126345651 -32.7313369241355 0.93815192810185 -122.179847855741 0.938151928101849 -122.179847855741 0.299585007473097 -32.3708776224551 
! Gamma         0                0                0                0                
! Port Impedance         50               0                50               0                
63.8                           0.298870195358994 -32.9161982739415 0.938360852132971 -122.370989121307 0.938360852132969 -122.370989121307 0.298861205385599 -32.5542357003609 
! Gamma         0                0                0                0                
! Port Impedance         50               0                50               0                
63.9                           0.29814253079576 -33.1011208818489 0.938570266508089 -122.562223783074 0.938570266508088 -122.562223783074 0.298133671380791 -32.7376448715585 
! Gamma         0                0                0                0                
! Port Impedance         50               0                50               0                
64                             0.297411135697893 -33.2861045786837 0.938780161469728 -122.753552061865 0.938780161469726 -122.753552061865 0.297402408518992 -32.9211048516981 
! Gamma         0                0                0                0                
! Port Impedance         50               0                50               0                
64.1                           0.296676013168683 -33.4711491856453 0.938990527219608 -122.944974174566 0.938990527219606 -122.944974174565 0.296667419922134 -33.1046153450633 
! Gamma         0                0                0                0                
! Port Impedance         50               0                50               0                
64.2                           0.295937166373382 -33.6562545141763 0.939201353918937 -123.136490334106 0.939201353918936 -123.136490334106 0.29592870877438 -33.2881760444072 
! Gamma         0                0                0                0                
! Port Impedance         50               0                50               0                
64.3                           0.295194598539826 -33.8414203658304 0.939412631688692 -123.328100749439 0.93941263168869 -123.328100749439 0.29518627832275 -33.4717866307876 
! Gamma         0                0                0                0                
! Port Impedance         50               0                50               0                
64.4                           0.294448312959051 -34.026646532138 0.939624350609905 -123.519805625519 0.939624350609904 -123.519805625519 0.294440131877742 -33.6554467733968 
! Gamma         0                0                0                0                
! Port Impedance         50               0                50               0                
64.5                           0.293698312985912 -34.2119327944688 0.939836500723963 -123.711605163285 0.939836500723961 -123.711605163285 0.293690272813957 -33.83915612939  
! Gamma         0                0                0                0                
! Port Impedance         50               0                50               0                
64.6                           0.292944602039699 -34.3972789238926 0.940049072032904 -123.903499559636 0.940049072032903 -123.903499559636 0.292936704570725 -34.0229143437085 
! Gamma         0                0                0                0                
! Port Impedance         50               0                50               0                
64.7                           0.292187183604762 -34.5826846810359 0.940262054499727 -124.095489007412 0.940262054499725 -124.095489007412 0.292179430652721 -34.2067210489009 
! Gamma         0                0                0                0                
! Port Impedance         50               0                50               0                
64.8                           0.291426061231119 -34.7681498159377 0.940475438048695 -124.287573695377 0.940475438048693 -124.287573695377 0.291418454630598 -34.3905758649394 
! Gamma         0                0                0                0                
! Port Impedance         50               0                50               0                
64.9                           0.290661238535082 -34.9536740679009 0.940689212565658 -124.479753808195 0.940689212565656 -124.479753808194 0.290653780141602 -34.5744783990336 
! Gamma         0                0                0                0                
! Port Impedance         50               0                50               0                
65                             0.289892719199869 -35.1392571653412 0.940903367898373 -124.672029526412 0.940903367898371 -124.672029526412 0.289885410890201 -34.7584282454393 
! Gamma         0                0                0                0                
! Port Impedance         50               0                50               0                
65.1                           0.289120506976224 -35.3248988256338 0.941117893856823 -124.864401026437 0.941117893856821 -124.864401026437 0.289113350648703 -34.942424985264 
! Gamma         0                0                0                0                
! Port Impedance         50               0                50               0                
65.2                           0.288344605683032 -35.5105987549558 0.941332780213559 -125.056868480522 0.941332780213557 -125.056868480522 0.288337603257883 -35.1264681862687 
! Gamma         0                0                0                0                
! Port Impedance         50               0                50               0                
65.3                           0.287565019207933 -35.6963566481263 0.941548016704028 -125.249432056738 0.941548016704026 -125.249432056738 0.2875581726276  -35.3105574026645 
! Gamma         0                0                0                0                
! Port Impedance         50               0                50               0                
65.4                           0.286781751507942 -35.8821721884427 0.941763593026922 -125.442091918965 0.94176359302692 -125.442091918965 0.286775062737424 -35.4946921749063 
! Gamma         0                0                0                0                
! Port Impedance         50               0                50               0                
65.5                           0.285994806610057 -36.0680450475142 0.941979498844522 -125.634848226861 0.94197949884452 -125.634848226861 0.285988277637252 -35.6788720294804 
! Gamma         0                0                0                0                
! Port Impedance         50               0                50               0                
65.6                           0.285204188611879 -36.2539748850917 0.942195723783051 -125.827701135855 0.942195723783049 -125.827701135855 0.28519782144793 -35.8630964786894 
! Gamma         0                0                0                0                
! Port Impedance         50               0                50               0                
65.7                           0.284409901682218 -36.4399613488935 0.942412257433035 -126.020650797116 0.942412257433033 -126.020650797115 0.284403698361874 -36.0473650204314 
! Gamma         0                0                0                0                
! Port Impedance         50               0                50               0                
65.8                           0.28361195006171 -36.6260040744285 0.942629089349666 -126.213697357542 0.942629089349665 -126.213697357542 0.283605912643687 -36.2316771379743 
! Gamma         0                0                0                0                
! Port Impedance         50               0                50               0                
65.9                           0.282810338063427 -36.8121026848148 0.942846209053174 -126.406840959741 0.942846209053171 -126.406840959741 0.282804468630776 -36.4160322997261 
! Gamma         0                0                0                0                
! Port Impedance         50               0                50               0                
66                             0.282005070073483 -36.9982567905946 0.943063606029193 -126.600081742007 0.943063606029191 -126.600081742007 0.281999370733972 -36.600429958999 
! Gamma         0                0                0                0                
! Port Impedance         50               0                50               0                
66.1                           0.281196150551646 -37.1844659895458 0.943281269729156 -126.793419838305 0.943281269729154 -126.793419838305 0.281190623438142 -36.7848695537692 
! Gamma         0                0                0                0                
! Port Impedance         50               0                50               0                
66.2                           0.280383584031944 -37.3707298664882 0.943499189570672 -126.986855378253 0.943499189570671 -126.986855378253 0.280378231302809 -36.9693505064314 
! Gamma         0                0                0                0                
! Port Impedance         50               0                50               0                
66.3                           0.279567375123271 -37.5570479930871 0.94371735493792 -127.180388487101 0.943717354937918 -127.180388487101 0.279562198962759 -37.1538722235466 
! Gamma         0                0                0                0                
! Port Impedance         50               0                50               0                
66.4                           0.27874752850999 -37.7434199276512 0.943935755182045 -127.374019285717 0.943935755182043 -127.374019285717 0.27874253112866 -37.3384340955859 
! Gamma         0                0                0                0                
! Port Impedance         50               0                50               0                
66.5                           0.277924048952536 -37.9298452149272 0.944154379621567 -127.567747890563 0.944154379621565 -127.567747890563 0.277919232587668 -37.5230354966671 
! Gamma         0                0                0                0                
! Port Impedance         50               0                50               0                
66.6                           0.27709694128802 -38.1163233858888 0.944373217542783 -127.761574413683 0.944373217542781 -127.761574413683 0.277092308204041 -37.7076757842864 
! Gamma         0                0                0                0                
! Port Impedance         50               0                50               0                
66.7                           0.276266210430826 -38.3028539575216 0.944592258200187 -127.955498962682 0.944592258200185 -127.955498962682 0.276261762919743 -37.8923542990428 
! Gamma         0                0                0                0                
! Port Impedance         50               0                50               0                
66.8                           0.275431861373208 -38.489436432603 0.944811490816887 -128.149521640709 0.944811490816885 -128.149521640708 0.275427601755054 -38.077070364357 
! Gamma         0                0                0                0                
! Port Impedance         50               0                50               0                
66.9                           0.274593899185889 -38.6760702994773 0.945030904585033 -128.343642546438 0.945030904585031 -128.343642546438 0.274589829809174 -38.2618232861837 
! Gamma         0                0                0                0                
! Port Impedance         50               0                50               0                
67                             0.273752329018651 -38.8627550318254 0.945250488666248 -128.537861774055 0.945250488666247 -128.537861774054 0.273748452260828 -38.4466123527164 
! Gamma         0                0                0                0                
! Port Impedance         50               0                50               0                
67.1                           0.272907156100932 -39.049490088429 0.945470232192067 -128.732179413235 0.945470232192066 -128.732179413235 0.272903474368863 -38.6314368340863 
! Gamma         0                0                0                0                
! Port Impedance         50               0                50               0                
67.2                           0.272058385742412 -39.2362749129301 0.945690124264378 -128.926595549132 0.945690124264376 -128.926595549132 0.272054901472855 -38.8162959820532 
! Gamma         0                0                0                0                
! Port Impedance         50               0                50               0                
67.3                           0.271206023333601 -39.4231089335839 0.945910153955872 -129.121110262354 0.94591015395587 -129.121110262354 0.271202738993701 -39.0011890296892 
! Gamma         0                0                0                0                
! Port Impedance         50               0                50               0                
67.4                           0.270350074346428 -39.6099915630067 0.946130310310499 -129.315723628953 0.946130310310497 -129.315723628953 0.270346992434218 -39.1861151910554 
! Gamma         0                0                0                0                
! Port Impedance         50               0                50               0                
67.5                           0.269490544334819 -39.7969221979173 0.946350582343929 -129.510435720407 0.946350582343927 -129.510435720407 0.269487667379734 -39.3710736608699 
! Gamma         0                0                0                0                
! Port Impedance         50               0                50               0                
67.6                           0.268627438935283 -39.9839002188724 0.946570959044016 -129.7052466036  0.946570959044014 -129.7052466036  0.268624769498685 -39.5560636141681 
! Gamma         0                0                0                0                
! Port Impedance         50               0                50               0                
67.7                           0.267760763867487 -40.1709249899962 0.946791429371274 -129.900156340811 0.946791429371272 -129.900156340811 0.267758304543199 -39.7410842059548 
! Gamma         0                0                0                0                
! Port Impedance         50               0                50               0                
67.8                           0.266890524934831 -40.3579958587019 0.947011982259352 -130.095164989695 0.94701198225935 -130.095164989695 0.266888278349688 -39.9261345708475 
! Gamma         0                0                0                0                
! Port Impedance         50               0                50               0                
67.9                           0.266016728025025 -40.5451121554083 0.947232606615518 -130.290272603267 0.947232606615516 -130.290272603267 0.26601469683943 -40.1112138227111 
! Gamma         0                0                0                0                
! Port Impedance         50               0                50               0                
68                             0.265139379110655 -40.7322731932484 0.947453291321155 -130.48547922989 0.947453291321153 -130.48547922989 0.265137566019151 -40.2963210542831 
! Gamma         0                0                0                0                
! Port Impedance         50               0                50               0                
68.1                           0.264258484249753 -40.9194782677707 0.947674025232247 -130.680784913254 0.947674025232245 -130.680784913254 0.264256891981607 -40.4814553367893 
! Gamma         0                0                0                0                
! Port Impedance         50               0                50               0                
68.2                           0.263374049586361 -41.1067266566334 0.947894797179887 -130.876189692367 0.947894797179886 -130.876189692367 0.263372680906163 -40.6666157195506 
! Gamma         0                0                0                0                
! Port Impedance         50               0                50               0                
68.3                           0.262486081351093 -41.2940176192913 0.948115595970787 -131.071693601534 0.948115595970785 -131.071693601534 0.262484939059361 -40.8518012295789 
! Gamma         0                0                0                0                
! Port Impedance         50               0                50               0                
68.4                           0.261594585861689 -41.4813503966739 0.948336410387781 -131.267296670346 0.948336410387779 -131.267296670346 0.261593672795501 -41.0370108711627 
! Gamma         0                0                0                0                
! Port Impedance         50               0                50               0                
68.5                           0.260699569523579 -41.6687242108557 0.948557229190355 -131.462998923666 0.948557229190353 -131.462998923666 0.260698888557203 -41.2222436254426 
! Gamma         0                0                0                0                
! Port Impedance         50               0                50               0                
68.6                           0.259801038830426 -41.856138264719 0.948778041115167 -131.658800381612 0.948778041115164 -131.658800381612 0.259800592875978 -41.4074984499753 
! Gamma         0                0                0                0                
! Port Impedance         50               0                50               0                
68.7                           0.258899000364682 -42.043591741606 0.948998834876577 -131.854701059543 0.948998834876575 -131.854701059543 0.258898792372788 -41.5927742782864 
! Gamma         0                0                0                0                
! Port Impedance         50               0                50               0                
68.8                           0.257993460798125 -42.2310838049643 0.949219599167187 -132.050700968048 0.949219599167185 -132.050700968048 0.25799349375861 -41.7780700194109 
! Gamma         0                0                0                0                
! Port Impedance         50               0                50               0                
68.9                           0.257084426892411 -42.4186135979807 0.949440322658382 -132.24680011293 0.94944032265838 -132.24680011293 0.25708470383499 -41.9633845574229 
! Gamma         0                0                0                0                
! Port Impedance         50               0                50               0                
69                             0.256171905499603 -42.6061802432076 0.949660994000877 -132.442998495192 0.949660994000875 -132.442998495192 0.256172429494599 -42.1487167509508 
! Gamma         0                0                0                0                
! Port Impedance         50               0                50               0                
69.1                           0.255255903562709 -42.793782842178 0.949881601825273 -132.639296111024 0.949881601825271 -132.639296111024 0.255256677721785 -42.3340654326816 
! Gamma         0                0                0                0                
! Port Impedance         50               0                50               0                
69.2                           0.254336428116216 -42.9814204750109 0.950102134742618 -132.835692951794 0.950102134742616 -132.835692951793 0.254337455593117 -42.5194294088502 
! Gamma         0                0                0                0                
! Port Impedance         50               0                50               0                
69.3                           0.25341348628661 -43.1690922000059 0.95032258134497 -133.032189004027 0.950322581344968 -133.032189004026 0.253414770277933 -42.7048074587154 
! Gamma         0                0                0                0                
! Port Impedance         50               0                50               0                
69.4                           0.252487085292906 -43.356797053227 0.950542930205971 -133.2287842494  0.950542930205969 -133.2287842494  0.252488629038882 -42.8901983340223 
! Gamma         0                0                0                0                
! Port Impedance         50               0                50               0                
69.5                           0.251557232447159 -43.5445340480751 0.950763169881423 -133.425478664727 0.950763169881422 -133.425478664727 0.251559039232456 -43.0756007584486 
! Gamma         0                0                0                0                
! Port Impedance         50               0                50               0                
69.6                           0.250623935154989 -43.7323021748485 0.950983288909876 -133.622272221946 0.950983288909874 -133.622272221946 0.250626008309527 -43.2610134270369 
! Gamma         0                0                0                0                
! Port Impedance         50               0                50               0                
69.7                           0.249687200916083 -43.9201004002921 0.951203275813207 -133.819164888108 0.951203275813205 -133.819164888108 0.249689543815881 -43.4464350056102 
! Gamma         0                0                0                0                
! Port Impedance         50               0                50               0                
69.8                           0.248747037324704 -44.1079276671329 0.951423119097227 -134.016156625366 0.951423119097225 -134.016156625366 0.248749653392738 -43.6318641301716 
! Gamma         0                0                0                0                
! Port Impedance         50               0                50               0                
69.9                           0.247803452070197 -44.2957828936037 0.951642807252273 -134.213247390961 0.951642807252271 -134.213247390961 0.247806344777279 -43.817299406287 
! Gamma         0                0                0                0                
! Port Impedance         50               0                50               0                
70                             0.246856452937481 -44.4836649729528 0.951862328753816 -134.410437137215 0.951862328753815 -134.410437137214 0.246859625803165 -44.0027394084503 
! Gamma         0                0                0                0                
! Port Impedance         50               0                50               0                
70.1                           0.245906047807546 -44.6715727729399 0.952081672063079 -134.607725811517 0.952081672063076 -134.607725811516 0.245909504401052 -44.1881826794307 
! Gamma         0                0                0                0                
! Port Impedance         50               0                50               0                
70.2                           0.244952244657943 -44.859505135318 0.952300825627642 -134.805113356313 0.95230082562764 -134.805113356313 0.244955988599101 -44.3736277296006 
! Gamma         0                0                0                0                
! Port Impedance         50               0                50               0                
70.3                           0.243995051563262 -45.0474608753   0.95251977788208 -135.002599709099 0.952519777882078 -135.002599709099 0.243999086523489 -44.5590730362451 
! Gamma         0                0                0                0                
! Port Impedance         50               0                50               0                
70.4                           0.24303447669562 -45.2354387810104 0.952738517248583 -135.200184802404 0.952738517248581 -135.200184802404 0.243038806398907 -44.7445170428508 
! Gamma         0                0                0                0                
! Port Impedance         50               0                50               0                
70.5                           0.242070528325128 -45.4234376129209 0.952957032137592 -135.397868563788 0.95295703213759 -135.397868563788 0.242075156549066 -44.9299581583741 
! Gamma         0                0                0                0                
! Port Impedance         50               0                50               0                
70.6                           0.241103214820368 -45.6114561032693 0.95317531094844 -135.595650915826 0.953175310948438 -135.595650915826 0.24110814539719 -45.1153947564876 
! Gamma         0                0                0                0                
! Port Impedance         50               0                50               0                
70.7                           0.240132544648851 -45.7994929554618 0.953393342069999 -135.793531776104 0.953393342069997 -135.793531776104 0.240137781466504 -45.3008251748051 
! Gamma         0                0                0                0                
! Port Impedance         50               0                50               0                
70.8                           0.239158526377483 -45.9875468434574 0.953611113881329 -135.991511057207 0.953611113881327 -135.991511057206 0.239164073380726 -45.4862477140826 
! Gamma         0                0                0                0                
! Port Impedance         50               0                50               0                
70.9                           0.238181168673018 -46.1756164111339 0.953828614752336 -136.18958866671 0.953828614752334 -136.18958866671 0.23818702986455 -45.6716606373961 
! Gamma         0                0                0                0                
! Port Impedance         50               0                50               0                
71                             0.237200480302507 -46.3637002716352 0.954045833044436 -136.387764507172 0.954045833044434 -136.387764507172 0.237206659744121 -45.857062169294 
! Gamma         0                0                0                0                
! Port Impedance         50               0                50               0                
71.1                           0.236216470133744 -46.5517970066986 0.954262757111217 -136.586038476128 0.954262757111215 -136.586038476128 0.236222971947511 -46.0424504949247 
! Gamma         0                0                0                0                
! Port Impedance         50               0                50               0                
71.2                           0.235229147135706 -46.7399051659621 0.954479375299121 -136.784410466077 0.954479375299119 -136.784410466077 0.235235975505193 -46.2278237591369 
! Gamma         0                0                0                0                
! Port Impedance         50               0                50               0                
71.3                           0.234238520378987 -46.9280232662505 0.954695675948113 -136.98288036448 0.954695675948112 -136.98288036448 0.234245679550503 -46.4131800655526 
! Gamma         0                0                0                0                
! Port Impedance         50               0                50               0                
71.4                           0.233244599036226 -47.1161497908389 0.954911647392373 -137.18144805375 0.954911647392371 -137.181448053749 0.233252093320103 -46.5985174756113 
! Gamma         0                0                0                0                
! Port Impedance         50               0                50               0                
71.5                           0.232247392382534 -47.3042831886946 0.955127277960979 -137.380113411243 0.955127277960978 -137.380113411243 0.232255226154439 -46.7838340075853 
! Gamma         0                0                0                0                
! Port Impedance         50               0                50               0                
71.6                           0.231246909795908 -47.4924218736949 0.955342555978606 -137.578876309258 0.955342555978604 -137.578876309258 0.231255087498192 -46.969127635563 
! Gamma         0                0                0                0                
! Port Impedance         50               0                50               0                
71.7                           0.230243160757649 -47.6805642238197 0.955557469766221 -137.777736615023 0.955557469766219 -137.777736615023 0.230251686900731 -47.1543962884019 
! Gamma         0                0                0                0                
! Port Impedance         50               0                50               0                
71.8                           0.229236154852765 -47.8687085803203 0.955772007641793 -137.976694190697 0.955772007641791 -137.976694190697 0.229245034016553 -47.3396378486466 
! Gamma         0                0                0                0                
! Port Impedance         50               0                50               0                
71.9                           0.228225901770373 -48.0568532468604 0.955986157920998 -138.175748893356 0.955986157920997 -138.175748893356 0.228235138605726 -47.5248501514145 
! Gamma         0                0                0                0                
! Port Impedance         50               0                50               0                
72                             0.2272124113041  -48.2449964886303 0.956199908917939 -138.374900574995 0.956199908917937 -138.374900574994 0.227222010534322 -47.7100309832441 
! Gamma         0                0                0                0                
! Port Impedance         50               0                50               0                
72.1                           0.226195693352468 -48.433136531433 0.956413248945861 -138.574149082518 0.956413248945859 -138.574149082518 0.226205659774852 -47.8951780809071 
! Gamma         0                0                0                0                
! Port Impedance         50               0                50               0                
72.2                           0.225175757919284 -48.6212715607401 0.956626166317878 -138.773494257736 0.956626166317876 -138.773494257736 0.22518609640669 -48.0802891301824 
! Gamma         0                0                0                0                
! Port Impedance         50               0                50               0                
72.3                           0.224152615114013 -48.8093997207177 0.956838649347705 -138.972935937364 0.956838649347704 -138.972935937364 0.224163330616496 -48.265361764589 
! Gamma         0                0                0                0                
! Port Impedance         50               0                50               0                
72.4                           0.223126275152158 -48.9975191132199 0.957050686350391 -139.172473953013 0.95705068635039 -139.172473953013 0.223137372698637 -48.4503935640789 
! Gamma         0                0                0                0                
! Port Impedance         50               0                50               0                
72.5                           0.222096748355626 -49.1856277967498 0.957262265643057 -139.37210813119 0.957262265643056 -139.372108131189 0.2221082330556  -48.6353820536854 
! Gamma         0                0                0                0                
! Port Impedance         50               0                50               0                
72.6                           0.221064045153087 -49.3737237853854 0.957473375545645 -139.57183829329 0.957473375545643 -139.57183829329 0.2210759221984  -48.8203247021278 
! Gamma         0                0                0                0                
! Port Impedance         50               0                50               0                
72.7                           0.220028176080334 -49.5618050476705 0.957684004381661 -139.771664255601 0.95768400438166 -139.771664255601 0.220040450746989 -49.0052189203691 
! Gamma         0                0                0                0                
! Port Impedance         50               0                50               0                
72.8                           0.218989151780634 -49.7498695054675 0.957894140478935 -139.971585829294 0.957894140478933 -139.971585829294 0.219001829430657 -49.1900620601246 
! Gamma         0                0                0                0                
! Port Impedance         50               0                50               0                
72.9                           0.217946983005067 -49.9379150327725 0.958103772170376 -140.171602820425 0.958103772170374 -140.171602820424 0.217960069088429 -49.3748514123215 
! Gamma         0                0                0                0                
! Port Impedance         50               0                50               0                
73                             0.216901680612873 -50.1259394544895 0.958312887794735 -140.371715029929 0.958312887794734 -140.371715029929 0.21691518066946 -49.559584205505 
! Gamma         0                0                0                0                
! Port Impedance         50               0                50               0                
73.1                           0.21585325557178 -50.3139405451628 0.958521475697375 -140.571922253624 0.958521475697373 -140.571922253623 0.215867175233425 -49.7442576041904 
! Gamma         0                0                0                0                
! Port Impedance         50               0                50               0                
73.2                           0.214801718958335 -50.5019160276661 0.958729524231039 -140.772224282205 0.958729524231037 -140.772224282205 0.214816063950904 -49.9288687071582 
! Gamma         0                0                0                0                
! Port Impedance         50               0                50               0                
73.3                           0.21374708195822 -50.6898635718459 0.958937021756629 -140.972620901247 0.958937021756628 -140.972620901247 0.213761858103767 -50.1134145456907 
! Gamma         0                0                0                0                
! Port Impedance         50               0                50               0                
73.4                           0.212689355866575 -50.877780793118 0.959143956643987 -141.173111891201 0.959143956643986 -141.173111891201 0.21270456908555 -50.2978920817465 
! Gamma         0                0                0                0                
! Port Impedance         50               0                50               0                
73.5                           0.211628552088306 -51.0656652510146 0.959350317272679 -141.373697027397 0.959350317272677 -141.373697027397 0.211644208401834 -50.4822982060716 
! Gamma         0                0                0                0                
! Port Impedance         50               0                50               0                
73.6                           0.210564682138387 -51.2535144476801 0.959556092032781 -141.574376080041 0.959556092032779 -141.574376080041 0.210580787670615 -50.6666297362432 
! Gamma         0                0                0                0                
! Port Impedance         50               0                50               0                
73.7                           0.209497757642163 -51.4413258263136 0.959761269325676 -141.775148814219 0.959761269325674 -141.775148814219 0.209514318622673 -50.8508834146447 
! Gamma         0                0                0                0                
! Port Impedance         50               0                50               0                
73.8                           0.20842779033564 -51.629096769556 0.959965837564851 -141.976014989896 0.95996583756485 -141.976014989896 0.208444813101939 -51.0350559063681 
! Gamma         0                0                0                0                
! Port Impedance         50               0                50               0                
73.9                           0.207354792065778 -51.8168245978186 0.960169785176696 -142.176974361919 0.960169785176695 -142.176974361919 0.207372283065859 -51.219143797041 
! Gamma         0                0                0                0                
! Port Impedance         50               0                50               0                
74                             0.206278774790768 -52.0045065675516 0.960373100601309 -142.378026680017 0.960373100601307 -142.378026680017 0.206296740585753 -51.4031435905744 
! Gamma         0                0                0                0                
! Port Impedance         50               0                50               0                
74.1                           0.205199750580314 -52.1921398694496 0.960575772293304 -142.579171688803 0.960575772293302 -142.579171688803 0.205218197847171 -51.5870517068299 
! Gamma         0                0                0                0                
! Port Impedance         50               0                50               0                
74.2                           0.204117731615903 -52.3797216265906 0.960777788722625 -142.78040912778 0.960777788722624 -142.78040912778 0.204136667150256 -51.7708644792002 
! Gamma         0                0                0                0                
! Port Impedance         50               0                50               0                
74.3                           0.203032730191072 -52.5672488925076 0.960979138375363 -142.981738731339 0.960979138375361 -142.981738731339 0.203052160910089 -51.9545781521003 
! Gamma         0                0                0                0                
! Port Impedance         50               0                50               0                
74.4                           0.201944758711669 -52.7547186491872 0.961179809754571 -143.183160228766 0.96117980975457 -143.183160228766 0.201964691657046 -52.1381888783668 
! Gamma         0                0                0                0                
! Port Impedance         50               0                50               0                
74.5                           0.200853829696114 -52.9421278049944 0.961379791381093 -143.384673344245 0.961379791381091 -143.384673344245 0.200874272037147 -52.3216927165586 
! Gamma         0                0                0                0                
! Port Impedance         50               0                50               0                
74.6                           0.199759955775644 -53.1294731925188 0.961579071794383 -143.586277796861 0.961579071794381 -143.58627779686 0.199780914812406 -52.5050856281573 
! Gamma         0                0                0                0                
! Port Impedance         50               0                50               0                
74.7                           0.198663149694569 -53.3167515663393 0.96177763955334 -143.787973300604 0.961777639553339 -143.787973300604 0.198684632861176 -52.6883634746607 
! Gamma         0                0                0                0                
! Port Impedance         50               0                50               0                
74.8                           0.197563424310508 -53.5039596007036 0.961975483237142 -143.989759564378 0.96197548323714 -143.989759564378 0.1975854391785  -52.8715220145661 
! Gamma         0                0                0                0                
! Port Impedance         50               0                50               0                
74.9                           0.19646079259463 -53.6910938871188 0.962172591446074 -144.191636292002 0.962172591446072 -144.191636292002 0.196483346876457 -53.0545569002381 
! Gamma         0                0                0                0                
! Port Impedance         50               0                50               0                
75                             0.195355267631889 -53.8781509318485 0.962368952802377 -144.393603182217 0.962368952802376 -144.393603182217 0.195378369184506 -53.2374636746549 
! Gamma         0                0                0                0                
! Port Impedance         50               0                50               0                
75.1                           0.194246862621254 -54.0651271533128 0.962564555951083 -144.595659928691 0.962564555951081 -144.595659928691 0.194270519449837 -53.4202377680286 
! Gamma         0                0                0                0                
! Port Impedance         50               0                50               0                
75.2                           0.193135590875936 -54.2520188793864 0.962759389560862 -144.797806220031 0.96275938956086 -144.797806220031 0.193159811137719 -53.6028744942934 
! Gamma         0                0                0                0                
! Port Impedance         50               0                50               0                
75.3                           0.192021465823609 -54.4388223445905 0.962953442324868 -145.000041739781 0.962953442324866 -145.000041739781 0.192046257831846 -53.785369047455 
! Gamma         0                0                0                0                
! Port Impedance         50               0                50               0                
75.4                           0.190904501006634 -54.625533687172 0.963146702961593 -145.202366166438 0.963146702961591 -145.202366166438 0.190929873234694 -53.9677164977962 
! Gamma         0                0                0                0                
! Port Impedance         50               0                50               0                
75.5                           0.189784710082269 -54.812148946068 0.963339160215714 -145.404779173454 0.963339160215712 -145.404779173454 0.189810671167869 -54.1499117879297 
! Gamma         0                0                0                0                
! Port Impedance         50               0                50               0                
75.6                           0.188662106822891 -54.9986640577462 0.963530802858953 -145.607280429247 0.963530802858951 -145.607280429247 0.188688665572464 -54.331949728694 
! Gamma         0                0                0                0                
! Port Impedance         50               0                50               0                
75.7                           0.187536705116202 -55.1850748529179 0.963721619690933 -145.809869597208 0.963721619690931 -145.809869597208 0.187563870509422 -54.5138249948818 
! Gamma         0                0                0                0                
! Port Impedance         50               0                50               0                
75.8                           0.186408518965438 -55.3713770531179 0.963911599540035 -146.012546335711 0.963911599540033 -146.012546335711 0.186436300159896 -54.6955321207947 
! Gamma         0                0                0                0                
! Port Impedance         50               0                50               0                
75.9                           0.185277562489581 -55.5575662671419 0.964100731264264 -146.215310298125 0.964100731264263 -146.215310298125 0.185305968825618 -54.877065495617 
! Gamma         0                0                0                0                
! Port Impedance         50               0                50               0                
76                             0.184143849923561 -55.7436379873381 0.964289003752111 -146.418161132817 0.96428900375211 -146.418161132816 0.184172890929272 -55.058419358596 
! Gamma         0                0                0                0                
! Port Impedance         50               0                50               0                
76.1                           0.183007395618464 -55.9295875857438 0.96447640592342 -146.621098483169 0.964476405923418 -146.621098483168 0.183037081014872 -55.2395877940239 
! Gamma         0                0                0                0                
! Port Impedance         50               0                50               0                
76.2                           0.181868214041733 -56.1154103100594 0.964662926730251 -146.824121987586 0.964662926730249 -146.824121987586 0.181898553748149 -55.4205647260084 
! Gamma         0                0                0                0                
! Port Impedance         50               0                50               0                
76.3                           0.180726319777376 -56.3011012794527 0.964848555157758 -147.027231279507 0.964848555157756 -147.027231279507 0.180757323916945 -55.6013439130233 
! Gamma         0                0                0                0                
! Port Impedance         50               0                50               0                
76.4                           0.179581727526169 -56.486655480185 0.965033280225051 -147.230425987419 0.965033280225049 -147.230425987419 0.179613406431612 -55.7819189422274 
! Gamma         0                0                0                0                
! Port Impedance         50               0                50               0                
76.5                           0.178434452105863 -56.6720677610482 0.965217090986076 -147.433705734864 0.965217090986074 -147.433705734864 0.178466816325425 -55.9622832235404 
! Gamma         0                0                0                0                
! Port Impedance         50               0                50               0                
76.6                           0.177284508451386 -56.8573328286067 0.965399976530483 -147.637070140457 0.965399976530482 -147.637070140456 0.177317568755002 -56.1424299834633 
! Gamma         0                0                0                0                
! Port Impedance         50               0                50               0                
76.7                           0.176131911615061 -57.0424452422309 0.965581925984508 -147.840518817894 0.965581925984507 -147.840518817894 0.176165679000735 -56.3223522586308 
! Gamma         0                0                0                0                
! Port Impedance         50               0                50               0                
76.8                           0.174976676766807 -57.2273994089139 0.965762928511842 -148.044051375971 0.96576292851184 -148.044051375971 0.175011162467239 -56.5020428890821 
! Gamma         0                0                0                0                
! Port Impedance         50               0                50               0                
76.9                           0.173818819194364 -57.4121895778585 0.965942973314513 -148.247667418593 0.965942973314511 -148.247667418593 0.173854034683808 -56.6814945112346 
! Gamma         0                0                0                0                
! Port Impedance         50               0                50               0                
77                             0.172658354303504 -57.5968098348245 0.966122049633763 -148.451366544789 0.966122049633762 -148.451366544788 0.172694311304886 -56.8606995505466 
! Gamma         0                0                0                0                
! Port Impedance         50               0                50               0                
77.1                           0.171495297618259 -57.7812540962222 0.96630014675093 -148.655148348728 0.966300146750929 -148.655148348728 0.171532008110558 -57.0396502138516 
! Gamma         0                0                0                0                
! Port Impedance         50               0                50               0                
77.2                           0.17032966478115 -57.9655161029387 0.966477253988325 -148.859012419734 0.966477253988322 -148.859012419734 0.17036714100706 -57.2183384813476 
! Gamma         0                0                0                0                
! Port Impedance         50               0                50               0                
77.3                           0.169161471553421 -58.1495894138845 0.966653360710109 -149.062958342301 0.966653360710108 -149.062958342301 0.169199726027299 -57.3967560982229 
! Gamma         0                0                0                0                
! Port Impedance         50               0                50               0                
77.4                           0.167990733815284 -58.3334673992434 0.966828456323186 -149.266985696109 0.966828456323185 -149.266985696109 0.168029779331406 -57.5748945658989 
! Gamma         0                0                0                0                
! Port Impedance         50               0                50               0                
77.5                           0.166817467566168 -58.517143233411 0.967002530278072 -149.47109405604 0.96700253027807 -149.47109405604 0.166857317207298 -57.75274513287  
! Gamma         0                0                0                0                
! Port Impedance         50               0                50               0                
77.6                           0.165641688924985 -58.7006098876045 0.967175572069781 -149.675282992196 0.96717557206978 -149.675282992196 0.165682356071278 -57.9302987851177 
! Gamma         0                0                0                0                
! Port Impedance         50               0                50               0                
77.7                           0.164463414130396 -58.8838601221256 0.967347571238709 -149.879552069915 0.967347571238708 -149.879552069915 0.164504912468648 -58.1075462360765 
! Gamma         0                0                0                0                
! Port Impedance         50               0                50               0                
77.8                           0.163282659541097 -59.0668864782578 0.967518517371515 -150.08390084979 0.967518517371514 -150.08390084979 0.163325003074362 -58.2844779161271 
! Gamma         0                0                0                0                
! Port Impedance         50               0                50               0                
77.9                           0.162099441636115 -59.2496812697776 0.967688400101999 -150.288328887685 0.967688400101997 -150.288328887685 0.162142644693697 -58.4610839615898 
! Gamma         0                0                0                0                
! Port Impedance         50               0                50               0                
78                             0.160913777015119 -59.432236574058 0.967857209111986 -150.492835734758 0.967857209111985 -150.492835734758 0.160957854262969 -58.6373542031909 
! Gamma         0                0                0                0                
! Port Impedance         50               0                50               0                
78.1                           0.159725682398747 -59.6145442227407 0.96802493413221 -150.697420937475 0.968024934132208 -150.697420937474 0.159770648850279 -58.8132781539729 
! Gamma         0                0                0                0                
! Port Impedance         50               0                50               0                
78.2                           0.158535174628948 -59.796595791954 0.968191564943186 -150.902084037632 0.968191564943184 -150.902084037632 0.158581045656287 -58.9888449966155 
! Gamma         0                0                0                0                
! Port Impedance         50               0                50               0                
78.3                           0.157342270669349 -59.9783825920483 0.968357091376099 -151.106824572376 0.968357091376098 -151.106824572376 0.157389062015049 -59.164043570135 
! Gamma         0                0                0                0                
! Port Impedance         50               0                50               0                
78.4                           0.156146987605635 -60.159895656823 0.968521503313677 -151.311642074224 0.968521503313675 -151.311642074224 0.156194715394873 -59.3388623559263 
! Gamma         0                0                0                0                
! Port Impedance         50               0                50               0                
78.5                           0.154949342645956 -60.3411257322141 0.96868479069107 -151.516536071084 0.968684790691069 -151.516536071083 0.15499802339924 -59.513289463108 
! Gamma         0                0                0                0                
! Port Impedance         50               0                50               0                
78.6                           0.153749353121364 -60.5220632644116 0.968846943496731 -151.721506086275 0.96884694349673 -151.721506086275 0.153799003767764 -59.6873126131313 
! Gamma         0                0                0                0                
! Port Impedance         50               0                50               0                
78.7                           0.152547036486264 -60.7026983873719 0.969007951773286 -151.926551638552 0.969007951773285 -151.926551638552 0.152597674377216 -59.8609191236084 
! Gamma         0                0                0                0                
! Port Impedance         50               0                50               0                
78.8                           0.151342410318908 -60.88302090969  0.969167805618411 -152.131672242126 0.96916780561841 -152.131672242126 0.151394053242594 -60.0340958913141 
! Gamma         0                0                0                0                
! Port Impedance         50               0                50               0                
78.9                           0.15013549232191 -61.0630203007924 0.969326495185707 -152.336867406688 0.969326495185705 -152.336867406688 0.150188158518265 -60.2068293743107 
! Gamma         0                0                0                0                
! Port Impedance         50               0                50               0                
79                             0.148926300322804 -61.2426856764092 0.969484010685567 -152.542136637429 0.969484010685566 -152.542136637429 0.14898000849917 -60.3791055731435 
! Gamma         0                0                0                0                
! Port Impedance         50               0                50               0                
79.1                           0.147714852274631 -61.4220057832819 0.969640342386052 -152.747479435067 0.96964034238605 -152.747479435067 0.1477696216221  -60.5509100110501 
! Gamma         0                0                0                0                
! Port Impedance         50               0                50               0                
79.2                           0.146501166256577 -61.6009689830587 0.969795480613753 -152.95289529587 0.969795480613751 -152.95289529587 0.146557016467047 -60.7222277131221 
! Gamma         0                0                0                0                
! Port Impedance         50               0                50               0                
79.3                           0.145285260474641 -61.7795632353275 0.96994941575466 -153.15838371168 0.969949415754658 -153.15838371168 0.14534221175864 -60.8930431843548 
! Gamma         0                0                0                0                
! Port Impedance         50               0                50               0                
79.4                           0.144067153262365 -61.9577760797314 0.970102138255026 -153.363944169939 0.970102138255024 -153.363944169939 0.144125226367671 -61.0633403865146 
! Gamma         0                0                0                0                
! Port Impedance         50               0                50               0                
79.5                           0.142846863081601 -62.135594617109 0.970253638622227 -153.569576153712 0.970253638622225 -153.569576153712 0.142906079312708 -61.2331027137501 
! Gamma         0                0                0                0                
! Port Impedance         50               0                50               0                
79.6                           0.141624408523342 -62.3130054895968 0.970403907425623 -153.775279141715 0.970403907425621 -153.775279141715 0.141684789761815 -61.4023129668655 
! Gamma         0                0                0                0                
! Port Impedance         50               0                50               0                
79.7                           0.140399808308612 -62.4899948596264 0.970552935297414 -153.98105260834 0.970552935297412 -153.98105260834 0.140461377034378 -61.570953326171 
! Gamma         0                0                0                0                
! Port Impedance         50               0                50               0                
79.8                           0.139173081289415 -62.6665483877448 0.970700712933492 -154.186896023682 0.970700712933491 -154.186896023682 0.139235860603051 -61.7390053228174 
! Gamma         0                0                0                0                
! Port Impedance         50               0                50               0                
79.9                           0.137944246449758 -62.8426512091791 0.970847231094297 -154.392808853569 0.970847231094296 -154.392808853569 0.138008260095823 -61.9064498085157 
! Gamma         0                0                0                0                
! Port Impedance         50               0                50               0                
80                             0.136713322906743 -63.0182879090637 0.970992480605661 -154.598790559582 0.970992480605659 -154.598790559582 0.136778595298218 -62.073266923534 
! Gamma         0                0                0                0                
! Port Impedance         50               0                50               0                
80.1                           0.135480329911749 -63.1934424962384 0.971136452359654 -154.804840599092 0.971136452359653 -154.804840599092 0.135546886155644 -62.2394360628574 
! Gamma         0                0                0                0                
! Port Impedance         50               0                50               0                
80.2                           0.134245286851686 -63.3680983755224 0.97127913731543 -155.010958425282 0.971279137315428 -155.010958425282 0.13431315277589 -62.4049358403867 
! Gamma         0                0                0                0                
! Port Impedance         50               0                50               0                
80.3                           0.133008213250361 -63.5422383183574 0.971420526500058 -155.217143487179 0.971420526500057 -155.217143487179 0.133077415431795 -62.5697440510414 
! Gamma         0                0                0                0                
! Port Impedance         50               0                50               0                
80.4                           0.131769128769925 -63.71584443171  0.971560611009364 -155.423395229682 0.971560611009362 -155.423395229682 0.13183969456409 -62.7338376306243 
! Gamma         0                0                0                0                
! Port Impedance         50               0                50               0                
80.5                           0.130528053212444 -63.8888981251089 0.971699382008762 -155.629713093592 0.97169938200876 -155.629713093592 0.130600010784436 -62.8971926132913 
! Gamma         0                0                0                0                
! Port Impedance         50               0                50               0                
80.6                           0.129285006521583 -64.0613800756873 0.971836830734076 -155.836096515643 0.971836830734075 -155.836096515643 0.12935838487866 -63.0597840864581 
! Gamma         0                0                0                0                
! Port Impedance         50               0                50               0                
80.7                           0.12804000878441 -64.2332701910882 0.971972948492373 -156.04254492853 0.971972948492371 -156.04254492853 0.128114837810222 -63.2215861429631 
! Gamma         0                0                0                0                
! Port Impedance         50               0                50               0                
80.8                           0.126793080233345 -64.4045475700781 0.972107726662773 -156.249057760945 0.972107726662771 -156.249057760945 0.126869390723913 -63.3825718302894 
! Gamma         0                0                0                0                
! Port Impedance         50               0                50               0                
80.9                           0.125544241248254 -64.5751904607023 0.972241156697271 -156.455634437602 0.97224115669727 -156.455634437602 0.12562206494981 -63.542713096634 
! Gamma         0                0                0                0                
! Port Impedance         50               0                50               0                
81                             0.124293512358697 -64.7451762158032 0.97237323012155 -156.662274379275 0.972373230121548 -156.662274379275 0.12437288200751 -63.7019807335926 
! Gamma         0                0                0                0                
! Port Impedance         50               0                50               0                
81.1                           0.123040914246359 -64.9144812457031 0.97250393853578 -156.868977002826 0.972503938535778 -156.868977002826 0.123121863610658 -63.8603443152124 
! Gamma         0                0                0                0                
! Port Impedance         50               0                50               0                
81.2                           0.121786467747653 -65.0830809678405 0.972633273615427 -157.075741721239 0.972633273615425 -157.075741721239 0.121869031671796 -64.0177721331395 
! Gamma         0                0                0                0                
! Port Impedance         50               0                50               0                
81.3                           0.120530193856534 -65.2509497531297 0.97276122711205 -157.282567943655 0.972761227112049 -157.282567943655 0.120614408307558 -64.174231127569 
! Gamma         0                0                0                0                
! Port Impedance         50               0                50               0                
81.4                           0.11927211372753 -65.4180608687895 0.97288779085409 -157.489455075402 0.972887790854089 -157.489455075402 0.119358015844239 -64.3296868136765 
! Gamma         0                0                0                0                
! Port Impedance         50               0                50               0                
81.5                           0.118012248678998 -65.5843864173713 0.973012956747662 -157.696402518032 0.97301295674766 -157.696402518032 0.118099876823762 -64.4841032031838 
! Gamma         0                0                0                0                
! Port Impedance         50               0                50               0                
81.6                           0.116750620196648 -65.7498972716858 0.973136716777333 -157.903409669355 0.973136716777332 -157.903409669355 0.116840014010087 -64.6374427206799 
! Gamma         0                0                0                0                
! Port Impedance         50               0                50               0                
81.7                           0.115487249937332 -65.9145630053053 0.973259063006904 -158.110475923471 0.973259063006902 -158.110475923471 0.115578450396082 -64.7896661142853 
! Gamma         0                0                0                0                
! Port Impedance         50               0                50               0                
81.8                           0.11422215973314 -66.0783518182859 0.973379987580177 -158.317600670809 0.973379987580176 -158.317600670809 0.114315209210914 -64.9407323602079 
! Gamma         0                0                0                0                
! Port Impedance         50               0                50               0                
81.9                           0.11295537159581 -66.2412304577237 0.973499482721726 -158.524783298161 0.973499482721724 -158.524783298161 0.113050313927978 -65.0905985607015 
! Gamma         0                0                0                0                
! Port Impedance         50               0                50               0                
82                             0.111686907721504 -66.4031641327202 0.973617540737654 -158.732023188717 0.973617540737652 -158.732023188717 0.111783788273435 -65.2392198348874 
! Gamma         0                0                0                0                
! Port Impedance         50               0                50               0                
82.1                           0.110416790495947 -66.5641164232941 0.973734154016348 -158.939319722103 0.973734154016346 -158.939319722103 0.110515656235388 -65.3865492018534 
! Gamma         0                0                0                0                
! Port Impedance         50               0                50               0                
82.2                           0.109145042500001 -66.7240491827311 0.973849315029231 -159.146672274416 0.973849315029229 -159.146672274416 0.10924594207377 -65.5325374553865 
! Gamma         0                0                0                0                
! Port Impedance         50               0                50               0                
82.3                           0.107871686515679 -66.8829224328154 0.973963016331499 -159.354080218264 0.973963016331497 -159.354080218264 0.107974670330987 -65.6771330296347 
! Gamma         0                0                0                0                
! Port Impedance         50               0                50               0                
82.4                           0.106596745532646 -67.0406942513305 0.974075250562864 -159.5615429228  0.974075250562862 -159.5615429228  0.106701865843393 -65.8202818549239 
! Gamma         0                0                0                0                
! Port Impedance         50               0                50               0                
82.5                           0.105320242755272 -67.197320651156 0.974186010448277 -159.769059753765 0.974186010448275 -159.769059753765 0.105427553753673 -65.9619272028809 
! Gamma         0                0                0                0                
! Port Impedance         50               0                50               0                
82.6                           0.104042201610249 -67.3527554502219 0.974295288798658 -159.97663007352 0.974295288798657 -159.97663007352 0.104151759524204 -66.1020095199281 
! Gamma         0                0                0                0                
! Port Impedance         50               0                50               0                
82.7                           0.102762645754861 -67.5069501315048 0.974403078511609 -160.184253241089 0.974403078511607 -160.18425324109 0.102874508951485 -66.2404662481226 
! Gamma         0                0                0                0                
! Port Impedance         50               0                50               0                
82.8                           0.101481599085941 -67.6598536921643 0.974509372572124 -160.3919286122  0.974509372572122 -160.3919286122  0.101595828181745 -66.3772316322054 
! Gamma         0                0                0                0                
! Port Impedance         50               0                50               0                
82.9                           0.10019908574959 -67.8114124808298 0.974614164053294 -160.599655539316 0.974614164053292 -160.599655539316 0.100315743727817 -66.5122365116117 
! Gamma         0                0                0                0                
! Port Impedance         50               0                50               0                
83                             0.0989151301517325 -67.9615700219366 0.974717446117003 -160.807433371686 0.974717446117001 -160.807433371686 0.0990342824874201 -66.6454080960604 
! Gamma         0                0                0                0                
! Port Impedance         50               0                50               0                
83.1                           0.0976297569695747 -68.1102668258965 0.974819212014614 -161.015261455377 0.974819212014612 -161.015261455377 0.0977514717629556 -66.7766697231972 
! Gamma         0                0                0                0                
! Port Impedance         50               0                50               0                
83.2                           0.0963429911640772 -68.2574401837552 0.974919455087656 -161.223139133319 0.974919455087654 -161.223139133319 0.096467339282989 -66.905940596598 
! Gamma         0                0                0                0                
! Port Impedance         50               0                50               0                
83.3                           0.0950548579935114 -68.4030239448393 0.975018168768493 -161.431065745341 0.975018168768492 -161.431065745341 0.095181913225558 -67.03313550226  
! Gamma         0                0                0                0                
! Port Impedance         50               0                50               0                
83.4                           0.0937653830282346 -68.5469482757304 0.975115346580997 -161.639040628221 0.975115346580995 -161.639040628221 0.0938952222435041 -67.1581645014964 
! Gamma         0                0                0                0                
! Port Impedance         50               0                50               0                
83.5                           0.0924745921667847 -68.6891393987153 0.975210982141196 -161.847063115717 0.975210982141194 -161.847063115717 0.0926072954920119 -67.2809325979231 
! Gamma         0                0                0                0                
! Port Impedance         50               0                50               0                
83.6                           0.0911825116534443 -68.8295193076481 0.975305069157939 -162.055132538619 0.975305069157937 -162.055132538619 0.0913181626585932 -67.4013393759588 
! Gamma         0                0                0                0                
! Port Impedance         50               0                50               0                
83.7                           0.0898891680974184 -68.9680054589216 0.975397601433531 -162.263248224784 0.97539760143353 -162.263248224784 0.0900278539957562 -67.5192786079682 
! Gamma         0                0                0                0                
! Port Impedance         50               0                50               0                
83.8                           0.0885945884937931 -69.1045104349721 0.975488572864371 -162.471409499182 0.975488572864369 -162.471409499182 0.0887364003566398 -67.6346378268417 
! Gamma         0                0                0                0                
! Port Impedance         50               0                50               0                
83.9                           0.0872988002464708 -69.2389415774343 0.975577977441576 -162.679615683939 0.975577977441574 -162.679615683939 0.0874438332339264 -67.7472978604257 
! Gamma         0                0                0                0                
! Port Impedance         50               0                50               0                
84                             0.0860018311932884 -69.3712005867132 0.975665809251605 -162.88786609838 0.975665809251604 -162.88786609838 0.086150184802379 -67.8571323237919 
! Gamma         0                0                0                0                
! Port Impedance         50               0                50               0                
84.1                           0.0847037096335592 -69.5011830843396 0.975752062476867 -163.096160059072 0.975752062476865 -163.096160059072 0.0848554879653951 -67.9640070648412 
! Gamma         0                0                0                0                
! Port Impedance         50               0                50               0                
84.2                           0.0834044643583108 -69.6287781340212 0.975836731396321 -163.30449687987 0.975836731396319 -163.30449687987 0.0835597764060205 -68.0677795581864 
! Gamma         0                0                0                0                
! Port Impedance         50               0                50               0                
84.3                           0.0821041246835148 -69.7538677167842 0.975919810386074 -163.512875871959 0.975919810386072 -163.512875871959 0.0822630846429152 -68.1682982416243 
! Gamma         0                0                0                0                
! Port Impedance         50               0                50               0                
84.4                           0.0808027204866566 -69.8763261550006 0.976001293919962 -163.7212963439  0.97600129391996 -163.7212963439  0.0809654480918316 -68.2654017887832 
! Gamma         0                0                0                0                
! Port Impedance         50               0                50               0                
84.5                           0.0795002822470317 -69.9960194794184 0.976081176570128 -163.929757601675 0.976081176570126 -163.929757601675 0.0796669031332412 -68.3589183107065 
! Gamma         0                0                0                0                
! Port Impedance         50               0                50               0                
84.6                           0.0781968410902078 -70.1128047325234 0.976159453007586 -164.138258948733 0.976159453007585 -164.138258948733 0.0783674871868242 -68.4486644781832 
! Gamma         0                0                0                0                
! Port Impedance         50               0                50               0                
84.7                           0.0768924288371506 -70.2265292006594 0.976236118002785 -164.346799686032 0.976236118002783 -164.346799686032 0.0770672387936315 -68.5344445555461 
! Gamma         0                0                0                0                
! Port Impedance         50               0                50               0                
84.8                           0.0755870780585863 -70.3370295662889 0.976311166426149 -164.55537911209 0.976311166426147 -164.55537911209 0.0757661977068538 -68.616049335404 
! Gamma         0                0                0                0                
! Port Impedance         50               0                50               0                
84.9                           0.0742808221352467 -70.4441309705683 0.976384593248623 -164.763996523029 0.976384593248622 -164.763996523029 0.0744644049922381 -68.6932549623267 
! Gamma         0                0                0                0                
! Port Impedance         50               0                50               0                
85                             0.0729736953247428 -70.5476459750099 0.976456393542203 -164.972651212619 0.976456393542201 -164.972651212619 0.0731619031393645 -68.765821631825 
! Gamma         0                0                0                0                
! Port Impedance         50               0                50               0                
85.1                           0.0716657328359133 -70.6473734093761 0.976526562480451 -165.18134247233 0.97652656248045 -165.18134247233 0.0718587361851551 -68.8334921490327 
! Gamma         0                0                0                0                
! Port Impedance         50               0                50               0                
85.2                           0.070356970911634 -70.7430970910474 0.976595095339012 -165.390069591372 0.976595095339009 -165.390069591372 0.0705549498511905 -68.8959903292381 
! Gamma         0                0                0                0                
! Port Impedance         50               0                50               0                
85.3                           0.0690474469212041 -70.8345843988935 0.976661987496109 -165.598831856752 0.976661987496107 -165.598831856751 0.0692505916966507 -68.9530192197951 
! Gamma         0                0                0                0                
! Port Impedance         50               0                50               0                
85.4                           0.067737199463622 -70.9215846820693 0.976727234433044 -165.80762855331 0.976727234433042 -165.80762855331 0.0679457112889658 -69.0042591198793 
! Gamma         0                0                0                0                
! Port Impedance         50               0                50               0                
85.5                           0.066426268483244 -71.0038274811091 0.976790831734668 -166.016458963777 0.976790831734666 -166.016458963777 0.0666403603945873 -69.0493653709722 
! Gamma         0                0                0                0                
! Port Impedance         50               0                50               0                
85.6                           0.0651146953995824 -71.0810205350903 0.976852775089862 -166.225322368818 0.97685277508986 -166.225322368818 0.0653345931926753 -69.0879658867588 
! Gamma         0                0                0                0                
! Port Impedance         50               0                50               0                
85.7                           0.0638025232532727 -71.1528475443839 0.976913060291991 -166.434218047079 0.97691306029199 -166.434218047079 0.0640284665149396 -69.1196583861791 
! Gamma         0                0                0                0                
! Port Impedance         50               0                50               0                
85.8                           0.0624897968705782 -71.2189656534738 0.976971683239366 -166.643145275243 0.976971683239364 -166.643145275243 0.0627220401154015 -69.1440072875525 
! Gamma         0                0                0                0                
! Port Impedance         50               0                50               0                
85.9                           0.0611765630492206 -71.2790026123288 0.97702863993567 -166.852103328068 0.977028639935668 -166.852103328068 0.0614153769744855 -69.1605402147998 
! Gamma         0                0                0                0                
! Port Impedance         50               0                50               0                
86                             0.0598628707687855 -71.3325535676693 0.977083926490402 -167.061091478445 0.9770839264904  -167.061091478445 0.0601085436425821 -69.1687440586218 
! Gamma         0                0                0                0                
! Port Impedance         50               0                50               0                
86.1                           0.0585487714295563 -71.3791774269144 0.977137539119291 -167.270108997444 0.97713753911929 -167.270108997444 0.0588016106291365 -69.1680605257754 
! Gamma         0                0                0                0                
! Port Impedance         50               0                50               0                
86.2                           0.057234319124305 -71.4183927273272 0.977189474144709 -167.479155154364 0.977189474144706 -167.479155154364 0.0574946528443733 -69.1578810979942 
! Gamma         0                0                0                0                
! Port Impedance         50               0                50               0                
86.3                           0.0559195709484357 -71.4496729304969 0.977239727996063 -167.68822921678 0.977239727996061 -167.68822921678 0.0561877501020753 -69.1375413082312 
! Gamma         0                0                0                0                
! Port Impedance         50               0                50               0                
86.4                           0.0546045873548782 -71.4724410473249 0.977288297210196 -167.897330450598 0.977288297210195 -167.897330450598 0.054880987693376 -69.1063142252486 
! Gamma         0                0                0                0                
! Port Impedance         50               0                50               0                
86.5                           0.0532894325613926 -71.4860634805019 0.977335178431754 -168.106458120102 0.977335178431751 -168.106458120102 0.0535744570434212 -69.0634030175197 
! Gamma         0                0                0                0                
! Port Impedance         50               0                50               0                
86.6                           0.0519741750194657 -71.489842949298 0.977380368413556 -168.315611488004 0.977380368413554 -168.315611488004 0.0522682564650473 -69.0079324431772 
! Gamma         0                0                0                0                
! Port Impedance         50               0                50               0                
86.7                           0.0506588879558437 -71.4830103343552 0.977423864016954 -168.524789815498 0.977423864016952 -168.524789815498 0.0509624920264137 -68.9389390833483 
! Gamma         0                0                0                0                
! Port Impedance         50               0                50               0                
86.8                           0.0493436500000779 -71.4647152468135 0.977465662212173 -168.733992362305 0.97746566221217 -168.733992362305 0.0496572785529681 -68.8553601004611 
! Gamma         0                0                0                0                
! Port Impedance         50               0                50               0                
86.9                           0.0480285459143062 -71.4340150849051 0.977505760078647 -168.94321838673 0.977505760078645 -168.94321838673 0.0483527407883391 -68.7560202594417 
! Gamma         0                0                0                0                
! Port Impedance         50               0                50               0                
87                             0.0467136674450832 -71.3898622900468 0.977544154805345 -169.15246714571 0.977544154805343 -169.15246714571 0.0470490147439647 -68.6396168962078 
! Gamma         0                0                0                0                
! Port Impedance         50               0                50               0                
87.1                           0.0453991143215327 -71.3310894507481 0.977580843691077 -169.361737894865 0.977580843691075 -169.361737894865 0.0457462492737472 -68.5047024520464 
! Gamma         0                0                0                0                
! Port Impedance         50               0                50               0                
87.2                           0.044084995429746 -71.2563918228467 0.977615824144799 -169.57102988855 0.977615824144797 -169.57102988855 0.0444446079181116 -68.349664111214 
! Gamma         0                0                0                0                
! Port Impedance         50               0                50               0                
87.3                           0.0427714302004828 -71.1643067340775 0.977649093685902 -169.780342379909 0.9776490936859  -169.780342379909 0.0431442710719585 -68.1726999784228 
! Gamma         0                0                0                0                
! Port Impedance         50               0                50               0                
87.4                           0.0414585502563306 -71.0531892137672 0.977680649944489 -169.989674620922 0.977680649944487 -169.989674620922 0.0418454385437761 -67.9717911076974 
! Gamma         0                0                0                0                
! Port Impedance         50               0                50               0                
87.5                           0.0401465013761389 -70.9211830265042 0.97771049066164 -170.199025862461 0.977710490661638 -170.199025862461 0.0405483325893146 -67.7446685378644 
! Gamma         0                0                0                0                
! Port Impedance         50               0                50               0                
87.6                           0.0388354458496042 -70.7661860813395 0.977738613689671 -170.408395354341 0.977738613689669 -170.408395354341 0.0392532015237875 -67.4887742943369 
! Gamma         0                0                0                0                
! Port Impedance         50               0                50               0                
87.7                           0.0375255653144136 -70.5858089211604 0.977765016992375 -170.617782345372 0.977765016992373 -170.617782345372 0.0379603240428475 -67.2012150711445 
! Gamma         0                0                0                0                
! Port Impedance         50               0                50               0                
87.8                           0.0362170641939505 -70.3773246511437 0.977789698645254 -170.827186083411 0.977789698645252 -170.827186083411 0.0366700144164159 -66.8787069976551 
! Gamma         0                0                0                0                
! Port Impedance         50               0                50               0                
87.9                           0.0349101738872578 -70.137608214613 0.977812656835741 -171.036605815415 0.977812656835739 -171.036605815415 0.0353826287631676 -66.5175095036286 
! Gamma         0                0                0                0                
! Port Impedance         50               0                50               0                
88                             0.0336051579077194 -69.863062333755 0.977833889863409 -171.246040787493 0.977833889863406 -171.246040787493 0.0340985726703453 -66.1133458019942 
! Gamma         0                0                0                0                
! Port Impedance         50               0                50               0                
88.1                           0.0323023182268532 -69.5495266529776 0.977853396140165 -171.45549024496 0.977853396140163 -171.45549024496 0.0328183104979448 -65.6613068832728 
! Gamma         0                0                0                0                
! Port Impedance         50               0                50               0                
88.2                           0.0310020031604865 -69.1921655874957 0.97787117419044 -171.664953432388 0.977871174190438 -171.664953432388 0.0315423768039994 -65.1557351246865 
! Gamma         0                0                0                0                
! Port Impedance         50               0                50               0                
88.3                           0.0297046172447408 -68.7853289970294 0.977887222651359 -171.87442959366 0.977887222651358 -171.87442959366 0.0302713904568042 -64.5900826199796 
! Gamma         0                0                0                0                
! Port Impedance         50               0                50               0                
88.4                           0.0284106337005476 -68.3223779471394 0.977901540272906 -172.083917972025 0.977901540272904 -172.083917972025 0.0290060721711575 -63.9567380867803 
! Gamma         0                0                0                0                
! Port Impedance         50               0                50               0                
88.5                           0.027120610295181 -67.7954653132423 0.977914125918071 -172.293417810146 0.977914125918069 -172.293417810146 0.027747266433831 -63.2468146605355 
! Gamma         0                0                0                0                
! Port Impedance         50               0                50               0                
88.6                           0.0258352097028138 -67.1952575836639 0.97792497856299 -172.502928350158 0.977924978562988 -172.502928350158 0.026495969088162 -62.4498890026269 
! Gamma         0                0                0                0                
! Port Impedance         50               0                50               0                
88.7                           0.0245552258806145 -66.5105796007813 0.977934097297072 -172.71244883372 0.977934097297069 -172.71244883372 0.0252533622550032 -61.5536799378379 
! Gamma         0                0                0                0                
! Port Impedance         50               0                50               0                
88.8                           0.0232816185676891 -65.7279577088183 0.977941481323112 -172.921978502066 0.97794148132311 -172.921978502066 0.0240208588110683 -60.5436523873746 
! Gamma         0                0                0                0                
! Port Impedance         50               0                50               0                
88.9                           0.022015558863301 -64.8310283017964 0.977947129957394 -173.131516596062 0.977947129957391 -173.131516596062 0.0228001593676641 -59.4025299723233 
! Gamma         0                0                0                0                
! Port Impedance         50               0                50               0                
89                             0.0207584900705201 -63.7997674494894 0.977951042629781 -173.341062356256 0.977951042629779 -173.341062356256 0.0215933256399916 -58.1096980321287 
! Gamma         0                0                0                0                
! Port Impedance         50               0                50               0                
89.1                           0.0195122097820939 -62.6094825525322 0.977953218883796 -173.550615022935 0.977953218883794 -173.550615022935 0.0204028753120777 -56.6404794430091 
! Gamma         0                0                0                0                
! Port Impedance         50               0                50               0                
89.2                           0.0182789817986228 -61.2294887875255 0.977953658376687 -173.760173836175 0.977953658376685 -173.760173836175 0.0192319049962257 -54.9652715831667 
! Gamma         0                0                0                0                
! Port Impedance         50               0                50               0                
89.3                           0.0170616902690287 -59.6213730971185 0.97795236087948 -173.969738035897 0.977952360879479 -173.969738035897 0.0180842495754604 -53.0485499824677 
! Gamma         0                0                0                0                
! Port Impedance         50               0                50               0                
89.4                           0.0158640538915331 -57.7367328994893 0.977949326277024 -174.17930686192 0.977949326277022 -174.17930686192 0.0169646877874567 -50.8477836072848 
! Gamma         0                0                0                0                
! Port Impedance         50               0                50               0                
89.5                           0.0146909255628311 -55.5142831309798 0.977944554568021 -174.388879554015 0.97794455456802 -174.388879554015 0.0158792045274627 -48.3123878664329 
! Gamma         0                0                0                0                
! Port Impedance         50               0                50               0                
89.6                           0.0135487125428803 -52.8762977837687 0.977938045865046 -174.598455351957 0.977938045865043 -174.598455351957 0.0148353181257555 -45.3829964590349 
! Gamma         0                0                0                0                
! Port Impedance         50               0                50               0                
89.7                           0.0124459623561421 -49.7245932062753 0.977929800394548 -174.80803349558 0.977929800394546 -174.80803349558 0.0138424719114118 -41.9916086377974 
! Gamma         0                0                0                0                
! Port Impedance         50               0                50               0                
89.8                           0.0113941635710715 -45.9368904714985 0.977919818496854 -175.017613224832 0.977919818496852 -175.017613224832 0.0129124665508968 -38.0636129453016 
! Gamma         0                0                0                0                
! Port Impedance         50               0                50               0                
89.9                           0.0104087885840151 -41.365833164175 0.977908100626144 -175.227193779826 0.977908100626142 -175.227193779826 0.0120598617092569 -33.5232969611924 
! Gamma         0                0                0                0                
! Port Impedance         50               0                50               0                
90                             0.00951050944141007 -35.8457960322874 0.977894647350422 -175.436774400894 0.977894647350421 -175.436774400893 0.0113021901015854 -28.3050124368435 
! Gamma         0                0                0                0                
! Port Impedance         50               0                50               0                
90.1                           0.00872625365752492 -29.2170998963682 0.977879459351481 -175.646354328642 0.97787945935148 -175.646354328641 0.0106597047851236 -22.3719678949851 
! Gamma         0                0                0                0                
! Port Impedance         50               0                50               0                
90.2                           0.00808922589619956 -21.380651187116 0.977862537424844 -175.855932804003 0.977862537424841 -175.855932804003 0.0101542715448293 -15.7422423324837 
! Gamma         0                0                0                0                
! Port Impedance         50               0                50               0                
90.3                           0.00763631534416145 -12.3876961977089 0.977843882479696 -176.065509068292 0.977843882479694 -176.065509068292 0.00980706751173921 -8.51564103995721 
! Gamma         0                0                0                0                
! Port Impedance         50               0                50               0                
90.4                           0.00740133527588287 -2.53229455043377 0.977823495538814 -176.275082363257 0.977823495538812 -176.275082363257 0.00963516372474305 -0.886984358088365 
! Gamma         0                0                0                0                
! Port Impedance         50               0                50               0                
90.5                           0.00740498011357096 7.63956554944491 0.977801377738475 -176.484651931133 0.977801377738473 -176.484651931133 0.00964787256292319 6.8707782919158  
! Gamma         0                0                0                0                
! Port Impedance         50               0                50               0                
90.6                           0.00764681366230964 17.473285788173  0.977777530328352 -176.694217014697 0.977777530328351 -176.694217014697 0.00984440500905842 14.4570802032414 
! Gamma         0                0                0                0                
! Port Impedance         50               0                50               0                
90.7                           0.0081054392480228 26.4299990628642 0.977751954671405 -176.90377685732 0.977751954671404 -176.90377685732 0.0102140719086488 21.6077631588683 
! Gamma         0                0                0                0                
! Port Impedance         50               0                50               0                
90.8                           0.00874670983458851 34.2248678090965 0.977724652243753 -177.113330703021 0.977724652243752 -177.113330703021 0.0107389174625548 28.1414577162044 
! Gamma         0                0                0                0                
! Port Impedance         50               0                50               0                
90.9                           0.00953372509619647 40.8134892504929 0.977695624634539 -177.322877796521 0.977695624634538 -177.322877796521 0.0113974272069596 33.9714266995601 
! Gamma         0                0                0                0                
! Port Impedance         50               0                50               0                
91                             0.0104334381024427 46.298340012144  0.97766487354578 -177.532417383295 0.977664873545778 -177.532417383295 0.0121678180850278 39.0892226310622 
! Gamma         0                0                0                0                
! Port Impedance         50               0                50               0                
91.1                           0.0114191231231339 50.8399970797805 0.977632400792207 -177.741948709625 0.977632400792205 -177.741948709625 0.0130301566987188 43.5372437139995 
! Gamma         0                0                0                0                
! Port Impedance         50               0                50               0                
91.2                           0.0124702919512707 54.6037264563704 0.977598208301094 -177.951471022653 0.977598208301093 -177.951471022653 0.0139673169158652 47.3835463326941 
! Gamma         0                0                0                0                
! Port Impedance         50               0                50               0                
91.3                           0.013571619151478 57.7360737580716 0.977562298112076 -178.160983570436 0.977562298112074 -178.160983570436 0.0149651413855733 50.704213310381  
! Gamma         0                0                0                0                
! Port Impedance         50               0                50               0                
91.4                           0.014711726918697 60.3584522671803 0.977524672376946 -178.370485601996 0.977524672376945 -178.370485601996 0.0160121848514575 53.5731422879677 
! Gamma         0                0                0                0                
! Port Impedance         50               0                50               0                
91.5                           0.0158821491245743 62.5682795372119 0.977485333359457 -178.579976367375 0.977485333359455 -178.579976367375 0.0170992996760616 56.0571602097766 
! Gamma         0                0                0                0                
! Port Impedance         50               0                50               0                
91.6                           0.0170765378617475 64.4426541663385 0.977444283435097 -178.789455117687 0.977444283435095 -178.789455117687 0.018219205573563 58.2143525217449 
! Gamma         0                0                0                0                
! Port Impedance         50               0                50               0                
91.7                           0.0182900835913154 66.0423654169945 0.97740152509086 -178.998921105168 0.977401525090858 -178.998921105168 0.019366105974419 60.0940906948269 
! Gamma         0                0                0                0                
! Port Impedance         50               0                50               0                
91.8                           0.0195190995154728 67.4154302196816 0.977357060925008 -179.208373583234 0.977357060925007 -179.208373583234 0.0205353699386721 61.7378322831918 
! Gamma         0                0                0                0                
! Port Impedance         50               0                50               0                
91.9                           0.0207607251938543 68.5999632448696 0.977310893646813 -179.417811806527 0.977310893646813 -179.417811806527 0.0217232783212848 63.1801859217771 
! Gamma         0                0                0                0                
! Port Impedance         50               0                50               0                
92                             0.0220127146532671 69.6264183198687 0.977263026076297 -179.627235030972 0.977263026076295 -179.627235030972 0.0229268252801822 64.4499885830469 
! Gamma         0                0                0                0                
! Port Impedance         50               0                50               0                
92.1                           0.0232732838751144 70.5193085239949 0.977213461143949 -179.836642513826 0.977213461143947 -179.836642513826 0.0241435645958157 65.5712842853441 
! Gamma         0                0                0                0                
! Port Impedance         50               0                50               0                
92.2                           0.024541000026853 71.2985174681386 0.977162201890446 179.953966486269 0.977162201890444 179.953966486269 0.0253714911192566 66.5641669513737 
! Gamma         0                0                0                0                
! Port Impedance         50               0                50               0                
92.3                           0.0258147001930516 71.9802983361602 0.977109251466349 179.744592709235 0.977109251466348 179.744592709235 0.0266089492939556 67.4454853824905 
! Gamma         0                0                0                0                
! Port Impedance         50               0                50               0                
92.4                           0.027093431117087 72.5780372575839 0.9770546131318  179.535236893503 0.977054613131797 179.535236893504 0.0278545623737536 68.2294233675425 
! Gamma         0                0                0                0                
! Port Impedance         50               0                50               0                
92.5                           0.0283764040462751 73.1028394970157 0.97699829025619 179.325899775969 0.976998290256188 179.325899775969 0.0291071774181961 68.9279728657315 
! Gamma         0                0                0                0                
! Port Impedance         50               0                50               0                
92.6                           0.0296629605421491 73.5639823416202 0.976940286317842 179.116582091935 0.976940286317839 179.116582091935 0.0303658223226229 69.5513183766913 
! Gamma         0                0                0                0                
! Port Impedance         50               0                50               0                
92.7                           0.0309525463324703 73.9692673600588 0.976880604903655 178.907284575062 0.976880604903654 178.907284575062 0.0316296720537098 70.1081488034768 
! Gamma         0                0                0                0                
! Port Impedance         50               0                50               0                
92.8                           0.0322446911206043 74.3252963168799 0.97681924970876 178.698007957319 0.97681924970876 178.698007957319 0.0328980219555139 70.6059106840886 
! Gamma         0                0                0                0                
! Port Impedance         50               0                50               0                
92.9                           0.0335389928517935 74.6376888208736 0.976756224536153 178.488752968932 0.976756224536152 178.488752968932 0.0341702665134686 71.0510142404105 
! Gamma         0                0                0                0                
! Port Impedance         50               0                50               0                
93                             0.0348351053456552 74.911255216793  0.976691533296317 178.279520338332 0.976691533296316 178.279520338332 0.0354458823548758 71.4490015257197 
! Gamma         0                0                0                0                
! Port Impedance         50               0                50               0                
93.1                           0.0361327284944868 75.1501348665018 0.976625180006841 178.070310792107 0.976625180006839 178.070310792107 0.0367244145569565 71.8046841195473 
! Gamma         0                0                0                0                
! Port Impedance         50               0                50               0                
93.2                           0.0374316004344561 75.3579074839097 0.976557168792021 177.861125054952 0.97655716879202 177.861125054952 0.0380054655525921 72.1222563163668 
! Gamma         0                0                0                0                
! Port Impedance         50               0                50               0                
93.3                           0.038731491246469 75.5376833495248 0.976487503882456 177.651963849616 0.976487503882454 177.651963849616 0.0392886860884231 72.4053885445354 
! Gamma         0                0                0                0                
! Port Impedance         50               0                50               0                
93.4                           0.0400321978525113 75.6921768614903 0.976416189614625 177.442827896856 0.976416189614624 177.442827896856 0.040573767814043 72.6573047872271 
! Gamma         0                0                0                0                
! Port Impedance         50               0                50               0                
93.5                           0.041333539853355 75.8237668548788 0.976343230430471 177.233717915386 0.976343230430469 177.233717915386 0.0418604371750331 72.8808470123295 
! Gamma         0                0                0                0                
! Port Impedance         50               0                50               0                
93.6                           0.0426353561128647 75.9345463487796 0.976268630876951 177.024634621828 0.976268630876949 177.024634621828 0.0431484503541366 73.07852901359   
! Gamma         0                0                0                0                
! Port Impedance         50               0                50               0                
93.7                           0.0439375019384624 76.026363795357  0.976192395605597 176.815578730662 0.976192395605595 176.815578730662 0.044437589059665 73.2525815874698 
! Gamma         0                0                0                0                
! Port Impedance         50               0                50               0                
93.8                           0.0452398467407319 76.1008574585884 0.976114529372054 176.606550954179 0.976114529372053 176.606550954179 0.045727657002388 73.4049905922763 
! Gamma         0                0                0                0                
! Port Impedance         50               0                50               0                
93.9                           0.0465422720804721 76.1594842077332 0.976035037035616 176.397552002433 0.976035037035615 176.397552002433 0.0470184769347774 73.537529136774  
! Gamma         0                0                0                0                
! Port Impedance         50               0                50               0                
94                             0.0478446700308865 76.2035437459954 0.975953923558743 176.188582583189 0.975953923558741 176.188582583189 0.048309888151873 73.6517849077277 
! Gamma         0                0                0                0                
! Port Impedance         50               0                50               0                
94.1                           0.0491469417975363 76.2341990893104 0.975871194006577 175.97964340188  0.975871194006576 175.97964340188  0.0496017443728789 73.7491834564768 
! Gamma         0                0                0                0                
! Port Impedance         50               0                50               0                
94.2                           0.0504489965502309 76.252493949593  0.975786853546449 175.770735161556 0.975786853546448 175.770735161556 0.0508939119382382 73.8310081133478 
! Gamma         0                0                0                0                
! Port Impedance         50               0                50               0                
94.3                           0.051750750430065 76.2593675505976 0.975700907447365 175.561858562836 0.975700907447364 175.561858562836 0.0521862682692517 73.8984170774076 
! Gamma         0                0                0                0                
! Port Impedance         50               0                50               0                
94.4                           0.053052125701891 76.2556673048405 0.975613361079496 175.353014303865 0.975613361079495 175.353014303866 0.0534787005471324 73.9524581314653 
! Gamma         0                0                0                0                
! Port Impedance         50               0                50               0                
94.5                           0.054353050028115 76.2421597008407 0.975524219913648 175.144203080263 0.975524219913648 175.144203080263 0.054771104576214 73.9940813534158 
! Gamma         0                0                0                0                
! Port Impedance         50               0                50               0                
94.6                           0.0556534558441365 76.2195396867132 0.975433489520734 174.935425585079 0.975433489520733 174.935425585079 0.0560633838023027 74.0241501311416 
! Gamma         0                0                0                0                
! Port Impedance         50               0                50               0                
94.7                           0.0569532798193106 76.1884387854188 0.975341175571221 174.726682508747 0.97534117557122 174.726682508747 0.057355448462238 74.0434507362301 
! Gamma         0                0                0                0                
! Port Impedance         50               0                50               0                
94.8                           0.0582524623901476 76.1494321360798 0.975247283834587 174.517974539036 0.975247283834584 174.517974539036 0.0586472148448143 74.0527006693407 
! Gamma         0                0                0                0                
! Port Impedance         50               0                50               0                
94.9                           0.0595509473547687 76.10304462265   0.975151820178753 174.309302361008 0.975151820178751 174.309302361008 0.0599386046465534 74.0525559553001 
! Gamma         0                0                0                0                
! Port Impedance         50               0                50               0                
95                             0.0608486815194937 76.0497562242815 0.975054790569514 174.100666656972 0.975054790569512 174.100666656972 0.0612295444085361 74.0436175374213 
! Gamma         0                0                0                0                
! Port Impedance         50               0                50               0                
95.1                           0.0621456143899458 75.9900066997199 0.974956201069962 173.892068106436 0.97495620106996 173.892068106436 0.0625199650227251 74.0264368969638 
! Gamma         0                0                0                0                
! Port Impedance         50               0                50               0                
95.2                           0.063441697900314 75.9241996999992 0.974856057839897 173.683507386064 0.974856057839895 173.683507386064 0.0638098012980626 74.0015210041248 
! Gamma         0                0                0                0                
! Port Impedance         50               0                50               0                
95.3                           0.064736886175407 75.8527063888339 0.974754367135228 173.474985169633 0.974754367135227 173.474985169634 0.065098991578118 73.9693366907357 
! Gamma         0                0                0                0                
! Port Impedance         50               0                50               0                
95.4                           0.0660311353209939 75.7758686378083 0.974651135307374 173.266502127986 0.974651135307373 173.266502127987 0.0663874774033432 73.9303145213204 
! Gamma         0                0                0                0                
! Port Impedance         50               0                50               0                
95.5                           0.0673244032386054 75.6940018532566 0.974546368802647 173.05805892899  0.974546368802645 173.05805892899  0.0676752032120146 73.8848522278745 
! Gamma         0                0                0                0                
! Port Impedance         50               0                50               0                
95.6                           0.0686166494615549 75.6073974832275 0.974440074161631 172.849656237489 0.97444007416163 172.849656237489 0.0689621160748363 73.8333177642436 
! Gamma         0                0                0                0                
! Port Impedance         50               0                50               0                
95.7                           0.0699078350094108 75.5163252458251 0.974332258018556 172.641294715267 0.974332258018555 172.641294715267 0.0702481654588959 73.7760520280136 
! Gamma         0                0                0                0                
! Port Impedance         50               0                50               0                
95.8                           0.0711979222585698 75.4210351142579 0.974222927100661 172.432975020999 0.974222927100659 172.432975020999 0.0715333030172775 73.7133712910982 
! Gamma         0                0                0                0                
! Port Impedance         50               0                50               0                
95.9                           0.0724868748268952 75.3217590889211 0.974112088227544 172.224697810211 0.974112088227543 172.224697810211 0.0728174824011701 73.6455693745202 
! Gamma         0                0                0                0                
! Port Impedance         50               0                50               0                
96                             0.0737746574706919 75.2187127826062 0.973999748310518 172.016463735237 0.973999748310516 172.016463735237 0.074100659091732 73.5729195980582 
! Gamma         0                0                0                0                
! Port Impedance         50               0                50               0                
96.1                           0.0750612359925178 75.1120968413545 0.973885914351945 171.80827344518  0.973885914351943 171.80827344518  0.075382790249347 73.4956765313252 
! Gamma         0                0                0                0                
! Port Impedance         50               0                50               0                
96.2                           0.0763465771585322 75.0020982204332 0.973770593444573 171.600127585864 0.973770593444571 171.600127585864 0.0766638345782304 73.4140775693421 
! Gamma         0                0                0                0                
! Port Impedance         50               0                50               0                
96.3                           0.0776306486242686 74.8888913323261 0.973653792770858 171.392026799798 0.973653792770857 171.392026799798 0.0779437522046056 73.3283443526777 
! Gamma         0                0                0                0                
! Port Impedance         50               0                50               0                
96.4                           0.0789134188678487 74.7726390814259 0.973535519602287 171.183971726136 0.973535519602285 171.183971726136 0.0792225045669042 73.2386840496594 
! Gamma         0                0                0                0                
! Port Impedance         50               0                50               0                
96.5                           0.0801948571298019 74.6534937982219 0.973415781298685 170.97596300063  0.973415781298684 170.97596300063  0.0805000543166424 73.1452905159532 
! Gamma         0                0                0                0                
! Port Impedance         50               0                50               0                
96.6                           0.0814749333587372 74.5315980841618 0.973294585307524 170.768001255598 0.973294585307522 170.768001255598 0.0817763652287876 73.0483453449144 
! Gamma         0                0                0                0                
! Port Impedance         50               0                50               0                
96.7                           0.0827536181622332 74.4070855769668 0.973171939163215 170.560087119876 0.973171939163214 170.560087119876 0.0830514021205907 72.9480188204685 
! Gamma         0                0                0                0                
! Port Impedance         50               0                50               0                
96.8                           0.084030882762372 74.2800816449813 0.97304785048641 170.352221218785 0.973047850486409 170.352221218785 0.0843251307779683 72.8444707828665 
! Gamma         0                0                0                0                
! Port Impedance         50               0                50               0                
96.9                           0.085306698955424 74.1507040180956 0.972922326983274 170.144404174089 0.972922326983272 170.144404174089 0.08559751788864 72.7378514164252 
! Gamma         0                0                0                0                
! Port Impedance         50               0                50               0                
97                             0.0865810390752414 74.0190633618869 0.972795376444771 169.936636603958 0.972795376444769 169.936636603958 0.0868685309813171 72.6283019672992 
! Gamma         0                0                0                0                
! Port Impedance         50               0                50               0                
97.1                           0.0878538759599759 73.8852638008335 0.972667006745938 169.728919122924 0.972667006745937 169.728919122924 0.0881381383703157 72.515955398398  
! Gamma         0                0                0                0                
! Port Impedance         50               0                50               0                
97.2                           0.0891251829217856 73.7494033957867 0.972537225845146 169.521252341853 0.972537225845145 169.521252341853 0.0894063091050564 72.4009369877512 
! Gamma         0                0                0                0                
! Port Impedance         50               0                50               0                
97.3                           0.0903949337192183 73.6115745802866 0.972406041783363 169.313636867898 0.972406041783362 169.313636867898 0.0906730129239438 72.2833648759151 
! Gamma         0                0                0                0                
! Port Impedance         50               0                50               0                
97.4                           0.0916631025320116 73.4718645597933 0.97227346268341 169.106073304466 0.972273462683409 169.106073304466 0.0919382202122146 72.1633505673951 
! Gamma         0                0                0                0                
! Port Impedance         50               0                50               0                
97.5                           0.0929296639380694 73.3303556774517 0.972139496749204 168.898562251182 0.972139496749203 168.898562251182 0.0932019019633503 72.0409993905092 
! Gamma         0                0                0                0                
! Port Impedance         50               0                50               0                
97.6                           0.094194592892404 73.1871257496107 0.972004152265009 168.691104303849 0.972004152265009 168.691104303849 0.0944640297437229 71.9164109196443 
! Gamma         0                0                0                0                
! Port Impedance         50               0                50               0                
97.7                           0.0954578647078535 73.0422483739689 0.971867437594671 168.483700054417 0.971867437594671 168.483700054417 0.0957245756601618 71.7896793634306 
! Gamma         0                0                0                0                
! Port Impedance         50               0                50               0                
97.8                           0.0967194550374106 72.8957932129127 0.971729361180848 168.276350090941 0.971729361180847 168.276350090942 0.0969835123301762 71.660893921991  
! Gamma         0                0                0                0                
! Port Impedance         50               0                50               0                
97.9                           0.0979793398580052 72.747826254341  0.97158993154424 168.069054997553 0.971589931544239 168.069054997554 0.0982408128545709 71.5301391160928 
! Gamma         0                0                0                0                
! Port Impedance         50               0                50               0                
98                             0.0992374954556139 72.5984100520327 0.971449157282811 167.861815354421 0.971449157282809 167.861815354421 0.0994964507922591 71.3974950907366 
! Gamma         0                0                0                0                
! Port Impedance         50               0                50               0                
98.1                           0.10049389841157 72.4476039474006 0.971307047071005 167.654631737715 0.971307047071004 167.654631737716 0.100750400137055 71.263037895464  
! Gamma         0                0                0                0                
! Port Impedance         50               0                50               0                
98.2                           0.10174852558997 72.2954642742896 0.971163609658968 167.447504719579 0.971163609658967 167.447504719579 0.10200263529628 71.1268397434325 
! Gamma         0                0                0                0                
! Port Impedance         50               0                50               0                
98.3                           0.103001354126068 72.1420445483106 0.97101885387174 167.24043486809  0.97101885387174 167.24043486809  0.103253131071022 70.9889692511058 
! Gamma         0                0                0                0                
! Port Impedance         50               0                50               0                
98.4                           0.104252361415596 71.9873956420509 0.970872788608476 167.033422747227 0.970872788608475 167.033422747227 0.104501862637897 70.8494916602257 
! Gamma         0                0                0                0                
! Port Impedance         50               0                50               0                
98.5                           0.105501525104893 71.8315659473756 0.970725422841631 166.826468916842 0.97072542284163 166.826468916842 0.105748805532193 70.7084690435709 
! Gamma         0                0                0                0                
! Port Impedance         50               0                50               0                
98.6                           0.106748823081807 71.6746015259132 0.970576765616169 166.619573932622 0.970576765616167 166.619573932622 0.106993935632271 70.5659604958636 
! Gamma         0                0                0                0                
! Port Impedance         50               0                50               0                
98.7                           0.107994233467283 71.5165462487147 0.970426826048742 166.41273834606  0.970426826048741 166.41273834606  0.108237229145124 70.4220223110566 
! Gamma         0                0                0                0                
! Port Impedance         50               0                50               0                
98.8                           0.109237734607587 71.3574419259849 0.970275613326889 166.205962704421 0.970275613326887 166.205962704421 0.109478662592989 70.2767081471176 
! Gamma         0                0                0                0                
! Port Impedance         50               0                50               0                
98.9                           0.110479305067113 71.197328427695  0.970123136708209 165.999247550716 0.970123136708209 165.999247550716 0.110718212800932 70.1300691793262 
! Gamma         0                0                0                0                
! Port Impedance         50               0                50               0                
99                             0.111718923621723 71.0362437958178 0.969969405519551 165.792593423664 0.969969405519551 165.792593423664 0.111955856885327 69.9821542430025 
! Gamma         0                0                0                0                
! Port Impedance         50               0                50               0                
99.1                           0.112956569252571 70.8742243488534 0.969814429156186 165.586000857667 0.969814429156185 165.586000857668 0.11319157224315 69.8330099665084 
! Gamma         0                0                0                0                
! Port Impedance         50               0                50               0                
99.2                           0.11419222114039 70.7113047792567 0.969658217080977 165.379470382778 0.969658217080977 165.379470382778 0.114425336542032 69.6826808952813 
! Gamma         0                0                0                0                
! Port Impedance         50               0                50               0                
99.3                           0.115425858660176 70.5475182443201 0.969500778823558 165.173002524671 0.969500778823558 165.173002524671 0.115657127710999 69.5312096075993 
! Gamma         0                0                0                0                
! Port Impedance         50               0                50               0                
99.4                           0.116657461376265 70.3828964510209 0.969342123979494 164.966597804613 0.969342123979493 164.966597804613 0.116886923931861 69.3786368227094 
! Gamma         0                0                0                0                
! Port Impedance         50               0                50               0                
99.5                           0.117887009037756 70.2174697352921 0.969182262209447 164.760256739434 0.969182262209446 164.760256739434 0.118114703631185 69.2250015019019 
! Gamma         0                0                0                0                
! Port Impedance         50               0                50               0                
99.6                           0.119114481574259 70.0512671361405 0.969021203238339 164.5539798415   0.969021203238338 164.5539798415   0.119340445472815 69.0703409430573 
! Gamma         0                0                0                0                
! Port Impedance         50               0                50               0                
99.7                           0.120339859091934 69.8843164649994 0.968858956854509 164.347767618684 0.968858956854508 164.347767618684 0.120564128350891 68.9146908691551 
! Gamma         0                0                0                0                
! Port Impedance         50               0                50               0                
99.8                           0.121563121869815 69.7166443706659 0.968695532908873 164.14162057434  0.968695532908872 164.14162057434  0.121785731383343 68.758085511185  
! Gamma         0                0                0                0                
! Port Impedance         50               0                50               0                
99.9                           0.122784250356382 69.5482764001499 0.968530941314074 163.935539207274 0.968530941314072 163.935539207274 0.123005233905804 68.6005576858712 
! Gamma         0                0                0                0                
! Port Impedance         50               0                50               0                
100                            0.124003225166367 69.3792370557301 0.968365192043631 163.729524011717 0.968365192043631 163.729524011717 0.124222615465927 68.4421388685821 
! Gamma         0                0                0                0                
! Port Impedance         50               0                50               0                
