! Touchstone file exported from HFSS 2026.1.0
!        File:           C:/ffzhzh/LocalFiles/Ansys_Project_Files/temp_train_RDL_228_1783501136_31944.aedt
!        Generated:      05:00:18 PM Jul  8, 2026
!        Design:         RDL
!        Project:        temp_train_RDL_228_1783501136_31944
!
! Variables:
!        h_bsmrdl = 2um
!        h_ox = 20um
!        h_rdl = 5um
!        h_sub = 80um
!        h_tmrdl = 2.63um
!        h_tsv = 80um
!        h_via = 3um
!        l_bsmrdl = 300um
!        l_sub = 1069.96um
!        l_tmrdl = 669.96um
!        m_sub = 200um
!        pitch = 41.28um
!        r_tsv = 6um
!        s_tmrdl = 10um
!        w_bsmrdl = 18um
!        w_sub = 500um
!        w_tmrdl = 22.6um
!        x_tsv_center1 = 681.26um
!        x_tsv_center2 = 999.26um
!        x_tsv_center3 = 1691.82um
!        x_tsv_center4 = 2009.82um
!        x_tsv_center5 = 2702.38um
!        x_tsv_center6 = 3020.38um
!
# GHz S MA R 50.000000
! Terminal data exported
! Port[1] = TM_RDL1_1_T1
! Port[2] = TM_RDL1_1_T2
0.1                            0.00484472092168264 28.9820885234187 0.995769468385689 -0.250263408255691 0.995769468385689 -0.250263408255692 0.0048447222066755 28.9820872892753 
! Gamma         0                0                0                0                
! Port Impedance         50               0                50               0                
0.2                            0.00640852471602356 46.1807067694866 0.995593571673002 -0.496623726752399 0.995593571673002 -0.496623726752405 0.00640852351021071 46.1807745364791 
! Gamma         0                0                0                0                
! Port Impedance         50               0                50               0                
0.3                            0.00826691081531665 55.3609913670918 0.995367154932834 -0.737500406319281 0.995367154932834 -0.737500406319294 0.00826691123085746 55.3611144652386 
! Gamma         0                0                0                0                
! Port Impedance         50               0                50               0                
0.4                            0.010189635039313 60.7839819432692 0.995138496440639 -0.973553974970449 0.995138496440639 -0.973553974970471 0.0101896376501248 60.7841356238667 
! Gamma         0                0                0                0                
! Port Impedance         50               0                50               0                
0.5                            0.0121168460282379 64.3921950646743 0.994931761645497 -1.20628789021509 0.994931761645497 -1.20628789021512 0.0121168483357004 64.3923718215844 
! Gamma         0                0                0                0                
! Port Impedance         50               0                50               0                
0.6                            0.0140407914205185 67.0108697894144 0.994752961341328 -1.43706384874414 0.994752961341328 -1.43706384874417 0.0140407901179039 67.0110743380195 
! Gamma         0                0                0                0                
! Port Impedance         50               0                50               0                
0.7                            0.0159653255466323 69.0174104560717 0.99459942678081 -1.66681729756403 0.99459942678081 -1.66681729756406 0.0159653179147327 69.0176517396795 
! Gamma         0                0                0                0                
! Port Impedance         50               0                50               0                
0.8                            0.0178946435597535 70.605432993367  0.994465805916731 -1.8961100259156 0.994465805916731 -1.89611002591563 0.0178946278970591 70.6057197013897 
! Gamma         0                0                0                0                
! Port Impedance         50               0                50               0                
0.9                            0.019831164973768 71.886952590554  0.994346732635551 -2.12525307514144 0.99434673263555 -2.12525307514147 0.0198311405407144 71.8872915311258 
! Gamma         0                0                0                0                
! Port Impedance         50               0                50               0                
1                              0.0217757682962687 72.93375725788   0.994237699608415 -2.35440716413553 0.994237699608414 -2.35440716413556 0.021775735109091 72.9341531454793 
! Gamma         0                0                0                0                
! Port Impedance         50               0                50               0                
1.1                            0.0237283707649682 73.7954692260393 0.99413517874948 -2.58364787504367 0.994135178749479 -2.58364787504369 0.0237283293855928 73.7959249880388 
! Gamma         0                0                0                0                
! Port Impedance         50               0                50               0                
1.2                            0.0256883826114561 74.5082141683337 0.994036490444386 -2.81300423533627 0.994036490444386 -2.8130042353363 0.0256883339774109 74.5087313602145 
! Gamma         0                0                0                0                
! Port Impedance         50               0                50               0                
1.3                            0.0276549917085077 75.0992292678749 0.993939622547199 -3.04248060419569 0.993939622547198 -3.04248060419572 0.0276549370062824 75.0998084467366 
! Gamma         0                0                0                0                
! Port Impedance         50               0                50               0                
1.4                            0.02962732401435 75.5895570338721 0.993843067085605 -3.27206882289304 0.993843067085605 -3.27206882289306 0.029627264587798 75.5901980527059 
! Gamma         0                0                0                0                
! Port Impedance         50               0                50               0                
1.5                            0.0316045268693981 75.9957486340627 0.993745690725367 -3.50175486544595 0.993745690725366 -3.50175486544597 0.0316044641535794 75.9964508605683 
! Gamma         0                0                0                0                
! Port Impedance         50               0                50               0                
1.6                            0.0335858079050789 76.3310068049194 0.993646637321606 -3.73152242459107 0.993646637321605 -3.73152242459109 0.0335857433778001 76.3317692799913 
! Gamma         0                0                0                0                
! Port Impedance         50               0                50               0                
1.7                            0.0355704496685297 76.6059863748327 0.993545256263067 -3.96135480019298 0.993545256263066 -3.961354800193  0.0355703848140439 76.6068079262037 
! Gamma         0                0                0                0                
! Port Impedance         50               0                50               0                
1.8                            0.0375578115984955 76.8293725551157 0.993441050216051 -4.19123585137761 0.99344105021605 -4.19123585137763 0.0375577478796212 76.8302518787889 
! Gamma         0                0                0                0                
! Port Impedance         50               0                50               0                
1.9                            0.0395473258555158 77.0083082975983 0.993333637036532 -4.42115043577933 0.993333637036531 -4.42115043577935 0.0395472646917187 77.0092440164921 
! Gamma         0                0                0                0                
! Port Impedance         50               0                50               0                
2                              0.0415384905393243 77.1487156653454 0.993222721904525 -4.65108457163508 0.993222721904524 -4.65108457163509 0.0415384332891773 77.1497063718846 
! Gamma         0                0                0                0                
! Port Impedance         50               0                50               0                
2.1                            0.0435308621509128 77.2555409090481 0.993108076810495 -4.88102545405647 0.993108076810494 -4.88102545405648 0.0435308100979164 77.256585196413  
! Gamma         0                0                0                0                
! Port Impedance         50               0                50               0                
2.2                            0.0455240482284489 77.332943569668  0.99298952533938 -5.11096139847991 0.992989525339379 -5.11096139847992 0.0455240025695602 77.3340400549587 
! Gamma         0                0                0                0                
! Port Impedance         50               0                50               0                
2.3                            0.0475177005809658 77.3844438893845 0.992866931290085 -5.34088175155768 0.992866931290085 -5.34088175155769 0.0475176624174118 77.3855912309472 
! Gamma         0                0                0                0                
! Port Impedance         50               0                50               0                
2.4                            0.0495115092750903 77.4130387764825 0.992740190089749 -5.57077679132184 0.992740190089748 -5.57077679132185 0.0495114796051853 77.4142356869472 
! Gamma         0                0                0                0                
! Port Impedance         50               0                50               0                
2.5                            0.0515051973924922 77.4212937945997 0.992609222259459 -5.80063762807227 0.992609222259458 -5.80063762807228 0.0515051771062612 77.4225390507018 
! Gamma         0                0                0                0                
! Port Impedance         50               0                50               0                
2.6                            0.0534985165099036 77.4114166965385 0.992473968397635 -6.03045611161674 0.992473968397634 -6.03045611161675 0.0534985063853641 77.4127091464733 
! Gamma         0                0                0                0                
! Port Impedance         50               0                50               0                
2.7                            0.0554912428263152 77.3853166284329 0.992334385295206 -6.26022474726032 0.992334385295205 -6.26022474726032 0.0554912435272961 77.3866551972701 
! Gamma         0                0                0                0                
! Port Impedance         50               0                50               0                
2.8                            0.0574831738548765 77.3446521188068 0.992190442901644 -6.48993662118717 0.992190442901643 -6.48993662118718 0.0574831859302655 77.3460358123458 
! Gamma         0                0                0                0                
! Port Impedance         50               0                50               0                
2.9                            0.0594741255999391 77.2908702248504 0.992042121935734 -6.71958533496475 0.992042121935733 -6.71958533496476 0.0594741494842549 77.2922981321912 
! Gamma         0                0                0                0                
! Port Impedance         50               0                50               0                
3                              0.0614639301470682 77.2252386577817 0.991889411988727 -6.94916494846141 0.991889411988726 -6.94916494846142 0.0614639661622525 77.2267099528215 
! Gamma         0                0                0                0                
! Port Impedance         50               0                50               0                
3.1                            0.0634524336027529 77.1488722971135 0.99173231000637 -7.17866993029458 0.991732310006369 -7.17866993029458 0.0634524819610795 77.1503862391285 
! Gamma         0                0                0                0                
! Port Impedance         50               0                50               0                
3.2                            0.0654394943294961 77.0627551925825 0.99157081906466 -7.40809511489554 0.991570819064659 -7.40809511489554 0.0654395551374865 77.0643111260263 
! Gamma         0                0                0                0                
! Port Impedance         50               0                50               0                
3.3                            0.067424981430224 76.9677589158404 0.991404947374933 -7.63743566531972 0.991404947374932 -7.63743566531972 0.0674250546934625 76.9693562694637 
! Gamma         0                0                0                0                
! Port Impedance         50               0                50               0                
3.4                            0.06940877344327 76.8646579426319 0.991234707469267 -7.86668704100828 0.991234707469266 -7.86668704100829 0.0694088590720064 76.8662962280158 
! Gamma         0                0                0                0                
! Port Impedance         50               0                50               0                
3.5                            0.0713907572154832 76.7541426062355 0.991060115528642 -8.0958449697963 0.991060115528641 -8.0958449697963 0.0713908550309145 76.7558214158198 
! Gamma         0                0                0                0                
! Port Impedance         50               0                50               0                
3.6                            0.0733708269263472 76.6368300542487 0.990881190824868 -8.32490542355231 0.990881190824867 -8.32490542355231 0.0733709366674685 76.6385490589248 
! Gamma         0                0                0                0                
! Port Impedance         50               0                50               0                
3.7                            0.0753488832404678 76.5132735558576 0.990697955253767 -8.55386459691849 0.990697955253767 -8.55386459691849 0.0753490045713875 76.515032502195  
! Gamma         0                0                0                0                
! Port Impedance         50               0                50               0                
3.8                            0.077324832569517 76.3839704399683 0.990510432942042 -8.78271888869638 0.990510432942041 -8.78271888869639 0.0773249650871343 76.3857691471316 
! Gamma         0                0                0                0                
! Port Impedance         50               0                50               0                
3.9                            0.0792985864278102 76.2493688917965 0.990318649913996 -9.01146488549026 0.990318649913994 -9.01146488549026 0.0792987296697583 76.2512072482109 
! Gamma         0                0                0                0                
! Port Impedance         50               0                50               0                
4                              0.0812700608682555 76.1098737935686 0.990122633807203 -9.24009934727809 0.990122633807202 -9.2400993472781 0.0812702143210194 76.1117517533842 
! Gamma         0                0                0                0                
! Port Impedance         50               0                50               0                
4.1                            0.0832391759875306 75.96585176148   0.989922413628455 -9.46861919463036 0.989922413628454 -9.46861919463037 0.0832393390946544 75.9677693408829 
! Gamma         0                0                0                0                
! Port Impedance         50               0                50               0                
4.2                            0.0852058554910947 75.8176355041552 0.989718019543037 -9.69702149733906 0.989718019543036 -9.69702149733907 0.0852060276614013 75.8195927775691 
! Gamma         0                0                0                0                
! Port Impedance         50               0                50               0                
4.3                            0.0871700263100936 75.6655276061568 0.98950948269179 -9.92530346425588 0.989509482691789 -9.92530346425589 0.0871702069258457 75.6675247023738 
! Gamma         0                0                0                0                
! Port Impedance         50               0                50               0                
4.4                            0.0891316182634204 75.5098038225028 0.989296835031465 -10.153462434169 0.989296835031464 -10.153462434169 0.0891318066883594 75.5118409207814 
! Gamma         0                0                0                0                
! Port Impedance         50               0                50               0                
4.5                            0.0910905637591928 75.3507159558417 0.989080109194718 -10.3814958675737 0.989080109194718 -10.3814958675737 0.0910907593464004 75.3527932820031 
! Gamma         0                0                0                0                
! Port Impedance         50               0                50               0                
4.6                            0.0930467975307436 75.1884943762347 0.988859338366803 -10.609401339215 0.988859338366802 -10.609401339215 0.0930469996302765 75.1906121987867 
! Gamma         0                0                0                0                
! Port Impedance         50               0                50               0                
4.7                            0.0950002564029141 75.0233502338904 0.988634556176511 -10.837176531297 0.98863455617651 -10.837176531297 0.0950004643691702 75.0255088602053 
! Gamma         0                0                0                0                
! Port Impedance         50               0                50               0                
4.8                            0.0969508790850269 74.8554774072849 0.98840579659938 -11.0648192272712 0.988405796599379 -11.0648192272712 0.0969510922838083 74.8576771798528 
! Gamma         0                0                0                0                
! Port Impedance         50               0                50               0                
4.9                            0.098898605987403 74.6850542225544 0.988173093871507 -11.2923273061294 0.988173093871505 -11.2923273061295 0.0988988238026471 74.6872955153313 
! Gamma         0                0                0                0                
! Port Impedance         50               0                50               0                
5                              0.100843379058703 74.5122449746123 0.987936482412601 -11.5196987371356 0.9879364824126  -11.5196987371356 0.100843600898859 74.5145281894797 
! Gamma         0                0                0                0                
! Port Impedance         50               0                50               0                
5.1                            0.102785141641726 74.3372012759127 0.987695996757136 -11.7469315749436 0.987695996757135 -11.7469315749436 0.102785366945759 74.3395268392621 
! Gamma         0                0                0                0                
! Port Impedance         50               0                50               0                
5.2                            0.104723838345586 74.1600632549981 0.987451671492629 -11.9740239550541 0.987451671492628 -11.9740239550541 0.104724066588598 74.1624316144505 
! Gamma         0                0                0                0                
! Port Impedance         50               0                50               0                
5.3                            0.106659414932469 73.9809606237887 0.987203541204246 -12.2009740895709 0.987203541204245 -12.200974089571 0.106659645630929 73.9833722450594 
! Gamma         0                0                0                0                
! Port Impedance         50               0                50               0                
5.4                            0.108591818217349 73.8000136298998 0.986951640425047 -12.4277802632231 0.986951640425046 -12.4277802632231 0.108592050933924 73.8024689938126 
! Gamma         0                0                0                0                
! Port Impedance         50               0                50               0                
5.5                            0.110520995979273 73.6173339080133 0.986696003591278 -12.6544408296238 0.986696003591276 -12.6544408296238 0.110521230327272 73.619833507671  
! Gamma         0                0                0                0                
! Port Impedance         50               0                50               0                
5.6                            0.112446896882957 73.4330252424183 0.986436665002211 -12.8809542077421 0.98643666500221 -12.8809542077422 0.112447132530377 73.4355695805298 
! Gamma         0                0                0                0                
! Port Impedance         50               0                50               0                
5.7                            0.114369470409596 73.2471842512115 0.986173658784104 -13.1073188785654 0.986173658784102 -13.1073188785655 0.114369707082785 73.2497738375786 
! Gamma         0                0                0                0                
! Port Impedance         50               0                50               0                
5.8                            0.116288666795891 73.0599010012626 0.98590701885789 -13.3335333819352 0.985907018857889 -13.3335333819352 0.11628890428284 73.0625363504254 
! Gamma         0                0                0                0                
! Port Impedance         50               0                50               0                
5.9                            0.118204436980439 72.8712595618711 0.985636778910286 -13.5595963135405 0.985636778910285 -13.5595963135405 0.1182046751337  72.8739411909098 
! Gamma         0                0                0                0                
! Port Impedance         50               0                50               0                
6                              0.120116732556679 72.6813385040237 0.985362972368006 -13.7855063220561 0.985362972368005 -13.7855063220561 0.120116971295937 72.684066930516  
! Gamma         0                0                0                0                
! Port Impedance         50               0                50               0                
6.1                            0.12202550573172 72.4902113512965 0.985085632374854 -14.011262106413 0.985085632374853 -14.011262106413 0.12202574504602 72.4929870914258 
! Gamma         0                0                0                0                
! Port Impedance         50               0                50               0                
6.2                            0.123930709290404 72.2979469876939 0.984804791771439 -14.2368624131926 0.984804791771438 -14.2368624131926 0.123930949240058 72.3007705545049 
! Gamma         0                0                0                0                
! Port Impedance         50               0                50               0                
6.3                            0.125832296564065 72.1046100270727 0.984520483077327 -14.4623060341351 0.984520483077326 -14.4623060341352 0.125832537282248 72.1074819288691 
! Gamma         0                0                0                0                
! Port Impedance         50               0                50               0                
6.4                            0.127730221403467 71.9102611482379 0.984232738475439 -14.6875918037557 0.984232738475438 -14.6875918037558 0.127730463097514 71.9131818871187 
! Gamma         0                0                0                0                
! Port Impedance         50               0                50               0                
6.5                            0.12962443815547 71.7149573993161 0.983941589798525 -14.9127185970609 0.983941589798524 -14.9127185970609 0.129624681107906 71.7179274698417 
! Gamma         0                0                0                0                
! Port Impedance         50               0                50               0                
6.6                            0.131514901643029 71.5187524745851 0.983647068517568 -15.1376853273605 0.983647068517566 -15.1376853273605 0.131515146212329 71.5217723625715 
! Gamma         0                0                0                0                
! Port Impedance         50               0                50               0                
6.7                            0.133401567148155 71.3216969665791 0.983349205731971 -15.3624909441703 0.983349205731969 -15.3624909441704 0.133401813769265 71.3247671480104 
! Gamma         0                0                0                0                
! Port Impedance         50               0                50               0                
6.8                            0.135284390397508 71.1238385959601 0.983048032161406 -15.5871344312007 0.983048032161404 -15.5871344312007 0.135284639582137 71.1269595360162 
! Gamma         0                0                0                0                
! Port Impedance         50               0                50               0                
6.9                            0.137163327550334 70.9252224213744 0.982743578139198 -15.8116148044271 0.982743578139197 -15.8116148044271 0.137163579887028 70.9283945735653 
! Gamma         0                0                0                0                
! Port Impedance         50               0                50               0                
7                              0.139038335188476 70.7258910312611 0.982435873607141 -16.0359311102403 0.982435873607139 -16.0359311102403 0.139038591342506 70.7291148366631 
! Gamma         0                0                0                0                
! Port Impedance         50               0                50               0                
7.1                            0.140909370308221 70.5258847193672 0.982124948111627 -16.2600824236722 0.982124948111626 -16.2600824236722 0.140909631021281 70.529160605955  
! Gamma         0                0                0                0                
! Port Impedance         50               0                50               0                
7.2                            0.142776390313773 70.3252416455357 0.981810830801022 -16.4840678466945 0.981810830801021 -16.4840678466945 0.142776656403514 70.3285700276032 
! Gamma         0                0                0                0                
! Port Impedance         50               0                50               0                
7.3                            0.144639353012157 70.1239979831616 0.981493550424158 -16.707886506589 0.981493550424157 -16.707886506589 0.144639625371566 70.1273792608269 
! Gamma         0                0                0                0                
! Port Impedance         50               0                50               0                
7.4                            0.146498216609373 69.9221880545692 0.98117313532989 -16.9315375543854 0.981173135329889 -16.9315375543854 0.146498496206018 69.9256226133567 
! Gamma         0                0                0                0                
! Port Impedance         50               0                50               0                
7.5                            0.148352939707654 69.7198444554284 0.980849613467621 -17.1550201633655 0.98084961346762 -17.1550201633655 0.148353227582801 69.7233326659238 
! Gamma         0                0                0                0                
! Port Impedance         50               0                50               0                
7.6                            0.150203481303695 69.5169981692163 0.980523012388717 -17.3783335276328 0.980523012388716 -17.3783335276328 0.150203778571301 69.5205403867889 
! Gamma         0                0                0                0                
! Port Impedance         50               0                50               0                
7.7                            0.152049800787699 69.3136786726269 0.980193359248754 -17.6014768607428 0.980193359248753 -17.6014768607428 0.152050108633319 69.3172752372127 
! Gamma         0                0                0                0                
! Port Impedance         50               0                50               0                
7.8                            0.153891857943161 69.1099140327392 0.979860680810513 -17.8244493943954 0.979860680810512 -17.8244493943954 0.15389217762275 69.1135652686822 
! Gamma         0                0                0                0                
! Port Impedance         50               0                50               0                
7.9                            0.155729612947264 68.9057309966763 0.97952500344767 -18.0472503771852 0.979525003447669 -18.0472503771852 0.155729945785904 68.9094372126214 
! Gamma         0                0                0                0                
! Port Impedance         50               0                50               0                
8                              0.157563026371818 68.7011550744136 0.979186353149119 -18.2698790734103 0.979186353149118 -18.2698790734103 0.15756337376237 68.7049165632479 
! Gamma         0                0                0                0                
! Port Impedance         50               0                50               0                
8.1                            0.159392059184632 68.4962106153311 0.978844755523865 -18.4923347619352 0.978844755523864 -18.4923347619351 0.159392422586326 68.5000276541688 
! Gamma         0                0                0                0                
! Port Impedance         50               0                50               0                
8.2                            0.161216672751281 68.2909208790475 0.978500235806433 -18.7146167351093 0.978500235806432 -18.7146167351093 0.161217053688254 68.2947937292548 
! Gamma         0                0                0                0                
! Port Impedance         50               0                50               0                
8.3                            0.163036828837175 68.0853081010219 0.978152818862757 -18.9367242977375 0.978152818862756 -18.9367242977375 0.16303722889696 68.0892370082779 
! Gamma         0                0                0                0                
! Port Impedance         50               0                50               0                
8.4                            0.164852489609891 67.8793935533641 0.977802529196472 -19.1586567661012 0.977802529196472 -19.1586567661012 0.164852910441864 67.8833787477541 
! Gamma         0                0                0                0                
! Port Impedance         50               0                50               0                
8.5                            0.166663617641703 67.6731976012516 0.977449390955591 -19.3804134670303 0.97744939095559 -19.3804134670303 0.166664060955502 67.6772392973906 
! Gamma         0                0                0                0                
! Port Impedance         50               0                50               0                
8.6                            0.168470175912276 67.4667397553167 0.977093427939504 -19.6019937370224 0.977093427939503 -19.6019937370223 0.168470643476192 67.4708381524982 
! Gamma         0                0                0                0                
! Port Impedance         50               0                50               0                
8.7                            0.170272127811475 67.2600387203322 0.976734663606269 -19.8233969214088 0.976734663606268 -19.8233969214088 0.17027262145082 67.2641940027012 
! Gamma         0                0                0                0                
! Port Impedance         50               0                50               0                
8.8                            0.172069437142259 67.0531124404942 0.976373121080154 -20.0446223735668 0.976373121080153 -20.0446223735668 0.172069958737722 67.0573247772408 
! Gamma         0                0                0                0                
! Port Impedance         50               0                50               0                
8.9                            0.173862068123624 66.8459781415755 0.976008823159388 -20.2656694541743 0.976008823159388 -20.2656694541743 0.173862619609612 66.8502476871469 
! Gamma         0                0                0                0                
! Port Impedance         50               0                50               0                
9                              0.17564998539357 66.6386523701972 0.975641792324095 -20.4865375305087 0.975641792324095 -20.4865375305087 0.175650568756547 66.6429792645254 
! Gamma         0                0                0                0                
! Port Impedance         50               0                50               0                
9.1                            0.177433154012064 66.4311510304435 0.975272050744375 -20.7072259757855 0.975272050744374 -20.7072259757855 0.177433771288883 66.4355353991878 
! Gamma         0                0                0                0                
! Port Impedance         50               0                50               0                
9.2                            0.179211539463984 66.2234894180284 0.974899620288495 -20.9277341685373 0.974899620288494 -20.9277341685372 0.179212192740222 66.2279313728291 
! Gamma         0                0                0                0                
! Port Impedance         50               0                50               0                
9.3                            0.180985107662016 66.0156822522003 0.974524522531181 -21.1480614920315 0.974524522531181 -21.1480614920314 0.180985799070317 66.0201818909433 
! Gamma         0                0                0                0                
! Port Impedance         50               0                50               0                
9.4                            0.182753824949497 65.8077437055592 0.974146778761964 -21.3682073337245 0.974146778761964 -21.3682073337245 0.182754556667913 65.8123011126483 
! Gamma         0                0                0                0                
! Port Impedance         50               0                50               0                
9.5                            0.18451765810318 65.5996874319416 0.973766409993565 -21.5881710847521 0.973766409993565 -21.588171084752 0.184518432353533 65.6043026785792 
! Gamma         0                0                0                0                
! Port Impedance         50               0                50               0                
9.6                            0.186276574335921 65.3915265925205 0.973383436970295 -21.8079521394538 0.973383436970295 -21.8079521394538 0.186277393382169 65.3961997369927 
! Gamma         0                0                0                0                
! Port Impedance         50               0                50               0                
9.7                            0.188030541299262 65.1832738802501 0.972997880176452 -22.027549894931 0.972997880176452 -22.027549894931 0.188031407445884 65.1880049682171 
! Gamma         0                0                0                0                
! Port Impedance         50               0                50               0                
9.8                            0.189779527085918 64.9749415427783 0.97260975984469 -22.2469637506366 0.972609759844691 -22.2469637506365 0.189780442676313 64.9797306075677 
! Gamma         0                0                0                0                
! Port Impedance         50               0                50               0                
9.9                            0.191523500232148 64.7665414039379 0.972219095964344 -22.466193107995 0.972219095964345 -22.4661931079949 0.191524467647052 64.7713884668401 
! Gamma         0                0                0                0                
! Port Impedance         50               0                50               0                
10                             0.193262429720005 64.5580848839181 0.971825908289694 -22.6852373700522 0.971825908289695 -22.6852373700521 0.193263451375928 64.5629899544837 
! Gamma         0                0                0                0                
! Port Impedance         50               0                50               0                
10.1                           0.194998499642267 64.3502283510443 0.971434152674246 -22.903906977576 0.971434152674247 -22.903906977576 0.194999542284602 64.3551957939532 
! Gamma         0                0                0                0                
! Port Impedance         50               0                50               0                
10.2                           0.196729686149552 64.142374881852  0.97104035492022 -23.1223778041533 0.97104035492022 -23.1223778041533 0.196730750104088 64.1474051669834 
! Gamma         0                0                0                0                
! Port Impedance         50               0                50               0                
10.3                           0.198455972649598 63.9345327426554 0.970644549516257 -23.3406494670237 0.970644549516258 -23.3406494670237 0.198457058243338 63.9396263439066 
! Gamma         0                0                0                0                
! Port Impedance         50               0                50               0                
10.4                           0.20017734292293 63.7267098251317 0.970246770715447 -23.5587215998134 0.970246770715448 -23.5587215998133 0.200178450483972 63.7318672204748 
! Gamma         0                0                0                0                
! Port Impedance         50               0                50               0                
10.5                           0.201893781113793 63.518913664299  0.96984705253567 -23.7765938521014 0.969847052535671 -23.7765938521013 0.201894910971208 63.5241353358358 
! Gamma         0                0                0                0                
! Port Impedance         50               0                50               0                
10.6                           0.203605271721331 63.3111514555195 0.969445428760126 -23.9942658889971 0.969445428760126 -23.994265888997 0.203606424205046 63.3164378895362 
! Gamma         0                0                0                0                
! Port Impedance         50               0                50               0                
10.7                           0.205311799591018 63.1034300705895 0.969041932938022 -24.2117373907289 0.969041932938023 -24.2117373907288 0.205312975031705 63.1087817576102 
! Gamma         0                0                0                0                
! Port Impedance         50               0                50               0                
10.8                           0.207013349906345 62.8957560729725 0.968636598385421 -24.429008052244 0.968636598385422 -24.4290080522439 0.207014548635304 62.9011735078119 
! Gamma         0                0                0                0                
! Port Impedance         50               0                50               0                
10.9                           0.208709908180738 62.6881357322287 0.96822945818623 -24.6460775828191 0.96822945818623 -24.6460775828191 0.208711130529791 62.6936194140446 
! Gamma         0                0                0                0                
! Port Impedance         50               0                50               0                
11                             0.210401460249725 62.4805750376892 0.967820545193332 -24.862945705683 0.967820545193333 -24.8629457056829 0.210402706551101 62.4861254700332 
! Gamma         0                0                0                0                
! Port Impedance         50               0                50               0                
11.1                           0.212087992263333 62.2730797114199 0.967409892029841 -25.0796121576489 0.967409892029842 -25.0796121576489 0.21208926284957 62.2786974022885 
! Gamma         0                0                0                0                
! Port Impedance         50               0                50               0                
11.2                           0.213769490678729 62.0656552205182 0.966997531090478 -25.2960766887591 0.966997531090479 -25.2960766887591 0.213770785882562 62.0713406824023 
! Gamma         0                0                0                0                
! Port Impedance         50               0                50               0                
11.3                           0.215445942253073 61.858306788781  0.966583494543053 -25.5123390619398 0.966583494543054 -25.5123390619397 0.215447262407338 61.8640605387153 
! Gamma         0                0                0                0                
! Port Impedance         50               0                50               0                
11.4                           0.217117334036613 61.6510394077811 0.966167814330052 -25.7283990526667 0.966167814330053 -25.7283990526667 0.217118679474145 61.6568619673927 
! Gamma         0                0                0                0                
! Port Impedance         50               0                50               0                
11.5                           0.218783653365987 61.4438578473855 0.965750522170315 -25.9442564486421 0.965750522170315 -25.944256448642 0.218785024419523 61.4497497429416 
! Gamma         0                0                0                0                
! Port Impedance         50               0                50               0                
11.6                           0.220444887857751 61.236766665748  0.965331649560801 -26.1599110494813 0.965331649560801 -26.1599110494812 0.220446284859837 61.2427284282035 
! Gamma         0                0                0                0                
! Port Impedance         50               0                50               0                
11.7                           0.222101025402113 61.0297702188059 0.964911227778428 -26.3753626664111 0.964911227778428 -26.375362666411 0.222102448685012 61.0358023838499 
! Gamma         0                0                0                0                
! Port Impedance         50               0                50               0                
11.8                           0.223752054156876 60.8228726693076 0.964489287881989 -26.590611121977 0.964489287881989 -26.5906111219769 0.22375350405248 60.8289757774095 
! Gamma         0                0                0                0                
! Port Impedance         50               0                50               0                
11.9                           0.22539796254159 60.6160779953983 0.964065860714123 -26.805656249762 0.964065860714124 -26.8056562497619 0.225399439381329 60.6222525918534 
! Gamma         0                0                0                0                
! Port Impedance         50               0                50               0                
12                             0.22703873923189 60.4093899987871 0.963640976903351 -27.0204978941143 0.963640976903352 -27.0204978941142 0.227040243346654 60.4156366337615 
! Gamma         0                0                0                0                
! Port Impedance         50               0                50               0                
12.1                           0.228674373154043 60.2028123125191 0.963214666866156 -27.2351359098856 0.963214666866156 -27.2351359098855 0.228675904874096 60.2091315410942 
! Gamma         0                0                0                0                
! Port Impedance         50               0                50               0                
12.2                           0.230304853479674 59.9963484083729 0.96278696080911 -27.4495701621789 0.96278696080911 -27.4495701621788 0.230306413134579 60.0027407905891 
! Gamma         0                0                0                0                
! Port Impedance         50               0                50               0                
12.3                           0.231930169620678 59.7900016039041 0.962357888731039 -27.6638005261056 0.962357888731039 -27.6638005261055 0.231931757539217 59.7964677048045 
! Gamma         0                0                0                0                
! Port Impedance         50               0                50               0                
12.4                           0.233550311224318 59.583775069154  0.961927480425221 -27.8778268865523 0.961927480425221 -27.8778268865522 0.233551927734422 59.5903154588271 
! Gamma         0                0                0                0                
! Port Impedance         50               0                50               0                
12.5                           0.235165268168491 59.3776718330395 0.961495765481608 -28.0916491379563 0.961495765481609 -28.0916491379562 0.235166913597168 59.3842870866614 
! Gamma         0                0                0                0                
! Port Impedance         50               0                50               0                
12.6                           0.236775030557168 59.1716947894427 0.961062773289074 -28.3052671840903 0.961062773289075 -28.3052671840902 0.236776705230436 59.1783854873191 
! Gamma         0                0                0                0                
! Port Impedance         50               0                50               0                
12.7                           0.238379588716003 58.9658467030143 0.960628533037674 -28.5186809378559 0.960628533037675 -28.5186809378558 0.238381292958822 58.9726134306221 
! Gamma         0                0                0                0                
! Port Impedance         50               0                50               0                
12.8                           0.239978933188094 58.7601302147065 0.960193073720925 -28.7318903210855 0.960193073720925 -28.7318903210854 0.239980667324307 58.7669735627345 
! Gamma         0                0                0                0                
! Port Impedance         50               0                50               0                
12.9                           0.241573054729912 58.554547847048  0.959756424138083 -28.9448952643523 0.959756424138083 -28.9448952643522 0.241574819082181 58.5614684114374 
! Gamma         0                0                0                0                
! Port Impedance         50               0                50               0                
13                             0.24316194430737 58.3491020091755 0.959318612896433 -29.157695706789 0.959318612896434 -29.1576957067889 0.243163739197123 58.3561003911602 
! Gamma         0                0                0                0                
! Port Impedance         50               0                50               0                
13.1                           0.244745593092051 58.1437950016329 0.958879668413579 -29.370291595914 0.958879668413579 -29.3702915959139 0.244747418839424 58.1508718077787 
! Gamma         0                0                0                0                
! Port Impedance         50               0                50               0                
13.2                           0.246323992457567 57.9386290209496 0.958439618919718 -29.582682887465 0.958439618919718 -29.5826828874649 0.24632584938135 57.9457848631939 
! Gamma         0                0                0                0                
! Port Impedance         50               0                50               0                
13.3                           0.24789713397606 57.7336061640102 0.957998492459924 -29.794869545241 0.957998492459924 -29.7948695452409 0.247899022393655 57.7408416597004 
! Gamma         0                0                0                0                
! Port Impedance         50               0                50               0                
13.4                           0.249465009414845 57.5287284322242 0.957556316896408 -30.0068515409506 0.957556316896408 -30.0068515409505 0.24946692964221 57.5360442041564 
! Gamma         0                0                0                0                
! Port Impedance         50               0                50               0                
13.5                           0.251027610733163 57.3239977355063 0.957113119910771 -30.2186288540679 0.957113119910772 -30.2186288540677 0.251029563084774 57.331394411963  
! Gamma         0                0                0                0                
! Port Impedance         50               0                50               0                
13.6                           0.252584930079079 57.1194158960766 0.95666892900624 -30.430201471695 0.956668929006241 -30.4302014716948 0.252586914867881 57.1268941108647 
! Gamma         0                0                0                0                
! Port Impedance         50               0                50               0                
13.7                           0.25413695978648 56.9149846520888 0.95622377150988 -30.6415693884314 0.95622377150988 -30.6415693884313 0.254138977323855 56.9225450445767 
! Gamma         0                0                0                0                
! Port Impedance         50               0                50               0                
13.8                           0.255683692372206 56.7107056610952 0.955777674574787 -30.8527326062498 0.955777674574788 -30.8527326062496 0.255685742967931 56.7183488762497 
! Gamma         0                0                0                0                
! Port Impedance         50               0                50               0                
13.9                           0.25722512053328 56.506580503356  0.955330665182265 -31.0636911343774 0.955330665182265 -31.0636911343772 0.257227204495494 56.5143071917789 
! Gamma         0                0                0                0                
! Port Impedance         50               0                50               0                
14                             0.258761237144253 56.3026106850002 0.954882770143959 -31.2744449891842 0.954882770143959 -31.274444989184 0.258763354779422 56.3104215029645 
! Gamma         0                0                0                0                
! Port Impedance         50               0                50               0                
14.1                           0.260292035254641 56.098797641045  0.954434016103979 -31.4849941940768 0.954434016103979 -31.4849941940767 0.260294186867531 56.106693250531  
! Gamma         0                0                0                0                
! Port Impedance         50               0                50               0                
14.2                           0.261817508086477 55.8951427382811 0.95398442954098 -31.6953387793973 0.95398442954098 -31.6953387793971 0.261819693980122 55.903123807012  
! Gamma         0                0                0                0                
! Port Impedance         50               0                50               0                
14.3                           0.263337649031941 55.6916472780293 0.95353403677022 -31.905478782328 0.95353403677022 -31.9054787823279 0.263339869507622 55.6997144795062 
! Gamma         0                0                0                0                
! Port Impedance         50               0                50               0                
14.4                           0.264852451651092 55.4883124987743 0.953082863945577 -32.1154142468015 0.953082863945577 -32.1154142468014 0.26485470700831 55.4964665123116 
! Gamma         0                0                0                0                
! Port Impedance         50               0                50               0                
14.5                           0.266361909669683 55.2851395786824 0.952630937061539 -32.3251452234154 0.952630937061539 -32.3251452234152 0.26636420020614 55.2933810894424 
! Gamma         0                0                0                0                
! Port Impedance         50               0                50               0                
14.6                           0.267866016977061 55.0821296380072 0.952178281955152 -32.5346717693517 0.952178281955152 -32.5346717693515 0.267868342988636 55.0904593370344 
! Gamma         0                0                0                0                
! Port Impedance         50               0                50               0                
14.7                           0.269364767624142 54.8792837413892 0.951724924307936 -32.7439939483016 0.951724924307936 -32.7439939483014 0.269367129404879 54.8877023256451 
! Gamma         0                0                0                0                
! Port Impedance         50               0                50               0                
14.8                           0.270858155821469 54.6766029000546 0.951270889647762 -32.9531118303938 0.951270889647762 -32.9531118303936 0.270860553663559 54.6851110724508 
! Gamma         0                0                0                0                
! Port Impedance         50               0                50               0                
14.9                           0.272346175937335 54.4740880739158 0.950816203350688 -33.1620254921275 0.950816203350689 -33.1620254921273 0.272348610131104 54.4826865433484 
! Gamma         0                0                0                0                
! Port Impedance         50               0                50               0                
15                             0.273828822495984 54.271740173581  0.950360890642764 -33.3707350163094 0.950360890642765 -33.3707350163092 0.273831293329879 54.2804296549641 
! Gamma         0                0                0                0                
! Port Impedance         50               0                50               0                
15.1                           0.27530609017587 54.0695600622749 0.949904976601784 -33.579240491995 0.949904976601784 -33.5792404919948 0.275308597936452 54.0783412765733 
! Gamma         0                0                0                0                
! Port Impedance         50               0                50               0                
15.2                           0.276777973807981 53.8675485576746 0.949448486159008 -33.7875420144325 0.949448486159009 -33.7875420144323 0.276780518779917 53.8764222319377 
! Gamma         0                0                0                0                
! Port Impedance         50               0                50               0                
15.3                           0.278244468374227 53.6657064336661 0.948991444100845 -33.9956396850117 0.948991444100845 -33.9956396850115 0.278247050840282 53.67467330106   
! Gamma         0                0                0                0                
! Port Impedance         50               0                50               0                
15.4                           0.279705569005875 53.464034422023  0.948533875070484 -34.2035336112151 0.948533875070485 -34.2035336112149 0.279708189246909 53.4730952218637 
! Gamma         0                0                0                0                
! Port Impedance         50               0                50               0                
15.5                           0.281161270982048 53.2625332140122 0.948075803569496 -34.4112239065729 0.948075803569497 -34.4112239065727 0.281163929277015 53.2716886917981 
! Gamma         0                0                0                0                
! Port Impedance         50               0                50               0                
15.6                           0.282611569728268 53.0612034619291 0.947617253959386 -34.6187106906209 0.947617253959386 -34.6187106906207 0.282614266354213 53.0704543693731 
! Gamma         0                0                0                0                
! Port Impedance         50               0                50               0                
15.7                           0.284056460815048 52.8600457805662 0.947158250463108 -34.8259940888613 0.947158250463108 -34.8259940888611 0.284059196047107 52.8693928756283 
! Gamma         0                0                0                0                
! Port Impedance         50               0                50               0                
15.8                           0.285495939956531 52.6590607486174 0.946698817166538 -35.033074232726 0.946698817166538 -35.0330742327259 0.285498714067936 52.6685047955363 
! Gamma         0                0                0                0                
! Port Impedance         50               0                50               0                
15.9                           0.28693000300917 52.4582489100206 0.946238978019908 -35.2399512595433 0.946238978019908 -35.2399512595431 0.286932816271249 52.467790679346  
! Gamma         0                0                0                0                
! Port Impedance         50               0                50               0                
16                             0.288358645970447 52.2576107752423 0.945778756839191 -35.4466253125061 0.945778756839191 -35.446625312506 0.288361498652634 52.2672510438666 
! Gamma         0                0                0                0                
! Port Impedance         50               0                50               0                
16.1                           0.289781864977636 52.0571468225066 0.945318177307455 -35.6530965406434 0.945318177307456 -35.6530965406432 0.289784757347472 52.0668863736965 
! Gamma         0                0                0                0                
! Port Impedance         50               0                50               0                
16.2                           0.29119965630659 51.8568574989695 0.944857262976172 -35.8593650987929 0.944857262976173 -35.8593650987928 0.291202588629735 51.8666971223976 
! Gamma         0                0                0                0                
! Port Impedance         50               0                50               0                
16.3                           0.292612016370573 51.6567432218433 0.944396037266487 -36.0654311475773 0.944396037266487 -36.0654311475772 0.292614988910813 51.6666837136197 
! Gamma         0                0                0                0                
! Port Impedance         50               0                50               0                
16.4                           0.294018941719113 51.4568043794711 0.943934523470442 -36.2712948533808 0.943934523470443 -36.2712948533806 0.294021954738373 51.466846542175  
! Gamma         0                0                0                0                
! Port Impedance         50               0                50               0                
16.5                           0.295420429036893 51.2570413323558 0.943472744752175 -36.4769563883285 0.943472744752176 -36.4769563883283 0.295423482795245 51.2671859750664 
! Gamma         0                0                0                0                
! Port Impedance         50               0                50               0                
16.6                           0.296816475142658 51.0574544141428 0.943010724149065 -36.6824159302676 0.943010724149065 -36.6824159302674 0.296819569898337 51.0677023524709 
! Gamma         0                0                0                0                
! Port Impedance         50               0                50               0                
16.7                           0.298207076988158 50.8580439325617 0.942548484572844 -36.8876736627495 0.942548484572844 -36.8876736627494 0.298210212997575 50.8683959886806 
! Gamma         0                0                0                0                
! Port Impedance         50               0                50               0                
16.8                           0.299592231657108 50.6588101703254 0.942086048810673 -37.0927297750143 0.942086048810674 -37.0927297750141 0.299595409174865 50.6692671730026 
! Gamma         0                0                0                0                
! Port Impedance         50               0                50               0                
16.9                           0.300971936364165 50.4597533859919 0.941623439526184 -37.2975844619757 0.941623439526185 -37.2975844619755 0.300975155643071 50.4703161706196 
! Gamma         0                0                0                0                
! Port Impedance         50               0                50               0                
17                             0.302346188453936 50.2608738147871 0.941160679260471 -37.5022379242081 0.941160679260472 -37.5022379242079 0.302349449745025 50.2715432234139 
! Gamma         0                0                0                0                
! Port Impedance         50               0                50               0                
17.1                           0.303714985399993 50.062171669393  0.940697790433065 -37.7066903679344 0.940697790433065 -37.7066903679342 0.303718288952541 50.0729485507546 
! Gamma         0                0                0                0                
! Port Impedance         50               0                50               0                
17.2                           0.305078324803909 49.8636471407015 0.940234795342854 -37.9109420050153 0.940234795342855 -37.9109420050151 0.305081670865455 49.874532350252  
! Gamma         0                0                0                0                
! Port Impedance         50               0                50               0                
17.3                           0.306436204394309 49.6653003985351 0.939771716168987 -38.1149930529388 0.939771716168988 -38.1149930529387 0.306439593210674 49.6762947984778 
! Gamma         0                0                0                0                
! Port Impedance         50               0                50               0                
17.4                           0.307788622025934 49.4671315923367 0.939308574971727 -38.3188437348122 0.939308574971728 -38.318843734812 0.307792053841241 49.4782360516557 
! Gamma         0                0                0                0                
! Port Impedance         50               0                50               0                
17.5                           0.309135575678714 49.2691408518299 0.938845393693284 -38.5224942793527 0.938845393693285 -38.5224942793525 0.309139050735412 49.2803562463206 
! Gamma         0                0                0                0                
! Port Impedance         50               0                50               0                
17.6                           0.310477063456859 49.0713282876497 0.938382194158605 -38.7259449208812 0.938382194158605 -38.725944920881 0.310480581995742 49.0826554999504 
! Gamma         0                0                0                0                
! Port Impedance         50               0                50               0                
17.7                           0.311813083587947 48.8736939919471 0.937918998076143 -38.9291958993147 0.937918998076144 -38.9291958993146 0.311816645848183 48.8851339115701 
! Gamma         0                0                0                0                
! Port Impedance         50               0                50               0                
17.8                           0.313143634422036 48.6762380389667 0.937455827038587 -39.1322474601611 0.937455827038588 -39.1322474601609 0.313147240641185 48.6877915623294 
! Gamma         0                0                0                0                
! Port Impedance         50               0                50               0                
17.9                           0.314468714430769 48.4789604855999 0.936992702523561 -39.3350998545129 0.936992702523561 -39.3350998545127 0.314472364844811 48.490628516056  
! Gamma         0                0                0                0                
! Port Impedance         50               0                50               0                
18                             0.315788322206495 48.2818613719135 0.936529645894302 -39.5377533390427 0.936529645894303 -39.5377533390425 0.315792017049855 48.2936448197846 
! Gamma         0                0                0                0                
! Port Impedance         50               0                50               0                
18.1                           0.317102456461388 48.0849407216567 0.936066678400302 -39.7402081759983 0.936066678400303 -39.7402081759982 0.317106195966962 48.0968405042634 
! Gamma         0                0                0                0                
! Port Impedance         50               0                50               0                
18.2                           0.318411116026576 47.8881985427446 0.935603821177925 -39.9424646331988 0.935603821177926 -39.9424646331986 0.318414900425756 47.9002155844383 
! Gamma         0                0                0                0                
! Port Impedance         50               0                50               0                
18.3                           0.319714299851267 47.6916348277229 0.935141095250995 -40.14452298403  0.935141095250995 -40.1445229840298 0.319718129373971 47.703770059917  
! Gamma         0                0                0                0                
! Port Impedance         50               0                50               0                
18.4                           0.321012007001884 47.4952495542103 0.934678521531358 -40.3463835074414 0.93467852153136 -40.3463835074412 0.321015881876583 47.5075039154124 
! Gamma         0                0                0                0                
! Port Impedance         50               0                50               0                
18.5                           0.3223042366612  47.2990426853241 0.934216120819429 -40.5480464879422 0.93421612081943 -40.548046487942 0.322308157114943 47.311417121167  
! Gamma         0                0                0                0                
! Port Impedance         50               0                50               0                
18.6                           0.323590988127467 47.1030141700861 0.93375391380469 -40.749512215598 0.933753913804691 -40.7495122155978 0.323594954385914 47.1155096333603 
! Gamma         0                0                0                0                
! Port Impedance         50               0                50               0                
18.7                           0.324872260813554 46.9071639438113 0.933291921066192 -40.9507809860276 0.933291921066193 -40.9507809860274 0.324876273101003 46.9197813944968 
! Gamma         0                0                0                0                
! Port Impedance         50               0                50               0                
18.8                           0.326148054246081 46.7114919284809 0.932830163073016 -41.1518531003995 0.932830163073017 -41.1518531003994 0.326152112785498 46.7242323337791 
! Gamma         0                0                0                0                
! Port Impedance         50               0                50               0                
18.9                           0.327418368064552 46.5159980330978 0.932368660184719 -41.3527288654289 0.932368660184719 -41.3527288654287 0.3274224730776  46.5288623674641 
! Gamma         0                0                0                0                
! Port Impedance         50               0                50               0                
19                             0.328683202020483 46.3206821540286 0.931907432651753 -41.553408593374 0.931907432651754 -41.5534085933738 0.328687353727554 46.3336713992044 
! Gamma         0                0                0                0                
! Port Impedance         50               0                50               0                
19.1                           0.329942555976537 46.1255441753297 0.931446500615873 -41.7538926020329 0.931446500615874 -41.7538926020327 0.329946754596782 46.1386593203754 
! Gamma         0                0                0                0                
! Port Impedance         50               0                50               0                
19.2                           0.331196429905645 45.9305839690606 0.930985884110513 -41.95418121474  0.930985884110513 -41.9541812147399 0.331200675657004 45.9438260103876 
! Gamma         0                0                0                0                
! Port Impedance         50               0                50               0                
19.3                           0.332444823890132 45.7358013955829 0.930525603061151 -42.1542747603623 0.930525603061151 -42.1542747603622 0.332449116989367 45.749171336987  
! Gamma         0                0                0                0                
! Port Impedance         50               0                50               0                
19.4                           0.333687738120834 45.5411963038476 0.930065677285656 -42.3541735732955 0.930065677285656 -42.3541735732953 0.33369207878356 45.5546951565418 
! Gamma         0                0                0                0                
! Port Impedance         50               0                50               0                
19.5                           0.334925172896218 45.3467685316696 0.929606126494611 -42.5538779934597 0.929606126494612 -42.5538779934595 0.334929561336933 45.3603973143173 
! Gamma         0                0                0                0                
! Port Impedance         50               0                50               0                
19.6                           0.33615712862149 45.1525179059913 0.929146970291626 -42.7533883662955 0.929146970291627 -42.7533883662954 0.336161565053611 45.1662776447396 
! Gamma         0                0                0                0                
! Port Impedance         50               0                50               0                
19.7                           0.337383605807702 44.9584442431344 0.928688228173629 -42.9527050427592 0.92868822817363 -42.952705042759 0.337388090443593 44.9723359716477 
! Gamma         0                0                0                0                
! Port Impedance         50               0                50               0                
19.8                           0.338604605070855 44.7645473490418 0.928229919531147 -43.1518283793175 0.928229919531147 -43.1518283793174 0.338609138121862 44.7785721085355 
! Gamma         0                0                0                0                
! Port Impedance         50               0                50               0                
19.9                           0.339820127130997 44.5708270195094 0.927772063648564 -43.3507587379431 0.927772063648565 -43.350758737943 0.339824708807481 44.5849858587838 
! Gamma         0                0                0                0                
! Port Impedance         50               0                50               0                
20                             0.34103017281131 44.3772830404077 0.927314679704379 -43.5494964861082 0.927314679704379 -43.5494964861081 0.341034803322678 44.3915770158822 
! Gamma         0                0                0                0                
! Port Impedance         50               0                50               0                
20.1                           0.342234743037202 44.1839151878949 0.926857786771432 -43.7480419967793 0.926857786771432 -43.7480419967791 0.342239422591941 44.1983453636424 
! Gamma         0                0                0                0                
! Port Impedance         50               0                50               0                
20.2                           0.343433838835381 43.9907232286213 0.926401403817135 -43.9463956484103 0.926401403817135 -43.9463956484101 0.343438567641092 44.0052906764025 
! Gamma         0                0                0                0                
! Port Impedance         50               0                50               0                
20.3                           0.344627461332934 43.7977069199244 0.925945549703678 -44.1445578249362 0.925945549703678 -44.144557824936 0.344632239596362 43.812412719223  
! Gamma         0                0                0                0                
! Port Impedance         50               0                50               0                
20.4                           0.345815611756392 43.6048660100174 0.925490243188229 -44.3425289157658 0.92549024318823 -44.3425289157657 0.345820439683464 43.6197112480748 
! Gamma         0                0                0                0                
! Port Impedance         50               0                50               0                
20.5                           0.346998291430794 43.4122002381691 0.925035502923127 -44.5403093157742 0.925035502923128 -44.5403093157741 0.347003169226648 43.4271860100197 
! Gamma         0                0                0                0                
! Port Impedance         50               0                50               0                
20.6                           0.348175501778741 43.2197093348768 0.924581347456055 -44.7378994252946 0.924581347456056 -44.7378994252945 0.348180429647763 43.2348367433837 
! Gamma         0                0                0                0                
! Port Impedance         50               0                50               0                
20.7                           0.34934724431945 43.0273930220324 0.924127795230208 -44.9352996501101 0.924127795230209 -44.9352996501099 0.349352222465304 43.042663177923  
! Gamma         0                0                0                0                
! Port Impedance         50               0                50               0                
20.8                           0.35051352066779 42.8352510130821 0.923674864584458 -45.1325104014445 0.923674864584458 -45.1325104014444 0.350518549293455 42.8506650349842 
! Gamma         0                0                0                0                
! Port Impedance         50               0                50               0                
20.9                           0.351674332533326 42.6432830131794 0.9232225737535  -45.3295320959533 0.923222573753501 -45.3295320959532 0.351679411841127 42.6588420276572 
! Gamma         0                0                0                0                
! Port Impedance         50               0                50               0                
21                             0.352829681719346 42.4514887193323 0.922770940867998 -45.5263651557135 0.922770940867999 -45.5263651557133 0.352834811910988 42.4671938609232 
! Gamma         0                0                0                0                
! Port Impedance         50               0                50               0                
21.1                           0.353979570121886 42.2598678205447 0.922319983954719 -45.7230100082131 0.92231998395472 -45.723010008213 0.353984751398489 42.275720231796  
! Gamma         0                0                0                0                
! Port Impedance         50               0                50               0                
21.2                           0.355123999728748 42.0684199979525 0.921869720936662 -45.9194670863408 0.921869720936663 -45.9194670863407 0.35512923229088 42.0844208294586 
! Gamma         0                0                0                0                
! Port Impedance         50               0                50               0                
21.3                           0.356262972618513 41.8771449249547 0.921420169633179 -46.1157368283741 0.92142016963318 -46.115736828374 0.35626825666622 41.8932953353943 
! Gamma         0                0                0                0                
! Port Impedance         50               0                50               0                
21.4                           0.357396490959544 41.6860422673389 0.920971347760096 -46.3118196779678 0.920971347760096 -46.3118196779676 0.35740182669239 41.7023434235127 
! Gamma         0                0                0                0                
! Port Impedance         50               0                50               0                
21.5                           0.358524557008988 41.4951116834028 0.920523272929817 -46.5077160841413 0.920523272929818 -46.5077160841411 0.358529944626084 41.5115647602713 
! Gamma         0                0                0                0                
! Port Impedance         50               0                50               0                
21.6                           0.359647173111768 41.3043528240706 0.920075962651437 -46.7034265012661 0.920075962651437 -46.703426501266 0.359652612811806 41.3209590047929 
! Gamma         0                0                0                0                
! Port Impedance         50               0                50               0                
21.7                           0.360764341699572 41.1137653330061 0.919629434330837 -46.8989513890522 0.919629434330838 -46.8989513890521 0.360769833680859 41.1305258089775 
! Gamma         0                0                0                0                
! Port Impedance         50               0                50               0                
21.8                           0.361876065289833 40.92334884672   0.919183705270789 -47.0942912125342 0.91918370527079 -47.0942912125341 0.361881609750323 40.9402648176118 
! Gamma         0                0                0                0                
! Port Impedance         50               0                50               0                
21.9                           0.362982346484703 40.7331029946757 0.918738792671042 -47.289446442057 0.918738792671042 -47.2894464420569 0.362987943622034 40.7501756684736 
! Gamma         0                0                0                0                
! Port Impedance         50               0                50               0                
22                             0.36408318797003 40.5430273993889 0.918294713628417 -47.4844175532608 0.918294713628418 -47.4844175532607 0.364088837981551 40.560257992433  
! Gamma         0                0                0                0                
! Port Impedance         50               0                50               0                
22.1                           0.365178592514314 40.3531216765259 0.917851485136897 -47.6792050270657 0.917851485136897 -47.6792050270656 0.365184295597125 40.3705114135503 
! Gamma         0                0                0                0                
! Port Impedance         50               0                50               0                
22.2                           0.366268562967676 40.163385434997  0.917409124087704 -47.8738093496558 0.917409124087705 -47.8738093496557 0.366274319318653 40.1809355491698 
! Gamma         0                0                0                0                
! Port Impedance         50               0                50               0                
22.3                           0.367353102260801 39.9738182770473 0.916967647269395 -48.0682310124629 0.916967647269395 -48.0682310124627 0.367358912076637 39.9915300100116 
! Gamma         0                0                0                0                
! Port Impedance         50               0                50               0                
22.4                           0.368432213403899 39.7844197983451 0.91652707136793 -48.2624705121491 0.916527071367931 -48.262470512149 0.368438076881132 39.8022944002589 
! Gamma         0                0                0                0                
! Port Impedance         50               0                50               0                
22.5                           0.369505899485641 39.5951895880659 0.916087412966764 -48.4565283505902 0.916087412966764 -48.4565283505901 0.369511816820686 39.6132283176442 
! Gamma         0                0                0                0                
! Port Impedance         50               0                50               0                
22.6                           0.370574163672102 39.4061272289755 0.915648688546917 -48.6504050348567 0.915648688546918 -48.6504050348566 0.370580135061286 39.4243313535312 
! Gamma         0                0                0                0                
! Port Impedance         50               0                50               0                
22.7                           0.371637009205695 39.217232297509  0.915210914487061 -48.8441010771964 0.915210914487061 -48.8441010771963 0.371643034845289 39.2356030929949 
! Gamma         0                0                0                0                
! Port Impedance         50               0                50               0                
22.8                           0.372694439404104 39.028504363848  0.91477410706359 -49.037616995015 0.914774107063591 -49.0376169950149 0.372700519490354 39.0470431148991 
! Gamma         0                0                0                0                
! Port Impedance         50               0                50               0                
22.9                           0.373746457659208 38.8399429919957 0.914338282450706 -49.2309533108567 0.914338282450707 -49.2309533108566 0.373752592388367 38.8586509919716 
! Gamma         0                0                0                0                
! Port Impedance         50               0                50               0                
23                             0.374793067436004 38.6515477398493 0.913903456720493 -49.4241105523845 0.913903456720493 -49.4241105523845 0.374799257004366 38.6704262908772 
! Gamma         0                0                0                0                
! Port Impedance         50               0                50               0                
23.1                           0.375834272271529 38.4633181592701 0.913469645842993 -49.61708925236  0.913469645842993 -49.6170892523599 0.375840516875459 38.4823685722885 
! Gamma         0                0                0                0                
! Port Impedance         50               0                50               0                
23.2                           0.376870075773771 38.2752537961528 0.913036865686293 -49.8098899486223 0.913036865686293 -49.8098899486223 0.376876375609737 38.2944773909544 
! Gamma         0                0                0                0                
! Port Impedance         50               0                50               0                
23.3                           0.377900481620583 38.087354190491  0.912605132016599 -50.0025131840672 0.9126051320166  -50.0025131840671 0.377906836885189 38.1067522957674 
! Gamma         0                0                0                0                
! Port Impedance         50               0                50               0                
23.4                           0.378925493558593 37.8996188764428 0.912174460498323 -50.194959506625 0.912174460498324 -50.1949595066249 0.378931904448608 37.9191928298289 
! Gamma         0                0                0                0                
! Port Impedance         50               0                50               0                
23.5                           0.379945115402108 37.7120473823934 0.911744866694162 -50.3872294692391 0.911744866694163 -50.387229469239 0.379951582114499 37.7317985305118 
! Gamma         0                0                0                0                
! Port Impedance         50               0                50               0                
23.6                           0.380959351032018 37.5246392310164 0.911316366065183 -50.5793236298427 0.911316366065183 -50.5793236298427 0.380965873763979 37.5445689295232 
! Gamma         0                0                0                0                
! Port Impedance         50               0                50               0                
23.7                           0.381968204394694 37.3373939393339 0.910888973970914 -50.7712425513367 0.910888973970914 -50.7712425513366 0.381974783343681 37.3575035529641 
! Gamma         0                0                0                0                
! Port Impedance         50               0                50               0                
23.8                           0.382971679500891 37.1503110187748 0.910462705669427 -50.9629868015653 0.910462705669427 -50.9629868015653 0.382978314864649 37.1706019213883 
! Gamma         0                0                0                0                
! Port Impedance         50               0                50               0                
23.9                           0.38396978042464 36.9633899752317 0.910037576317435 -51.1545569532933 0.910037576317436 -51.1545569532933 0.383976472401234 36.9838635498598 
! Gamma         0                0                0                0                
! Port Impedance         50               0                50               0                
24                             0.384962511302141 36.7766303091167 0.909613600970382 -51.3459535841812 0.909613600970383 -51.3459535841812 0.384969260089989 36.797287948009  
! Gamma         0                0                0                0                
! Port Impedance         50               0                50               0                
24.1                           0.385949876330661 36.5900315154157 0.909190794582538 -51.5371772767609 0.909190794582539 -51.5371772767608 0.385956682128562 36.6108746200874 
! Gamma         0                0                0                0                
! Port Impedance         50               0                50               0                
24.2                           0.386931879767419 36.4035930837417 0.908769172007102 -51.7282286184106 0.908769172007102 -51.7282286184105 0.386938742774583 36.4246230650212 
! Gamma         0                0                0                0                
! Port Impedance         50               0                50               0                
24.3                           0.387908525928478 36.2173144983867 0.908348747996297 -51.9191082013299 0.908348747996298 -51.9191082013298 0.387915446344558 36.2385327764641 
! Gamma         0                0                0                0                
! Port Impedance         50               0                50               0                
24.4                           0.388879819187633 36.0311952383733 0.907929537201486 -52.1098166225136 0.907929537201487 -52.1098166225135 0.388886797212754 36.0526032428484 
! Gamma         0                0                0                0                
! Port Impedance         50               0                50               0                
24.5                           0.389845763975299 35.845234777504  0.907511554173267 -52.3003544837261 0.907511554173267 -52.3003544837261 0.389852799810086 35.866833947436  
! Gamma         0                0                0                0                
! Port Impedance         50               0                50               0                
24.6                           0.390806364777397 35.6594325844111 0.907094813361593 -52.4907223914749 0.907094813361593 -52.4907223914749 0.390813458623006 35.6812243683673 
! Gamma         0                0                0                0                
! Port Impedance         50               0                50               0                
24.7                           0.391761626134241 35.4737881226039 0.906679329115884 -52.6809209569837 0.906679329115884 -52.6809209569837 0.391768778192389 35.4957739787104 
! Gamma         0                0                0                0                
! Port Impedance         50               0                50               0                
24.8                           0.392711552639424 35.2883008505171 0.906265115685144 -52.8709507961658 0.906265115685145 -52.8709507961658 0.392718763112417 35.3104822465085 
! Gamma         0                0                0                0                
! Port Impedance         50               0                50               0                
24.9                           0.393656148938701 35.1029702215565 0.905852187218087 -53.0608125295963 0.905852187218087 -53.0608125295962 0.393663418029464 35.1253486348271 
! Gamma         0                0                0                0                
! Port Impedance         50               0                50               0                
25                             0.394595419728883 34.9177956841451 0.905440557763255 -53.2505067824847 0.905440557763255 -53.2505067824847 0.394602747640987 34.9403726018    
! Gamma         0                0                0                0                
! Port Impedance         50               0                50               0                
25.1                           0.395529369756715 34.7327766817681 0.905030241269156 -53.4400341846472 0.905030241269156 -53.4400341846471 0.395536756694407 34.755553600675  
! Gamma         0                0                0                0                
! Port Impedance         50               0                50               0                
25.2                           0.396458003817767 34.5479126530172 0.90462125158439 -53.6293953704778 0.90462125158439 -53.6293953704778 0.396465449986   34.5708910798585 
! Gamma         0                0                0                0                
! Port Impedance         50               0                50               0                
25.3                           0.397381326755321 34.3632030316342 0.904213602457791 -53.8185909789207 0.904213602457792 -53.8185909789206 0.39738883235978 34.38638448296   
! Gamma         0                0                0                0                
! Port Impedance         50               0                50               0                
25.4                           0.39829934345926 34.1786472465542 0.903807307538566 -54.0076216534405 0.903807307538566 -54.0076216534404 0.398306908706392 34.2020332488352 
! Gamma         0                0                0                0                
! Port Impedance         50               0                50               0                
25.5                           0.39921205886496 33.994244721948  0.903402380376437 -54.1964880419941 0.903402380376437 -54.1964880419941 0.399219683962   34.0178368116292 
! Gamma         0                0                0                0                
! Port Impedance         50               0                50               0                
25.6                           0.400119477952176 33.8099948772643 0.902998834421797 -54.385190797001 0.902998834421797 -54.385190797001 0.400127163107176 33.833794600819  
! Gamma         0                0                0                0                
! Port Impedance         50               0                50               0                
25.7                           0.401021605743939 33.6258971272704 0.902596683025858 -54.5737305753137 0.902596683025858 -54.5737305753137 0.401029351165798 33.6499060412552 
! Gamma         0                0                0                0                
! Port Impedance         50               0                50               0                
25.8                           0.401918447305448 33.4419508820939 0.902195939440809 -54.7621080381882 0.902195939440809 -54.7621080381882 0.401926253203937 33.4661705532036 
! Gamma         0                0                0                0                
! Port Impedance         50               0                50               0                
25.9                           0.40281000774297 33.2581555472628 0.90179661681998 -54.9503238512538 0.90179661681998 -54.9503238512538 0.402817874328758 33.2825875523859 
! Gamma         0                0                0                0                
! Port Impedance         50               0                50               0                
26                             0.403696292202731 33.0745105237455 0.901398728218006 -55.1383786844831 0.901398728218007 -55.1383786844831 0.403704219687418 33.0991564500206 
! Gamma         0                0                0                0                
! Port Impedance         50               0                50               0                
26.1                           0.404577305869826 32.8910152079903 0.901002286590999 -55.3262732121616 0.901002286590999 -55.3262732121616 0.404585294465963 32.9158766528626 
! Gamma         0                0                0                0                
! Port Impedance         50               0                50               0                
26.2                           0.405453053967113 32.7076689919648 0.900607304796717 -55.5140081128569 0.900607304796717 -55.5140081128568 0.405461103888236 32.7327475632434 
! Gamma         0                0                0                0                
! Port Impedance         50               0                50               0                
26.3                           0.406323541754124 32.5244712631943 0.900213795594751 -55.7015840693883 0.900213795594751 -55.7015840693883 0.406331653214776 32.5497685791099 
! Gamma         0                0                0                0                
! Port Impedance         50               0                50               0                
26.4                           0.407188774525972 32.3414214048009 0.899821771646701 -55.8890017687957 0.899821771646702 -55.8890017687957 0.407196947741732 32.3669390940639 
! Gamma         0                0                0                0                
! Port Impedance         50               0                50               0                
26.5                           0.408048757612261 32.1585187955408 0.899431245516367 -56.0762619023084 0.899431245516367 -56.0762619023084 0.408056992799771 32.1842584974002 
! Gamma         0                0                0                0                
! Port Impedance         50               0                50               0                
26.6                           0.408903496376003 31.9757628098428 0.899042229669937 -56.263365165314 0.899042229669937 -56.263365165314 0.408911793752992 32.0017261741454 
! Gamma         0                0                0                0                
! Port Impedance         50               0                50               0                
26.7                           0.409752996212531 31.7931528178453 0.898654736476186 -56.450312257327 0.898654736476186 -56.450312257327 0.409761355997844 31.8193415050956 
! Gamma         0                0                0                0                
! Port Impedance         50               0                50               0                
26.8                           0.410597262548423 31.6106881854335 0.898268778206674 -56.637103881957 0.898268778206675 -56.637103881957 0.410605684962048 31.6371038668541 
! Gamma         0                0                0                0                
! Port Impedance         50               0                50               0                
26.9                           0.411436300840429 31.4283682742766 0.897884367035953 -56.8237407468775 0.897884367035953 -56.8237407468775 0.411444786103518 31.4550126318691 
! Gamma         0                0                0                0                
! Port Impedance         50               0                50               0                
27                             0.412270116574391 31.2461924418642 0.897501515041769 -57.0102235637936 0.897501515041769 -57.0102235637936 0.412278664909294 31.2730671684708 
! Gamma         0                0                0                0                
! Port Impedance         50               0                50               0                
27.1                           0.413098715264184 31.0641600415425 0.89712023420528 -57.1965530484105 0.89712023420528 -57.1965530484104 0.413107326894467 31.0912668409082 
! Gamma         0                0                0                0                
! Port Impedance         50               0                50               0                
27.2                           0.413922102450647 30.8822704225511 0.896740536411272 -57.3827299204011 0.896740536411272 -57.3827299204011 0.413930777601123 30.9096110093859 
! Gamma         0                0                0                0                
! Port Impedance         50               0                50               0                
27.3                           0.414740283700522 30.700522930058  0.896362433448378 -57.5687549033743 0.896362433448378 -57.5687549033743 0.414749022597276 30.7280990301006 
! Gamma         0                0                0                0                
! Port Impedance         50               0                50               0                
27.4                           0.415553264605402 30.5189169051961 0.895985937009302 -57.7546287248425 0.895985937009302 -57.7546287248425 0.415562067475815 30.5467302552773 
! Gamma         0                0                0                0                
! Port Impedance         50               0                50               0                
27.5                           0.416361050780679 30.3374516850982 0.895611058691052 -57.9403521161894 0.895611058691052 -57.9403521161894 0.416369917853453 30.3655040332057 
! Gamma         0                0                0                0                
! Port Impedance         50               0                50               0                
27.6                           0.417163647864493 30.1561266029324 0.895237809995166 -58.1259258126377 0.895237809995167 -58.1259258126377 0.417172579369679 30.1844197082754 
! Gamma         0                0                0                0                
! Port Impedance         50               0                50               0                
27.7                           0.417961061516697 29.9749409879372 0.894866202327957 -58.3113505532166 0.894866202327958 -58.3113505532166 0.417970057685719 30.0034766210124 
! Gamma         0                0                0                0                
! Port Impedance         50               0                50               0                
27.8                           0.418753297417813 29.7938941654565 0.894496247000747 -58.4966270807292 0.894496247000747 -58.4966270807292 0.418762358483493 29.8226741081137 
! Gamma         0                0                0                0                
! Port Impedance         50               0                50               0                
27.9                           0.419540361268003 29.6129854569741 0.894127955230113 -58.6817561417203 0.894127955230113 -58.6817561417203 0.419549487464587 29.6420115024836 
! Gamma         0                0                0                0                
! Port Impedance         50               0                50               0                
28                             0.420322258786043 29.4322141801486 0.893761338138137 -58.8667384864435 0.893761338138136 -58.8667384864434 0.420331450349223 29.4614881332682 
! Gamma         0                0                0                0                
! Port Impedance         50               0                50               0                
28.1                           0.421098995708296 29.2515796488472 0.893396406752656 -59.0515748688287 0.893396406752656 -59.0515748688287 0.42110825287524 29.2811033258904 
! Gamma         0                0                0                0                
! Port Impedance         50               0                50               0                
28.2                           0.421870577787699 29.0710811731806 0.893033172007519 -59.2362660464496 0.893033172007519 -59.2362660464496 0.421879900797072 29.1008564020852 
! Gamma         0                0                0                0                
! Port Impedance         50               0                50               0                
28.3                           0.422637010792751 28.8907180595367 0.892671644742847 -59.4208127804908 0.892671644742848 -59.4208127804908 0.422646399884741 28.920746679934  
! Gamma         0                0                0                0                
! Port Impedance         50               0                50               0                
28.4                           0.423398300506504 28.7104896106144 0.892311835705292 -59.6052158357151 0.892311835705292 -59.6052158357151 0.423407755922847 28.7407734738993 
! Gamma         0                0                0                0                
! Port Impedance         50               0                50               0                
28.5                           0.424154452725566 28.5303951254578 0.891953755548307 -59.7894759804309 0.891953755548307 -59.789475980431 0.424163974709569 28.5609360948592 
! Gamma         0                0                0                0                
! Port Impedance         50               0                50               0                
28.6                           0.424905473259101 28.3504338994893 0.891597414832415 -59.9735939864599 0.891597414832415 -59.9735939864599 0.424915062055671 28.3812338501415 
! Gamma         0                0                0                0                
! Port Impedance         50               0                50               0                
28.7                           0.425651367927847 28.1706052245436 0.891242824025478 -60.1575706291034 0.891242824025478 -60.1575706291035 0.42566102378351 28.201666043558  
! Gamma         0                0                0                0                
! Port Impedance         50               0                50               0                
28.8                           0.426392142563125 27.9909083889008 0.890889993502981 -60.3414066871108 0.890889993502981 -60.3414066871108 0.426401865726055 28.0222319754383 
! Gamma         0                0                0                0                
! Port Impedance         50               0                50               0                
28.9                           0.427127803005867 27.8113426773194 0.890538933548305 -60.525102942646 0.890538933548305 -60.525102942646 0.427137593725906 27.8429309426641 
! Gamma         0                0                0                0                
! Port Impedance         50               0                50               0                
29                             0.427858355105641 27.6319073710699 0.890189654353012 -60.7086601812552 0.890189654353012 -60.7086601812552 0.427868213634329 27.6637622387024 
! Gamma         0                0                0                0                
! Port Impedance         50               0                50               0                
29.1                           0.428583804719689 27.4526017479674 0.88984216601713 -60.8920791918343 0.88984216601713 -60.8920791918343 0.428593731310281 27.4847251536397 
! Gamma         0                0                0                0                
! Port Impedance         50               0                50               0                
29.2                           0.429304157711963 27.2734250824045 0.889496478549441 -61.075360766596 0.889496478549441 -61.0753607665961 0.429314152619461 27.3058189742152 
! Gamma         0                0                0                0                
! Port Impedance         50               0                50               0                
29.3                           0.430019419952176 27.094376645384  0.889152601867778 -61.2585057010378 0.889152601867778 -61.2585057010378 0.430029483433349 27.1270429838542 
! Gamma         0                0                0                0                
! Port Impedance         50               0                50               0                
29.4                           0.430729597314856 26.9154557045517 0.88881054579931 -61.4415147939088 0.88881054579931 -61.4415147939089 0.430739729628263 26.9483964627015 
! Gamma         0                0                0                0                
! Port Impedance         50               0                50               0                
29.5                           0.4314346956784  26.7366615242284 0.888470320080847 -61.6243888471779 0.888470320080847 -61.6243888471779 0.431444897084419 26.7698786876547 
! Gamma         0                0                0                0                
! Port Impedance         50               0                50               0                
29.6                           0.432134720924149 26.557993365443  0.888131934359136 -61.8071286660009 0.888131934359136 -61.8071286660009 0.432144991684996 26.5914889323968 
! Gamma         0                0                0                0                
! Port Impedance         50               0                50               0                
29.7                           0.432829678935452 26.3794504859637 0.887795398191165 -61.9897350586884 0.887795398191164 -61.9897350586884 0.432840019315208 26.4132264674297 
! Gamma         0                0                0                0                
! Port Impedance         50               0                50               0                
29.8                           0.43351957559675 26.2010321403313 0.887460721044466 -62.1722088366738 0.887460721044466 -62.1722088366738 0.433529985861386 26.2350905601068 
! Gamma         0                0                0                0                
! Port Impedance         50               0                50               0                
29.9                           0.434204416792663 26.02273757989   0.887127912297425 -62.3545508144804 0.887127912297425 -62.3545508144804 0.434214897210061 26.0570804746655 
! Gamma         0                0                0                0                
! Port Impedance         50               0                50               0                
30                             0.43488420840708 25.8445660528202 0.88679698123959 -62.53676180969  0.88679698123959 -62.53676180969  0.434894759247059 25.8791954722602 
! Gamma         0                0                0                0                
! Port Impedance         50               0                50               0                
30.1                           0.435558956322258 25.6665168041697 0.886467937071982 -62.7188426429103 0.886467937071982 -62.7188426429104 0.4355695778566  25.7014348109945 
! Gamma         0                0                0                0                
! Port Impedance         50               0                50               0                
30.2                           0.436228666417933 25.4885890758858 0.886140788907413 -62.9007941377434 0.886140788907412 -62.9007941377435 0.436239358920401 25.523797745954  
! Gamma         0                0                0                0                
! Port Impedance         50               0                50               0                
30.3                           0.436893344570427 25.3107821068462 0.885815545770795 -63.0826171207536 0.885815545770795 -63.0826171207536 0.436904108316797 25.3462835292379 
! Gamma         0                0                0                0                
! Port Impedance         50               0                50               0                
30.4                           0.437552996651773 25.1330951328911 0.885492216599467 -63.2643124214357 0.885492216599466 -63.2643124214357 0.437563831919852 25.168891409992  
! Gamma         0                0                0                0                
! Port Impedance         50               0                50               0                
30.5                           0.438207628528839 24.955527386854  0.885170810243508 -63.4458808721833 0.885170810243507 -63.4458808721833 0.438218535598491 24.9916206344402 
! Gamma         0                0                0                0                
! Port Impedance         50               0                50               0                
30.6                           0.438857246062464 24.778078098593  0.884851335466062 -63.6273233082574 0.884851335466062 -63.6273233082574 0.438868225215636 24.8144704459164 
! Gamma         0                0                0                0                
! Port Impedance         50               0                50               0                
30.7                           0.439501855106598 24.6007464950219 0.884533800943662 -63.8086405677546 0.884533800943662 -63.8086405677547 0.43951290662734 24.637440084897  
! Gamma         0                0                0                0                
! Port Impedance         50               0                50               0                
30.8                           0.44014146150745 24.4235318001412 0.884218215266556 -63.9898334915761 0.884218215266555 -63.9898334915762 0.440152585681945 24.4605287890317 
! Gamma         0                0                0                0                
! Port Impedance         50               0                50               0                
30.9                           0.440776071102644 24.2464332350687 0.883904586939028 -64.1709029233961 0.883904586939028 -64.1709029233962 0.440787268219228 24.2837357931761 
! Gamma         0                0                0                0                
! Port Impedance         50               0                50               0                
31                             0.441405689720383 24.0694500180703 0.883592924379736 -64.3518497096309 0.883592924379735 -64.3518497096309 0.441416960069568 24.1070603294223 
! Gamma         0                0                0                0                
! Port Impedance         50               0                50               0                
31.1                           0.442030323178615 23.8925813645909 0.883283235922033 -64.5326746994077 0.883283235922033 -64.5326746994077 0.442041667053117 23.930501627131  
! Gamma         0                0                0                0                
! Port Impedance         50               0                50               0                
31.2                           0.442649977284211 23.7158264872842 0.882975529814304 -64.7133787445337 0.882975529814304 -64.7133787445338 0.442661394978974 23.7540589129627 
! Gamma         0                0                0                0                
! Port Impedance         50               0                50               0                
31.3                           0.443264657832152 23.5391845960436 0.882669814220295 -64.8939626994656 0.882669814220295 -64.8939626994657 0.44327614964437 23.5777314109082 
! Gamma         0                0                0                0                
! Port Impedance         50               0                50               0                
31.4                           0.443874370604718 23.3626548980322 0.882366097219449 -65.0744274212787 0.882366097219449 -65.0744274212787 0.443885936833858 23.4015183423207 
! Gamma         0                0                0                0                
! Port Impedance         50               0                50               0                
31.5                           0.444479121370686 23.1862365977129 0.882064386807237 -65.2547737696362 0.882064386807237 -65.2547737696362 0.444490762318518 23.2254189259459 
! Gamma         0                0                0                0                
! Port Impedance         50               0                50               0                
31.6                           0.445078915884535 23.0099288968784 0.881764690895497 -65.4350026067593 0.881764690895497 -65.4350026067593 0.445090631855154 23.0494323779534 
! Gamma         0                0                0                0                
! Port Impedance         50               0                50               0                
31.7                           0.445673759885665 22.8337309946811 0.881467017312769 -65.6151147973965 0.881467017312769 -65.6151147973966 0.445685551185512 22.8735579119671 
! Gamma         0                0                0                0                
! Port Impedance         50               0                50               0                
31.8                           0.446263659097611 22.6576420876628 0.881171373804632 -65.7951112087939 0.881171373804632 -65.7951112087939 0.446275526035502 22.6977947390959 
! Gamma         0                0                0                0                
! Port Impedance         50               0                50               0                
31.9                           0.446848619227273 22.481661369784  0.880877768034043 -65.9749927106648 0.880877768034043 -65.9749927106648 0.446860562114424 22.5221420679643 
! Gamma         0                0                0                0                
! Port Impedance         50               0                50               0                
32                             0.447428645964155 22.305788032454  0.880586207581673 -66.1547601751601 0.880586207581672 -66.1547601751602 0.447440665114201 22.3465991047426 
! Gamma         0                0                0                0                
! Port Impedance         50               0                50               0                
32.1                           0.4480037449796  22.1300212645598 0.880296699946248 -66.3344144768388 0.880296699946248 -66.3344144768389 0.448015840708629 22.1711650531772 
! Gamma         0                0                0                0                
! Port Impedance         50               0                50               0                
32.2                           0.448573921926049 21.9543602524953 0.88000925254489 -66.5139564926381 0.88000925254489 -66.5139564926382 0.448586094552618 21.9958391146211 
! Gamma         0                0                0                0                
! Port Impedance         50               0                50               0                
32.3                           0.449139182436291 21.7788041801907 0.879723872713455 -66.6933871018443 0.879723872713455 -66.6933871018443 0.449151432281457 21.8206204880633 
! Gamma         0                0                0                0                
! Port Impedance         50               0                50               0                
32.4                           0.449699532122734 21.6033522291412 0.87944056770687 -66.8727071860632 0.87944056770687 -66.8727071860633 0.449711859510075 21.6455083701592 
! Gamma         0                0                0                0                
! Port Impedance         50               0                50               0                
32.5                           0.450254976576671 21.428003578436  0.879159344699481 -67.0519176291917 0.879159344699481 -67.0519176291918 0.450267381832315 21.4705019552602 
! Gamma         0                0                0                0                
! Port Impedance         50               0                50               0                
32.6                           0.450805521367565 21.252757404787  0.878880210785388 -67.2310193173883 0.878880210785387 -67.2310193173884 0.450818004820213 21.2956004354434 
! Gamma         0                0                0                0                
! Port Impedance         50               0                50               0                
32.7                           0.451351172042333 21.0776128825571 0.878603172978786 -67.4100131390444 0.878603172978785 -67.4100131390445 0.451363734023286 21.1208030005412 
! Gamma         0                0                0                0                
! Port Impedance         50               0                50               0                
32.8                           0.451891934124644 20.9025691837893 0.878328238214307 -67.588899984756 0.878328238214307 -67.5888999847561 0.451904574967826 20.9461088381705 
! Gamma         0                0                0                0                
! Port Impedance         50               0                50               0                
32.9                           0.452427813114217 20.7276254782342 0.878055413347362 -67.767680747295 0.878055413347362 -67.7676807472951 0.452440533156201 20.7715171337625 
! Gamma         0                0                0                0                
! Port Impedance         50               0                50               0                
33                             0.45295881448613 20.5527809333789 0.877784705154477 -67.946356321581 0.877784705154477 -67.946356321581 0.452971614066168 20.5970270705913 
! Gamma         0                0                0                0                
! Port Impedance         50               0                50               0                
33.1                           0.453484943690143 20.3780347144747 0.877516120333636 -68.1249276046531 0.877516120333636 -68.1249276046532 0.453497823150185 20.4226378298033 
! Gamma         0                0                0                0                
! Port Impedance         50               0                50               0                
33.2                           0.454006206150013 20.2033859845648 0.877249665504621 -68.3033954956423 0.877249665504621 -68.3033954956424 0.454019165834741 20.2483485904463 
! Gamma         0                0                0                0                
! Port Impedance         50               0                50               0                
33.3                           0.454522607262835 20.0288339045128 0.876985347209348 -68.4817608957432 0.876985347209348 -68.4817608957433 0.454535647519682 20.0741585294977 
! Gamma         0                0                0                0                
! Port Impedance         50               0                50               0                
33.4                           0.455034152398374 19.8543776330297 0.87672317191221 -68.6600247081868 0.87672317191221 -68.6600247081869 0.455047273577553 19.900066821894  
! Gamma         0                0                0                0                
! Port Impedance         50               0                50               0                
33.5                           0.455540846898414 19.6800163267017 0.876463146000413 -68.8381878382128 0.876463146000413 -68.8381878382129 0.455554049352945 19.7260726405587 
! Gamma         0                0                0                0                
! Port Impedance         50               0                50               0                
33.6                           0.45604269607611 19.5057491400175 0.876205275784311 -69.0162511930424 0.876205275784311 -69.0162511930425 0.456055980161847 19.5521751564313 
! Gamma         0                0                0                0                
! Port Impedance         50               0                50               0                
33.7                           0.456539705215354 19.3315752253957 0.87594956749775 -69.1942156818513 0.87594956749775 -69.1942156818514 0.456553071291009 19.378373538495  
! Gamma         0                0                0                0                
! Port Impedance         50               0                50               0                
33.8                           0.457031879570136 19.1574937332118 0.875696027298394 -69.3720822157426 0.875696027298393 -69.3720822157427 0.45704532799731 19.2046669538056 
! Gamma         0                0                0                0                
! Port Impedance         50               0                50               0                
33.9                           0.457519224363926 18.983503811825  0.875444661268068 -69.5498517077202 0.875444661268068 -69.5498517077202 0.457532755507131 19.031054567519  
! Gamma         0                0                0                0                
! Port Impedance         50               0                50               0                
34                             0.458001744789054 18.8096046076057 0.87519547541309 -69.7275250726618 0.87519547541309 -69.7275250726619 0.458015359015744 18.8575355429194 
! Gamma         0                0                0                0                
! Port Impedance         50               0                50               0                
34.1                           0.4584794460061  18.6357952649612 0.874948475664602 -69.9051032272932 0.874948475664602 -69.9051032272933 0.458493143686698 18.6841090414474 
! Gamma         0                0                0                0                
! Port Impedance         50               0                50               0                
34.2                           0.458952333143293 18.4620749263633 0.874703667878904 -70.0825870901613 0.874703667878903 -70.0825870901614 0.458966114651217 18.510774222727  
! Gamma         0                0                0                0                
! Port Impedance         50               0                50               0                
34.3                           0.459420411295918 18.2884427323742 0.874461057837783 -70.2599775816085 0.874461057837783 -70.2599775816085 0.459434277007608 18.337530244594  
! Gamma         0                0                0                0                
! Port Impedance         50               0                50               0                
34.4                           0.459883685525721 18.1148978216726 0.874220651248846 -70.4372756237465 0.874220651248846 -70.4372756237465 0.459897635820671 18.1643762631228 
! Gamma         0                0                0                0                
! Port Impedance         50               0                50               0                
34.5                           0.460342160860337 17.9414393310804 0.873982453745845 -70.6144821404308 0.873982453745845 -70.6144821404309 0.460356196121117 17.9913114326541 
! Gamma         0                0                0                0                
! Port Impedance         50               0                50               0                
34.6                           0.46079584229271 17.7680663955886 0.873746470889004 -70.7915980572351 0.873746470889004 -70.7915980572352 0.460809962905   17.818334905822  
! Gamma         0                0                0                0                
! Port Impedance         50               0                50               0                
34.7                           0.461244734780532 17.5947781483827 0.873512708165346 -70.9686243014258 0.873512708165346 -70.9686243014258 0.461258941133147 17.6454458335811 
! Gamma         0                0                0                0                
! Port Impedance         50               0                50               0                
34.8                           0.461688843245679 17.4215737208693 0.873281170989017 -71.1455618019366 0.873281170989016 -71.1455618019367 0.4617031357306  17.4726433652335 
! Gamma         0                0                0                0                
! Port Impedance         50               0                50               0                
34.9                           0.462128172573664 17.2484522427009 0.873051864701605 -71.3224114893442 0.873051864701605 -71.3224114893443 0.462142551586063 17.2999266484557 
! Gamma         0                0                0                0                
! Port Impedance         50               0                50               0                
35                             0.462562727613088 17.0754128418019 0.872824794572468 -71.4991742958425 0.872824794572467 -71.4991742958425 0.462577193551361 17.1272948293248 
! Gamma         0                0                0                0                
! Port Impedance         50               0                50               0                
35.1                           0.462992513175105 16.9024546443939 0.872599965799041 -71.6758511552184 0.872599965799041 -71.6758511552184 0.463007066440899 16.9547470523461 
! Gamma         0                0                0                0                
! Port Impedance         50               0                50               0                
35.2                           0.463417534032892 16.7295767750207 0.872377383507168 -71.8524430028274 0.872377383507167 -71.8524430028275 0.463432175031135 16.7822824604787 
! Gamma         0                0                0                0                
! Port Impedance         50               0                50               0                
35.3                           0.463837794921121 16.5567783565735 0.872157052751404 -72.028950775569 0.872157052751404 -72.0289507755691 0.463852524060054 16.609900195162  
! Gamma         0                0                0                0                
! Port Impedance         50               0                50               0                
35.4                           0.46425330053545 16.384058510316  0.871938978515338 -72.2053754118626 0.871938978515337 -72.2053754118626 0.464268118226653 16.4375993963424 
! Gamma         0                0                0                0                
! Port Impedance         50               0                50               0                
35.5                           0.464664055532006 16.2114163559091 0.871723165711897 -72.3817178516232 0.871723165711897 -72.3817178516233 0.464678962190432 16.265379202499  
! Gamma         0                0                0                0                
! Port Impedance         50               0                50               0                
35.6                           0.465070064526889 16.0388510114354 0.871509619183663 -72.5579790362384 0.871509619183663 -72.5579790362384 0.46508506057089 16.0932387506696 
! Gamma         0                0                0                0                
! Port Impedance         50               0                50               0                
35.7                           0.465471332095672 15.8663615934239 0.871298343703175 -72.7341599085436 0.871298343703175 -72.7341599085437 0.465486417947033 15.9211771764767 
! Gamma         0                0                0                0                
! Port Impedance         50               0                50               0                
35.8                           0.465867862772914 15.6939472168747 0.871089343973235 -72.9102614127995 0.871089343973234 -72.9102614127996 0.465883038856884 15.7491936141533 
! Gamma         0                0                0                0                
! Port Impedance         50               0                50               0                
35.9                           0.466259661051679 15.5216069952827 0.870882624627211 -73.0862844946682 0.870882624627211 -73.0862844946683 0.466274927797002 15.5772871965685 
! Gamma         0                0                0                0                
! Port Impedance         50               0                50               0                
36                             0.466646731383061 15.3493400406624 0.870678190229342 -73.2622301011903 0.870678190229341 -73.2622301011903 0.466662089222004 15.4054570552529 
! Gamma         0                0                0                0                
! Port Impedance         50               0                50               0                
36.1                           0.467029078175717 15.1771454635713 0.870476045275031 -73.4380991807616 0.87047604527503 -73.4380991807617 0.467044527544106 15.2337023204242 
! Gamma         0                0                0                0                
! Port Impedance         50               0                50               0                
36.2                           0.467406705795402 15.0050223731343 0.870276194191142 -73.6138926831107 0.870276194191142 -73.6138926831108 0.467422247132652 15.0620221210123 
! Gamma         0                0                0                0                
! Port Impedance         50               0                50               0                
36.3                           0.467779618564521 14.8329698770672 0.870078641336298 -73.7896115592761 0.870078641336298 -73.7896115592762 0.467795252313669 14.8904155846847 
! Gamma         0                0                0                0                
! Port Impedance         50               0                50               0                
36.4                           0.468147820761677 14.6609870817004 0.869883391001168 -73.9652567615837 0.869883391001167 -73.9652567615838 0.468163547369413 14.7188818378715 
! Gamma         0                0                0                0                
! Port Impedance         50               0                50               0                
36.5                           0.468511316621232 14.4890730920024 0.869690447408754 -74.1408292436246 0.869690447408754 -74.1408292436246 0.468527136537933 14.5474200057901 
! Gamma         0                0                0                0                
! Port Impedance         50               0                50               0                
36.6                           0.468870110332871 14.3172270116032 0.869499814714686 -74.3163299602327 0.869499814714685 -74.3163299602327 0.468886024012636 14.3760292124705 
! Gamma         0                0                0                0                
! Port Impedance         50               0                50               0                
36.7                           0.46922420604118 14.1454479428177 0.869311497007492 -74.4917598674629 0.869311497007492 -74.491759867463 0.469240213941858 14.2047085807799 
! Gamma         0                0                0                0                
! Port Impedance         50               0                50               0                
36.8                           0.469573607845218 13.9737349866686 0.869125498308893 -74.6671199225694 0.869125498308893 -74.6671199225695 0.469589710428448 14.0334572324469 
! Gamma         0                0                0                0                
! Port Impedance         50               0                50               0                
36.9                           0.46991831979811 13.8020872429094 0.86894182257407 -74.8424110839835 0.868941822574069 -74.8424110839836 0.469934517529349 13.8622742880866 
! Gamma         0                0                0                0                
! Port Impedance         50               0                50               0                
37                             0.470258345906635 13.6305038100476 0.868760473691945 -75.0176343112927 0.868760473691944 -75.0176343112928 0.470274639255197 13.6911588672249 
! Gamma         0                0                0                0                
! Port Impedance         50               0                50               0                
37.1                           0.470593690130826 13.4589837853672 0.868581455485451 -75.1927905652189 0.868581455485451 -75.192790565219 0.470610079569916 13.5201100883226 
! Gamma         0                0                0                0                
! Port Impedance         50               0                50               0                
37.2                           0.47092435638358 13.2875262649514 0.868404771711804 -75.3678808075972 0.868404771711804 -75.3678808075973 0.470940842390324 13.3491270687998 
! Gamma         0                0                0                0                
! Port Impedance         50               0                50               0                
37.3                           0.471250348530262 13.1161303437053 0.868230426062767 -75.5429060013551 0.868230426062767 -75.5429060013552 0.47126693158575 13.1782089250597 
! Gamma         0                0                0                0                
! Port Impedance         50               0                50               0                
37.4                           0.471571670388332 12.944795115378  0.868058422164916 -75.7178671104915 0.868058422164916 -75.7178671104916 0.471588350977648 13.0073547725134 
! Gamma         0                0                0                0                
! Port Impedance         50               0                50               0                
37.5                           0.471888325726966 12.7735196725853 0.867888763579897 -75.8927651000558 0.867888763579896 -75.8927651000559 0.471905104339225 12.8365637256029 
! Gamma         0                0                0                0                
! Port Impedance         50               0                50               0                
37.6                           0.472200318266689 12.6023031068313 0.867721453804687 -76.0676009361275 0.867721453804687 -76.0676009361276 0.472217195395075 12.6658348978253 
! Gamma         0                0                0                0                
! Port Impedance         50               0                50               0                
37.7                           0.472507651679012 12.4311445085314 0.867556496271848 -76.2423755857956 0.867556496271848 -76.2423755857957 0.472524627820811 12.4951674017568 
! Gamma         0                0                0                0                
! Port Impedance         50               0                50               0                
37.8                           0.472810329586077 12.2600429670331 0.867393894349778 -76.4170900171383 0.867393894349778 -76.4170900171383 0.472827405242719 12.324560349076  
! Gamma         0                0                0                0                
! Port Impedance         50               0                50               0                
37.9                           0.473108355560308 12.0889975706389 0.867233651342957 -76.5917451992029 0.867233651342956 -76.591745199203 0.473125531237402 12.1540128505875 
! Gamma         0                0                0                0                
! Port Impedance         50               0                50               0                
38                             0.473401733124069 11.9180074066275 0.867075770492194 -76.7663421019859 0.867075770492193 -76.766342101986 0.473419009331438 11.9835240162454 
! Gamma         0                0                0                0                
! Port Impedance         50               0                50               0                
38.1                           0.473690465749326 11.7470715612753 0.866920254974869 -76.9408816964128 0.866920254974868 -76.9408816964129 0.47370784300105 11.8130929551766 
! Gamma         0                0                0                0                
! Port Impedance         50               0                50               0                
38.2                           0.473974556857317 11.5761891198785 0.86676710790517 -77.1153649543188 0.86676710790517 -77.1153649543188 0.473992035671767 11.6427187757044 
! Gamma         0                0                0                0                
! Port Impedance         50               0                50               0                
38.3                           0.474254009818229 11.405359166774  0.866616332334329 -77.2897928484286 0.866616332334329 -77.2897928484287 0.474271590718108 11.4724005853712 
! Gamma         0                0                0                0                
! Port Impedance         50               0                50               0                
38.4                           0.474528827950877 11.2345807853608 0.866467931250852 -77.4641663523378 0.866467931250852 -77.4641663523379 0.474546511463261 11.3021374909619 
! Gamma         0                0                0                0                
! Port Impedance         50               0                50               0                
38.5                           0.474799014522398 11.0638530581216 0.866321907580748 -77.6384864404927 0.866321907580747 -77.6384864404928 0.474816801178772 11.1319285985271 
! Gamma         0                0                0                0                
! Port Impedance         50               0                50               0                
38.6                           0.47506457274794 10.8931750666435 0.866178264187754 -77.8127540881716 0.866178264187753 -77.8127540881717 0.47508246308424 10.9617730134056 
! Gamma         0                0                0                0                
! Port Impedance         50               0                50               0                
38.7                           0.475325505790366 10.7225458916392 0.866037003873554 -77.9869702714658 0.866037003873554 -77.9869702714659 0.475343500347018 10.7916698402478 
! Gamma         0                0                0                0                
! Port Impedance         50               0                50               0                
38.8                           0.475581816759957 10.5519646129679 0.865898129378002 -78.1611359672604 0.865898129378002 -78.1611359672605 0.475599916081921 10.621618183038  
! Gamma         0                0                0                0                
! Port Impedance         50               0                50               0                
38.9                           0.475833508714129 10.3814303096562 0.865761643379328 -78.3352521532156 0.865761643379328 -78.3352521532157 0.475851713350939 10.4516171451178 
! Gamma         0                0                0                0                
! Port Impedance         50               0                50               0                
39                             0.476080584657152 10.2109420599187 0.865627548494356 -78.5093198077481 0.865627548494356 -78.5093198077482 0.476098895162954 10.281665829208  
! Gamma         0                0                0                0                
! Port Impedance         50               0                50               0                
39.1                           0.476323047539869 10.0404989411789 0.865495847278705 -78.6833399100126 0.865495847278704 -78.6833399100126 0.476341464473467 10.1117633374318 
! Gamma         0                0                0                0                
! Port Impedance         50               0                50               0                
39.2                           0.476560900259432 9.87010003008938 0.865366542226994 -78.8573134398831 0.865366542226994 -78.8573134398831 0.476579424184331 9.94190877133705 
! Gamma         0                0                0                0                
! Port Impedance         50               0                50               0                
39.3                           0.47679414565904 9.69974440255276 0.865239635773045 -79.0312413779349 0.865239635773045 -79.031241377935 0.476812777143487 9.77210123191875 
! Gamma         0                0                0                0                
! Port Impedance         50               0                50               0                
39.4                           0.477022786527676 9.52943113374173 0.865115130290072 -79.2051247054264 0.865115130290072 -79.2051247054265 0.477041526144703 9.60233981964161 
! Gamma         0                0                0                0                
! Port Impedance         50               0                50               0                
39.5                           0.477246825599861 9.35915929811949 0.864993028090877 -79.3789644042808 0.864993028090877 -79.3789644042808 0.477265673927332 9.43262363446223 
! Gamma         0                0                0                0                
! Port Impedance         50               0                50               0                
39.6                           0.477466265555405 9.18892796945999 0.864873331428038 -79.5527614570682 0.864873331428038 -79.5527614570683 0.477485223176057 9.26295177585155 
! Gamma         0                0                0                0                
! Port Impedance         50               0                50               0                
39.7                           0.477681109019171 9.01873622086809 0.864756042494092 -79.7265168469882 0.864756042494092 -79.7265168469882 0.477700176520661 9.09332334281696 
! Gamma         0                0                0                0                
! Port Impedance         50               0                50               0                
39.8                           0.477891358560837 8.84858312479962 0.864641163421714 -79.9002315578512 0.864641163421714 -79.9002315578513 0.477910536535786 8.92373743392464 
! Gamma         0                0                0                0                
! Port Impedance         50               0                50               0                
39.9                           0.478097016694671 8.67846775308137 0.864528696283898 -80.0739065740621 0.864528696283898 -80.0739065740622 0.478116305740712 8.75419314732156 
! Gamma         0                0                0                0                
! Port Impedance         50               0                50               0                
40                             0.47829808587931 8.50838917693109 0.864418643094124 -80.2475428806016 0.864418643094124 -80.2475428806017 0.478317486599132 8.58468958075772 
! Gamma         0                0                0                0                
! Port Impedance         50               0                50               0                
40.1                           0.47849456851754 8.33834646697729 0.864311005806532 -80.4211414630093 0.864311005806532 -80.4211414630094 0.478514081518935 8.41522583160811 
! Gamma         0                0                0                0                
! Port Impedance         50               0                50               0                
40.2                           0.478686466956087 8.16833869327905 0.86420578631608 -80.5947033073665 0.864205786316079 -80.5947033073666 0.478706092851999 8.24580099689479 
! Gamma         0                0                0                0                
! Port Impedance         50               0                50               0                
40.3                           0.478873783485415 7.9983649253458  0.86410298645871 -80.7682294002787 0.86410298645871 -80.7682294002788 0.478893522893987 8.07641417330883 
! Gamma         0                0                0                0                
! Port Impedance         50               0                50               0                
40.4                           0.479056520339522 7.82842423215692 0.864002608011507 -80.9417207288587 0.864002608011506 -80.9417207288588 0.479076373884143 7.90706445723229 
! Gamma         0                0                0                0                
! Port Impedance         50               0                50               0                
40.5                           0.479234679695749 7.6585156821814  0.863904652692839 -81.1151782807095 0.863904652692839 -81.1151782807096 0.479254648005106 7.73775094476011 
! Gamma         0                0                0                0                
! Port Impedance         50               0                50               0                
40.6                           0.479408263674595 7.48863834339737 0.863809122162521 -81.2886030439072 0.863809122162521 -81.2886030439073 0.479428347382718 7.568472731722   
! Gamma         0                0                0                0                
! Port Impedance         50               0                50               0                
40.7                           0.479577274339529 7.31879128331163 0.863716018021951 -81.4619960069846 0.863716018021951 -81.4619960069847 0.479597474085846 7.39922891370429 
! Gamma         0                0                0                0                
! Port Impedance         50               0                50               0                
40.8                           0.479741713696818 7.14897356897903 0.863625341814248 -81.635358158914 0.863625341814248 -81.6353581589141 0.479762030126203 7.23001858607177 
! Gamma         0                0                0                0                
! Port Impedance         50               0                50               0                
40.9                           0.479901583695356 6.97918426702191 0.863537095024397 -81.8086904890908 0.863537095024397 -81.8086904890908 0.479922017458178 7.06084084398951 
! Gamma         0                0                0                0                
! Port Impedance         50               0                50               0                
41                             0.480056886226495 6.80942244364943 0.86345127907937 -81.9819939873166 0.86345127907937 -81.9819939873167 0.480077437978674 6.89169478244463 
! Gamma         0                0                0                0                
! Port Impedance         50               0                50               0                
41.1                           0.480207623123889 6.63968716467689 0.863367895348264 -82.1552696437833 0.863367895348264 -82.1552696437834 0.480228293526945 6.72257949626805 
! Gamma         0                0                0                0                
! Port Impedance         50               0                50               0                
41.2                           0.48035379616334 6.46997749554492 0.863286945142416 -82.3285184490561 0.863286945142416 -82.3285184490561 0.480374585884447 6.55349408015633 
! Gamma         0                0                0                0                
! Port Impedance         50               0                50               0                
41.3                           0.480495407062647 6.30029250133878 0.86320842971553 -82.5017413940573 0.86320842971553 -82.5017413940574 0.480516316774687 6.38443762869336 
! Gamma         0                0                0                0                
! Port Impedance         50               0                50               0                
41.4                           0.480632457481464 6.13063124680744 0.863132350263786 -82.6749394700504 0.863132350263786 -82.6749394700505 0.480653487863079 6.21540923637209 
! Gamma         0                0                0                0                
! Port Impedance         50               0                50               0                
41.5                           0.480764949021163 5.96099279638279 0.863058707925952 -82.8481136686233 0.863058707925953 -82.8481136686234 0.480786100756812 6.04640799761634 
! Gamma         0                0                0                0                
! Port Impedance         50               0                50               0                
41.6                           0.480892883224701 5.79137621419872 0.862987503783496 -83.0212649816726 0.862987503783496 -83.0212649816726 0.480914157004714 5.87743300680247 
! Gamma         0                0                0                0                
! Port Impedance         50               0                50               0                
41.7                           0.481016261576496 5.62178056411019 0.862918738860679 -83.1943944013872 0.86291873886068 -83.1943944013872 0.481037658097128 5.70848335828118 
! Gamma         0                0                0                0                
! Port Impedance         50               0                50               0                
41.8                           0.4811350855023  5.45220490971226 0.862852414124662 -83.3675029202328 0.862852414124662 -83.3675029202329 0.481156605465792 5.53955814639921 
! Gamma         0                0                0                0                
! Port Impedance         50               0                50               0                
41.9                           0.481249356369091 5.28264831435915 0.862788530485592 -83.5405915309355 0.862788530485592 -83.5405915309355 0.481271000483724 5.3706564655211  
! Gamma         0                0                0                0                
! Port Impedance         50               0                50               0                
42                             0.481359075484957 5.11310984118321 0.862727088796697 -83.7136612264661 0.862727088796697 -83.7136612264661 0.481380844465109 5.20177741005101 
! Gamma         0                0                0                0                
! Port Impedance         50               0                50               0                
42.1                           0.481464244098995 4.94358855311388 0.862668089854369 -83.8867130000242 0.86266808985437 -83.8867130000243 0.481486138665202 5.03292007445443 
! Gamma         0                0                0                0                
! Port Impedance         50               0                50               0                
42.2                           0.481564863401208 4.77408351289672 0.862611534398244 -84.0597478450226 0.862611534398244 -84.0597478450226 0.481586884280221 4.86408355328004 
! Gamma         0                0                0                0                
! Port Impedance         50               0                50               0                
42.3                           0.481660934522414 4.60459378311221 0.862557423111275 -84.2327667550713 0.862557423111276 -84.2327667550714 0.481683082447259 4.69526694118146 
! Gamma         0                0                0                0                
! Port Impedance         50               0                50               0                
42.4                           0.481752458534156 4.43511842619486 0.862505756619813 -84.4057707239622 0.862505756619813 -84.4057707239622 0.481774734244196 4.52646933293915 
! Gamma         0                0                0                0                
! Port Impedance         50               0                50               0                
42.5                           0.48183943644862 4.26565650445202 0.862456535493664 -84.5787607456531 0.862456535493665 -84.5787607456532 0.481861840689615 4.35768982348232 
! Gamma         0                0                0                0                
! Port Impedance         50               0                50               0                
42.6                           0.481921869218557 4.0962070800828  0.862409760246159 -84.7517378142524 0.862409760246159 -84.7517378142524 0.481944402742724 4.18892750791071 
! Gamma         0                0                0                0                
! Port Impedance         50               0                50               0                
42.7                           0.481999757737207 3.92676921519704 0.862365431334207 -84.9247029240033 0.862365431334207 -84.9247029240033 0.482022421303287 4.02018148151667 
! Gamma         0                0                0                0                
! Port Impedance         50               0                50               0                
42.8                           0.482073102838239 3.75734197183417 0.862323549158355 -85.0976570692687 0.862323549158355 -85.0976570692687 0.482095897211557 3.85145083980701 
! Gamma         0                0                0                0                
! Port Impedance         50               0                50               0                
42.9                           0.482141905295684 3.58792441198216 0.862284114062832 -85.2706012445152 0.862284114062832 -85.2706012445152 0.482164831248211 3.68273467852514 
! Gamma         0                0                0                0                
! Port Impedance         50               0                50               0                
43                             0.482206165823878 3.41851559759638 0.862247126335597 -85.4435364442982 0.862247126335598 -85.4435364442982 0.482229224134302 3.51403209367301 
! Gamma         0                0                0                0                
! Port Impedance         50               0                50               0                
43.1                           0.482265885077416 3.24911459061861 0.86221258620838 -85.6164636632461 0.862212586208381 -85.6164636632461 0.482289076531202 3.34534218153333 
! Gamma         0                0                0                0                
! Port Impedance         50               0                50               0                
43.2                           0.4823210636511  3.07972045299594 0.862180493856717 -85.7893838960451 0.862180493856717 -85.7893838960451 0.482344389040559 3.17666403869168 
! Gamma         0                0                0                0                
! Port Impedance         50               0                50               0                
43.3                           0.482371702079906 2.91033224669965 0.86215084939998 -85.9622981374239 0.86215084939998 -85.962298137424 0.482395162204259 3.00799676205869 
! Gamma         0                0                0                0                
! Port Impedance         50               0                50               0                
43.4                           0.482417800838942 2.74094903374432 0.862123652901407 -86.1352073821384 0.862123652901407 -86.1352073821385 0.482441396504391 2.83933944889243 
! Gamma         0                0                0                0                
! Port Impedance         50               0                50               0                
43.5                           0.482459360343422 2.57156987620671 0.862098904368124 -86.3081126249561 0.862098904368124 -86.3081126249562 0.482483092363218 2.67069119682063 
! Gamma         0                0                0                0                
! Port Impedance         50               0                50               0                
43.6                           0.482496380948642 2.40219383624481 0.86207660375116 -86.4810148606412 0.86207660375116 -86.4810148606412 0.482520250143151 2.50205110386318 
! Gamma         0                0                0                0                
! Port Impedance         50               0                50               0                
43.7                           0.482528862949957 2.23281997611686 0.862056750945466 -86.6539150839389 0.862056750945466 -86.6539150839389 0.482552870146737 2.33341826845455 
! Gamma         0                0                0                0                
! Port Impedance         50               0                50               0                
43.8                           0.482556806582772 2.06344735820041 0.862039345789918 -86.8268142895607 0.862039345789919 -86.8268142895607 0.482580952616637 2.16479178946637 
! Gamma         0                0                0                0                
! Port Impedance         50               0                50               0                
43.9                           0.482580212022533 1.89407504501148 0.862024388067327 -86.9997134721687 0.862024388067327 -86.9997134721687 0.482604497735628 1.99617076623004 
! Gamma         0                0                0                0                
! Port Impedance         50               0                50               0                
44                             0.482599079384721 1.72470209922359 0.862011877504432 -87.1726136263604 0.862011877504433 -87.1726136263605 0.482623505626594 1.82755429855947 
! Gamma         0                0                0                0                
! Port Impedance         50               0                50               0                
44.1                           0.482613408724855 1.55532758368703 0.862001813771904 -87.3455157466538 0.862001813771905 -87.3455157466539 0.482637976352531 1.65894148677385 
! Gamma         0                0                0                0                
! Port Impedance         50               0                50               0                
44.2                           0.482623200038501 1.38595056144795 0.861994196484329 -87.5184208274718 0.861994196484329 -87.5184208274718 0.482647909916557 1.4903314317205  
! Gamma         0                0                0                0                
! Port Impedance         50               0                50               0                
44.3                           0.482628453261286 1.21657009576776 0.861989025200198 -87.6913298631269 0.861989025200199 -87.691329863127 0.482653306261924 1.32172323479795 
! Gamma         0                0                0                0                
! Port Impedance         50               0                50               0                
44.4                           0.482629168268911 1.04718525014233 0.861986299421889 -87.8642438478065 0.86198629942189 -87.8642438478065 0.482654165272036 1.15311599797893 
! Gamma         0                0                0                0                
! Port Impedance         50               0                50               0                
44.5                           0.482625344877181 0.877795088321371 0.861986018595641 -88.037163775557 0.861986018595641 -88.0371637755571 0.482650486770477 0.984508823833549 
! Gamma         0                0                0                0                
! Port Impedance         50               0                50               0                
44.6                           0.482616982842029 0.708398674327839 0.861988182111529 -88.210090640269 0.86198818211153 -88.210090640269 0.482642270521038 0.815900815552627 
! Gamma         0                0                0                0                
! Port Impedance         50               0                50               0                
44.7                           0.482604081859552 0.538995072477413 0.861992789303434 -88.3830254356617 0.861992789303435 -88.3830254356618 0.482629516227753 0.647291076971034 
! Gamma         0                0                0                0                
! Port Impedance         50               0                50               0                
44.8                           0.48258664156605 0.369583347398014 0.861999839448999 -88.555969155268 0.861999839449   -88.555969155268 0.482612223534936 0.478678712591225 
! Gamma         0                0                0                0                
! Port Impedance         50               0                50               0                
44.9                           0.482564661538073 0.200162564049373 0.862009331769596 -88.7289227924186 0.862009331769596 -88.7289227924187 0.482590392027235 0.31006282760682 
! Gamma         0                0                0                0                
! Port Impedance         50               0                50               0                
45                             0.482538141292468 0.0307317877427134 0.862021265430273 -88.9018873402275 0.862021265430274 -88.9018873402276 0.482564021229675 0.141442527926392 
! Gamma         0                0                0                0                
! Port Impedance         50               0                50               0                
45.1                           0.482507080286436 -0.138709915839537 0.862035639539712 -89.0748637915759 0.862035639539712 -89.0748637915759 0.482533110607718 -0.027183079802691 
! Gamma         0                0                0                0                
! Port Impedance         50               0                50               0                
45.2                           0.482471477917593 -0.308163480623984 0.862052453150164 -89.2478531390971 0.862052453150164 -89.2478531390972 0.482497659567324 -0.195814888170303 
! Gamma         0                0                0                0                
! Port Impedance         50               0                50               0                
45.3                           0.482431333524037 -0.477629840126312 0.862071705257397 -89.4208563751613 0.862071705257398 -89.4208563751613 0.482457667455022 -0.364453788979368 
! Gamma         0                0                0                0                
! Port Impedance         50               0                50               0                
45.4                           0.482386646384419 -0.647109927431397 0.86209339480063 -89.5938744918598 0.86209339480063 -89.5938744918598 0.482413133557976 -0.533100673221636 
! Gamma         0                0                0                0                
! Port Impedance         50               0                50               0                
45.5                           0.482337415718019 -0.816604675173241 0.862117520662461 -89.7669084809897 0.862117520662461 -89.7669084809898 0.482364057104069 -0.70175643105326 
! Gamma         0                0                0                0                
! Port Impedance         50               0                50               0                
45.6                           0.48228364068483 -0.986115015514862 0.862144081668798 -89.9399593340387 0.862144081668799 -89.9399593340387 0.482310437261982 -0.870421951770259 
! Gamma         0                0                0                0                
! Port Impedance         50               0                50               0                
45.7                           0.482225320385647 -1.15564188012806 0.86217307658878 -90.1130280421688 0.862173076588781 -90.1130280421688 0.482252273141288 -1.03909812378378 
! Gamma         0                0                0                0                
! Port Impedance         50               0                50               0                
45.8                           0.482162453862157 -1.32518620017313 0.862204504134693 -90.2861155962015 0.862204504134693 -90.2861155962015 0.482189563792543 -1.20778583459528 
! Gamma         0                0                0                0                
! Port Impedance         50               0                50               0                
45.9                           0.482095040097041 -1.49474890627844 0.862238362961883 -90.4592229866018 0.862238362961884 -90.4592229866018 0.482122308207385 -1.37648597077146 
! Gamma         0                0                0                0                
! Port Impedance         50               0                50               0                
46                             0.482023078014078 -1.66433092851993 0.862274651668668 -90.6323512034622 0.862274651668669 -90.6323512034622 0.482050505318644 -1.54519941791911 
! Gamma         0                0                0                0                
! Port Impedance         50               0                50               0                
46.1                           0.48194656647825 -1.83393319640052 0.862313368796239 -90.8055012364878 0.862313368796239 -90.8055012364879 0.481974154000446 -1.71392706065976 
! Gamma         0                0                0                0                
! Port Impedance         50               0                50               0                
46.2                           0.481865504295866 -2.00355663882934 0.862354512828556 -90.9786740749798 0.862354512828556 -90.9786740749798 0.481893253068337 -1.88266978260413 
! Gamma         0                0                0                0                
! Port Impedance         50               0                50               0                
46.3                           0.481779890214675 -2.17320218410098 0.86239808219225 -91.1518707078196 0.862398082192251 -91.1518707078197 0.481807801279399 -2.05142846632644 
! Gamma         0                0                0                0                
! Port Impedance         50               0                50               0                
46.4                           0.481689722923995 -2.34287075987448 0.862444075256511 -91.3250921234537 0.862444075256512 -91.3250921234537 0.481717797332379 -2.2202039933385 
! Gamma         0                0                0                0                
! Port Impedance         50               0                50               0                
46.5                           0.481595001054846 -2.51256329315229 0.862492490332969 -91.4983393098768 0.862492490332969 -91.4983393098768 0.481623239867826 -2.38899724406369 
! Gamma         0                0                0                0                
! Port Impedance         50               0                50               0                
46.6                           0.481495723180087 -2.68228071025911 0.862543325675581 -91.6716132546162 0.862543325675582 -91.6716132546162 0.481524127468223 -2.55780909781065 
! Gamma         0                0                0                0                
! Port Impedance         50               0                50               0                
46.7                           0.481391887814556 -2.85202393682056 0.862596579480506 -91.8449149447158 0.862596579480507 -91.8449149447158 0.481420458658134 -2.72664043274682 
! Gamma         0                0                0                0                
! Port Impedance         50               0                50               0                
46.8                           0.481283493415223 -3.02179389774172 0.862652249885976 -92.0182453667198 0.862652249885976 -92.0182453667198 0.481312231904356 -2.89549212587179 
! Gamma         0                0                0                0                
! Port Impedance         50               0                50               0                
46.9                           0.481170538381341 -3.19159151718563 0.862710334972164 -92.1916055066563 0.862710334972165 -92.1916055066563 0.481199445616072 -3.06436505299044 
! Gamma         0                0                0                0                
! Port Impedance         50               0                50               0                
47                             0.481053021054607 -3.36141771855152 0.862770832761049 -92.3649963500211 0.86277083276105 -92.3649963500211 0.481082098145011 -3.23326008868581 
! Gamma         0                0                0                0                
! Port Impedance         50               0                50               0                
47.1                           0.480930939719328 -3.53127342445298 0.862833741216275 -92.5384188817615 0.862833741216276 -92.5384188817615 0.480960187785619 -3.40217810629191 
! Gamma         0                0                0                0                
! Port Impedance         50               0                50               0                
47.2                           0.480804292602591 -3.70115955669602 0.862899058243001 -92.7118740862595 0.862899058243002 -92.7118740862595 0.480833712775226 -3.57111997786607 
! Gamma         0                0                0                0                
! Port Impedance         50               0                50               0                
47.3                           0.48067307787444 -3.87107703625684 0.862966781687755 -92.8853629473154 0.862966781687756 -92.8853629473154 0.480702671294229 -3.74008657416129 
! Gamma         0                0                0                0                
! Port Impedance         50               0                50               0                
47.4                           0.48053729364806 -4.04102678325965 0.863036909338281 -93.058886448131 0.863036909338282 -93.058886448131 0.480567061466271 -3.90907876459822 
! Gamma         0                0                0                0                
! Port Impedance         50               0                50               0                
47.5                           0.480396937979963 -4.21100971695413 0.863109438923375 -93.2324455712932 0.863109438923375 -93.2324455712932 0.480426881358436 -4.078097417237  
! Gamma         0                0                0                0                
! Port Impedance         50               0                50               0                
47.6                           0.480252008870184 -4.38102675569291 0.863184368112724 -93.4060412987566 0.863184368112724 -93.4060412987566 0.480282128981441 -4.24714339874874 
! Gamma         0                0                0                0                
! Port Impedance         50               0                50               0                
47.7                           0.480102504262481 -4.55107881690877 0.863261694516739 -93.5796746118271 0.86326169451674 -93.5796746118271 0.480132802289838 -4.41621757438689 
! Gamma         0                0                0                0                
! Port Impedance         50               0                50               0                
47.8                           0.479948422044539 -4.72116681709171 0.863341415686384 -93.7533464911445 0.863341415686385 -93.7533464911445 0.479978899182222 -4.58532080795826 
! Gamma         0                0                0                0                
! Port Impedance         50               0                50               0                
47.9                           0.479789760048184 -4.89129167176586 0.863423529112997 -93.9270579166656 0.863423529112998 -93.9270579166656 0.479820417501441 -4.7544539617938 
! Gamma         0                0                0                0                
! Port Impedance         50               0                50               0                
48                             0.479626516049598 -5.06145429546625 0.863508032228107 -94.1008098676468 0.863508032228108 -94.1008098676468 0.479657355034821 -4.92361789671918 
! Gamma         0                0                0                0                
! Port Impedance         50               0                50               0                
48.1                           0.479458687769545 -5.23165560171526 0.863594922403256 -94.2746033226268 0.863594922403258 -94.2746033226268 0.479489709514383 -5.09281347202502 
! Gamma         0                0                0                0                
! Port Impedance         50               0                50               0                
48.2                           0.479286272873597 -5.40189650299909 0.863684196949804 -94.4484392594092 0.863684196949805 -94.4484392594092 0.479317478617081 -5.26204154543687 
! Gamma         0                0                0                0                
! Port Impedance         50               0                50               0                
48.3                           0.479109268972373 -5.5721779107439 0.863775853118735 -94.6223186550447 0.863775853118736 -94.6223186550447 0.479140659965034 -5.43130297308498 
! Gamma         0                0                0                0                
! Port Impedance         50               0                50               0                
48.4                           0.478927673621778 -5.7425007352918 0.863869888100463 -94.7962424858137 0.863869888100464 -94.7962424858137 0.478959251125772 -5.60059860947366 
! Gamma         0                0                0                0                
! Port Impedance         50               0                50               0                
48.5                           0.478741484323251 -5.91286588587669 0.863966299024625 -94.9702117272083 0.863966299024627 -94.9702117272083 0.47877324961248 -5.76992930745049 
! Gamma         0                0                0                0                
! Port Impedance         50               0                50               0                
48.6                           0.478550698524019 -6.0832742705998 0.864065082959879 -95.1442273539145 0.86406508295988 -95.1442273539145 0.47858265288426 -5.93929591817513 
! Gamma         0                0                0                0                
! Port Impedance         50               0                50               0                
48.7                           0.478355313617355 -6.25372679640516 0.864166236913689 -95.3182903397941 0.86416623691369 -95.3182903397941 0.478387458346387 -6.10869929108785 
! Gamma         0                0                0                0                
! Port Impedance         50               0                50               0                
48.8                           0.478155326942844 -6.42422436905477 0.864269757832112 -95.4924016578663 0.864269757832113 -95.4924016578663 0.478187663350577 -6.2781402738778 
! Gamma         0                0                0                0                
! Port Impedance         50               0                50               0                
48.9                           0.477950735786657 -6.59476789310356 0.86437564259958 -95.6665622802897 0.864375642599581 -95.6665622802897 0.477983265195261 -6.44761971245093 
! Gamma         0                0                0                0                
! Port Impedance         50               0                50               0                
49                             0.477741537381826 -6.76535827187424 0.864483888038676 -95.8407731783438 0.864483888038677 -95.8407731783438 0.477774261125866 -6.61713845089761 
! Gamma         0                0                0                0                
! Port Impedance         50               0                50               0                
49.1                           0.477527728908532 -6.93599640743178 0.864594490909903 -96.0150353224101 0.864594490909904 -96.0150353224101 0.477560648335097 -6.7866973314599 
! Gamma         0                0                0                0                
! Port Impedance         50               0                50               0                
49.2                           0.477309307494389 -7.10668320055779 0.864707447911458 -96.1893496819538 0.864707447911459 -96.1893496819538 0.477342423963234 -6.95629719449846 
! Gamma         0                0                0                0                
! Port Impedance         50               0                50               0                
49.3                           0.477086270214748 -7.2774195507246 0.864822755678994 -96.3637172255048 0.864822755678995 -96.3637172255048 0.477119585098427 -7.12593887845927 
! Gamma         0                0                0                0                
! Port Impedance         50               0                50               0                
49.4                           0.476858614092996 -7.44820635606919 0.86494041078538 -96.5381389206385 0.864940410785381 -96.5381389206385 0.476892128777001 -7.29562321983983 
! Gamma         0                0                0                0                
! Port Impedance         50               0                50               0                
49.5                           0.476626336100866 -7.6190445133668 0.865060409740455 -96.7126157339569 0.865060409740457 -96.712615733957 0.47666005198377 -7.46535105315511 
! Gamma         0                0                0                0                
! Port Impedance         50               0                50               0                
49.6                           0.476389433158754 -7.78993491800432 0.865182748990787 -96.8871486310692 0.865182748990788 -96.8871486310692 0.476423351652352 -7.63512321090312 
! Gamma         0                0                0                0                
! Port Impedance         50               0                50               0                
49.7                           0.476147902136042 -7.96087846395351 0.865307424919413 -97.0617385765722 0.865307424919414 -97.0617385765722 0.476182024665493 -7.80494052353013 
! Gamma         0                0                0                0                
! Port Impedance         50               0                50               0                
49.8                           0.475901739851422 -8.13187604374387 0.86543443384559 -97.2363865340309 0.865434433845591 -97.2363865340309 0.475936067855399 -7.97480381939552 
! Gamma         0                0                0                0                
! Port Impedance         50               0                50               0                
49.9                           0.475650943073239 -8.30292854843534 0.865563772024531 -97.4110934659588 0.865563772024532 -97.4110934659588 0.475685478004075 -8.14471392473625 
! Gamma         0                0                0                0                
! Port Impedance         50               0                50               0                
50                             0.475395508519826 -8.47403686759071 0.865695435647146 -97.5858603337977 0.865695435647147 -97.5858603337976 0.475430251843664 -8.31467166363093 
! Gamma         0                0                0                0                
! Port Impedance         50               0                50               0                
50.1                           0.475135432859858 -8.64520188924773 0.865829420839768 -97.7606880978976 0.865829420839769 -97.7606880978976 0.4751703860568  -8.48467785796355 
! Gamma         0                0                0                0                
! Port Impedance         50               0                50               0                
50.2                           0.474870712712702 -8.81642449989104 0.86596572366389 -97.9355777174968 0.865965723663891 -97.9355777174968 0.474905877276968 -8.65473332738681 
! Gamma         0                0                0                0                
! Port Impedance         50               0                50               0                
50.3                           0.474601344648783 -8.98770558442379 0.866104340115881 -98.1105301507012 0.866104340115882 -98.1105301507012 0.474636722088862 -8.82483888928495 
! Gamma         0                0                0                0                
! Port Impedance         50               0                50               0                
50.4                           0.474327325189953 -9.15904602613897 0.866245266126716 -98.2855463544637 0.866245266126717 -98.2855463544637 0.47436291702876 -8.99499535873637 
! Gamma         0                0                0                0                
! Port Impedance         50               0                50               0                
50.5                           0.47404865080986 -9.33044670669048 0.866388497561688 -98.4606272845635 0.866388497561689 -98.4606272845635 0.474084458584899 -9.16520354847562 
! Gamma         0                0                0                0                
! Port Impedance         50               0                50               0                
50.6                           0.47376531793434 -9.5019085060639 0.866534030220123 -98.6357738955851 0.866534030220124 -98.635773895585 0.473801343197861 -9.33546426885515 
! Gamma         0                0                0                0                
! Port Impedance         50               0                50               0                
50.7                           0.473477322941798 -9.67343230254706 0.866681859835091 -98.8109871408972 0.866681859835092 -98.8109871408972 0.473513567260964 -9.50577832780649 
! Gamma         0                0                0                0                
! Port Impedance         50               0                50               0                
50.8                           0.473184662163606 -9.84501897270014 0.866831982073112 -98.9862679726314 0.866831982073113 -98.9862679726314 0.473221127120659 -9.6761465308011 
! Gamma         0                0                0                0                
! Port Impedance         50               0                50               0                
50.9                           0.472887331884509 -10.0166693913257 0.866984392533857 -99.1616173416607 0.866984392533858 -99.1616173416607 0.472924019076933 -9.84656968081072 
! Gamma         0                0                0                0                
! Port Impedance         50               0                50               0                
51                             0.472585328343033 -10.1883844314382 0.867139086749852 -99.3370361975778 0.867139086749853 -99.3370361975778 0.472622239383727 -10.0170485782673 
! Gamma         0                0                0                0                
! Port Impedance         50               0                50               0                
51.1                           0.472278647731899 -10.3601649642333 0.867296060186169 -99.5125254886732 0.86729606018617 -99.5125254886732 0.47231578424935 -10.1875840210223 
! Gamma         0                0                0                0                
! Port Impedance         50               0                50               0                
51.2                           0.471967286198452 -10.5320118590569 0.86745530824012 -99.6880861619132 0.867455308240122 -99.6880861619132 0.472004649836907 -10.3581768043062 
! Gamma         0                0                0                0                
! Port Impedance         50               0                50               0                
51.3                           0.471651239845089 -10.703925983374 0.867616826240949 -99.8637191629175 0.86761682624095 -99.8637191629175 0.471688832264731 -10.5288277206862 
! Gamma         0                0                0                0                
! Port Impedance         50               0                50               0                
51.4                           0.471330504729699 -10.8759082027367 0.867780609449511 -100.039425435937 0.867780609449512 -100.039425435937 0.471368327606827 -10.6995375600251 
! Gamma         0                0                0                0                
! Port Impedance         50               0                50               0                
51.5                           0.471005076866107 -11.0479593807525 0.867946653057959 -100.215205923831 0.86794665305796 -100.215205923831 0.471043131893316 -10.8703071094382 
! Gamma         0                0                0                0                
! Port Impedance         50               0                50               0                
51.6                           0.470674952224529 -11.2200803790518 0.868114952189424 -100.391061568043 0.868114952189425 -100.391061568043 0.470713241110894 -11.0411371532508 
! Gamma         0                0                0                0                
! Port Impedance         50               0                50               0                
51.7                           0.470340126732028 -11.3922720572556 0.868285501897684 -100.566993308582 0.868285501897685 -100.566993308582 0.47037865120329 -11.2120284729545 
! Gamma         0                0                0                0                
! Port Impedance         50               0                50               0                
51.8                           0.470000596272988 -11.5645352729423 0.868458297166844 -100.743002083993 0.868458297166845 -100.743002083993 0.470039358071739 -11.3829818471635 
! Gamma         0                0                0                0                
! Port Impedance         50               0                50               0                
51.9                           0.469656356689583 -11.7368708816145 0.868633332910999 -100.919088831339 0.868633332911   -100.919088831339 0.469695357575459 -11.5539980515698 
! Gamma         0                0                0                0                
! Port Impedance         50               0                50               0                
52                             0.469307403782261 -11.909279736665 0.868810603973905 -101.095254486172 0.868810603973906 -101.095254486172 0.469346645532136 -11.7250778588984 
! Gamma         0                0                0                0                
! Port Impedance         50               0                50               0                
52.1                           0.468953733310238 -12.0817626893436 0.868990105128637 -101.271499982515 0.868990105128639 -101.271499982515 0.468993217718417 -11.896222038862 
! Gamma         0                0                0                0                
! Port Impedance         50               0                50               0                
52.2                           0.46859534099199 -12.2543205887218 0.869171831077253 -101.447826252834 0.869171831077254 -101.447826252834 0.468635069870405 -12.0674313581142 
! Gamma         0                0                0                0                
! Port Impedance         50               0                50               0                
52.3                           0.468232222505759 -12.4269542816585 0.869355776450448 -101.624234228014 0.869355776450449 -101.624234228014 0.468272197684175 -12.2387065802037 
! Gamma         0                0                0                0                
! Port Impedance         50               0                50               0                
52.4                           0.467864373490069 -12.5996646127653 0.869541935807209 -101.800724837336 0.869541935807211 -101.800724837336 0.467904596816284 -12.4100484655267 
! Gamma         0                0                0                0                
! Port Impedance         50               0                50               0                
52.5                           0.467491789544243 -12.7724524243702 0.869730303634468 -101.977299008449 0.869730303634469 -101.977299008449 0.467532262884293 -12.5814577712789 
! Gamma         0                0                0                0                
! Port Impedance         50               0                50               0                
52.6                           0.467114466228936 -12.9453185564823 0.869920874346745 -102.153957667349 0.869920874346746 -102.153957667349 0.467155191467304 -12.7529352514078 
! Gamma         0                0                0                0                
! Port Impedance         50               0                50               0                
52.7                           0.466732399066663 -13.1182638467556 0.870113642285798 -102.330701738351 0.8701136422858  -102.330701738351 0.46677337810649 -12.9244816565631 
! Gamma         0                0                0                0                
! Port Impedance         50               0                50               0                
52.8                           0.46634558354235 -13.2912891304519 0.870308601720267 -102.507532144065 0.870308601720268 -102.507532144065 0.466386818305651 -13.0960977340476 
! Gamma         0                0                0                0                
! Port Impedance         50               0                50               0                
52.9                           0.465954015103885 -13.4643952404043 0.870505746845306 -102.68444980537 0.870505746845307 -102.68444980537 0.465995507531763 -13.267784227767 
! Gamma         0                0                0                0                
! Port Impedance         50               0                50               0                
53                             0.465557689162675 -13.6375830069796 0.87070507178223 -102.861455641385 0.870705071782231 -102.861455641385 0.465599441215541 -13.4395418781789 
! Gamma         0                0                0                0                
! Port Impedance         50               0                50               0                
53.1                           0.465156601094213 -13.8108532580404 0.870906570578142 -103.038550569448 0.870906570578144 -103.038550569448 0.46519861475201 -13.6113714222416 
! Gamma         0                0                0                0                
! Port Impedance         50               0                50               0                
53.2                           0.464750746238659 -13.9842068189067 0.871110237205572 -103.215735505086 0.871110237205573 -103.215735505086 0.464793023501087 -13.7832735933623 
! Gamma         0                0                0                0                
! Port Impedance         50               0                50               0                
53.3                           0.46434011990142 -14.1576445123177 0.871316065562101 -103.39301136199 0.871316065562103 -103.39301136199 0.464382662788163 -13.955249121344 
! Gamma         0                0                0                0                
! Port Impedance         50               0                50               0                
53.4                           0.463924717353744 -14.3311671583924 0.871524049469992 -103.570379051985 0.871524049469993 -103.570379051985 0.463967527904703 -14.1272987323325 
! Gamma         0                0                0                0                
! Port Impedance         50               0                50               0                
53.5                           0.463504533833318 -14.50477557459  0.871734182675812 -103.747839485008 0.871734182675814 -103.747839485008 0.463547614108845 -14.2994231487622 
! Gamma         0                0                0                0                
! Port Impedance         50               0                50               0                
53.6                           0.463079564544879 -14.6784705756703 0.871946458850061 -103.925393569075 0.871946458850063 -103.925393569075 0.463122916626016 -14.4716230893017 
! Gamma         0                0                0                0                
! Port Impedance         50               0                50               0                
53.7                           0.462649804660831 -14.852252973653 0.872160871586785 -104.103042210258 0.872160871586787 -104.103042210258 0.462693430649547 -14.6438992687982 
! Gamma         0                0                0                0                
! Port Impedance         50               0                50               0                
53.8                           0.46221524932187 -15.0261235777771 0.872377414403201 -104.280786312653 0.872377414403202 -104.280786312653 0.462259151341309 -14.8162523982215 
! Gamma         0                0                0                0                
! Port Impedance         50               0                50               0                
53.9                           0.461775893637616 -15.2000831944594 0.872596080739306 -104.458626778356 0.872596080739308 -104.458626778356 0.461820073832344 -14.9886831846074 
! Gamma         0                0                0                0                
! Port Impedance         50               0                50               0                
54                             0.461331732687259 -15.3741326272529 0.872816863957502 -104.636564507429 0.872816863957504 -104.636564507429 0.461376193223512 -15.1611923310001 
! Gamma         0                0                0                0                
! Port Impedance         50               0                50               0                
54.1                           0.460882761520207 -15.5482726768047 0.8730397573422  -104.814600397878 0.873039757342202 -104.814600397878 0.460927504586147 -15.3337805363941 
! Gamma         0                0                0                0                
! Port Impedance         50               0                50               0                
54.2                           0.460428975156745 -15.7225041408131 0.873264754099432 -104.992735345617 0.873264754099433 -104.992735345617 0.460474002962718 -15.5064484956749 
! Gamma         0                0                0                0                
! Port Impedance         50               0                50               0                
54.3                           0.459970368588707 -15.8968278139844 0.873491847356463 -105.170970244445 0.873491847356464 -105.170970244445 0.460015683367502 -15.6791968995599 
! Gamma         0                0                0                0                
! Port Impedance         50               0                50               0                
54.4                           0.459506936780148 -16.0712444879898 0.873721030161396 -105.349305986013 0.873721030161398 -105.349305986013 0.459552540787265 -15.8520264345373 
! Gamma         0                0                0                0                
! Port Impedance         50               0                50               0                
54.5                           0.459038674668034 -16.2457549514204 0.873952295482779 -105.527743459793 0.873952295482781 -105.527743459793 0.459084570181948 -16.0249377828053 
! Gamma         0                0                0                0                
! Port Impedance         50               0                50               0                
54.6                           0.458565577162932 -16.4203599897436 0.874185636209207 -105.706283553052 0.874185636209209 -105.706283553052 0.458611766485368 -16.1979316222098 
! Gamma         0                0                0                0                
! Port Impedance         50               0                50               0                
54.7                           0.458087639149718 -16.595060385257 0.874421045148927 -105.884927150817 0.874421045148928 -105.884927150817 0.458134124605923 -16.3710086261818 
! Gamma         0                0                0                0                
! Port Impedance         50               0                50               0                
54.8                           0.457604855488285 -16.7698569170437 0.874658515029435 -106.06367513585 0.874658515029436 -106.06367513585 0.457651639427312 -16.5441694636736 
! Gamma         0                0                0                0                
! Port Impedance         50               0                50               0                
54.9                           0.457117221014266 -16.9447503609252 0.874898038497081 -106.24252838861 0.874898038497082 -106.24252838861 0.457164305809252 -16.7174147990943 
! Gamma         0                0                0                0                
! Port Impedance         50               0                50               0                
55                             0.456624730539763 -17.1197414894156 0.875139608116664 -106.421487787228 0.875139608116665 -106.421487787228 0.456672118588222 -16.8907452922443 
! Gamma         0                0                0                0                
! Port Impedance         50               0                50               0                
55.1                           0.45612737885409 -17.294831071674 0.875383216371031 -106.600554207472 0.875383216371033 -106.600554207472 0.456175072578198 -17.0641615982496 
! Gamma         0                0                0                0                
! Port Impedance         50               0                50               0                
55.2                           0.455625160724516 -17.4700198734568 0.875628855660673 -106.779728522717 0.875628855660675 -106.779728522717 0.455673162571408 -17.2376643674944 
! Gamma         0                0                0                0                
! Port Impedance         50               0                50               0                
55.3                           0.455118070897026 -17.6453086570692 0.875876518303319 -106.959011603912 0.87587651830332 -106.959011603912 0.455166383339097 -17.4112542455532 
! Gamma         0                0                0                0                
! Port Impedance         50               0                50               0                
55.4                           0.454606104097085 -17.8206981813171 0.87612619653353 -107.138404319547 0.876126196533532 -107.138404319547 0.454654729632292 -17.5849318731221 
! Gamma         0                0                0                0                
! Port Impedance         50               0                50               0                
55.5                           0.454089255030416 -17.996189201457 0.876377882502298 -107.317907535623 0.876377882502299 -107.317907535623 0.454138196182585 -17.7586978859489 
! Gamma         0                0                0                0                
! Port Impedance         50               0                50               0                
55.6                           0.453567518383787 -18.1717824691463 0.876631568276629 -107.497522115615 0.876631568276631 -107.497522115615 0.453616777702925 -17.9325529147626 
! Gamma         0                0                0                0                
! Port Impedance         50               0                50               0                
55.7                           0.453040888825801 -18.3474787323929 0.876887245839147 -107.677248920444 0.876887245839148 -107.677248920444 0.453090468888412 -18.1064975852018 
! Gamma         0                0                0                0                
! Port Impedance         50               0                50               0                
55.8                           0.452509361007704 -18.5232787355041 0.877144907087674 -107.857088808439 0.877144907087675 -107.857088808439 0.45255926441711 -18.2805325177419 
! Gamma         0                0                0                0                
! Port Impedance         50               0                50               0                
55.9                           0.451972929564195 -18.6991832190349 0.877404543834828 -108.037042635304 0.87740454383483 -108.037042635304 0.452023158950861 -18.4546583276219 
! Gamma         0                0                0                0                
! Port Impedance         50               0                50               0                
56                             0.451431589114252 -18.8751929197356 0.877666147807615 -108.217111254085 0.877666147807616 -108.217111254085 0.451482147136116 -18.6288756247697 
! Gamma         0                0                0                0                
! Port Impedance         50               0                50               0                
56.1                           0.450885334261966 -19.051308570499 0.877929710647012 -108.397295515138 0.877929710647013 -108.397295515138 0.450936223604772 -18.8031850137267 
! Gamma         0                0                0                0                
! Port Impedance         50               0                50               0                
56.2                           0.450334159597377 -19.2275309003073 0.878195223907565 -108.577596266087 0.878195223907567 -108.577596266087 0.450385382975015 -18.9775870935713 
! Gamma         0                0                0                0                
! Port Impedance         50               0                50               0                
56.3                           0.449778059697331 -19.4038606341773 0.878462679056976 -108.758014351797 0.878462679056978 -108.758014351797 0.449829619852183 -19.1520824578411 
! Gamma         0                0                0                0                
! Port Impedance         50               0                50               0                
56.4                           0.449217029126343 -19.5802984931062 0.878732067475692 -108.938550614335 0.878732067475693 -108.938550614335 0.449268928829627 -19.3266716944544 
! Gamma         0                0                0                0                
! Port Impedance         50               0                50               0                
56.5                           0.448651062437462 -19.7568451940164 0.879003380456497 -109.119205892933 0.879003380456499 -109.119205892933 0.44870330448959 -19.5013553856308 
! Gamma         0                0                0                0                
! Port Impedance         50               0                50               0                
56.6                           0.448080154173156 -19.9335014496988 0.879276609204103 -109.299981023955 0.879276609204105 -109.299981023955 0.448132741404092 -19.6761341078101 
! Gamma         0                0                0                0                
! Port Impedance         50               0                50               0                
56.7                           0.447504298866205 -20.110267968757 0.879551744834739 -109.480876840859 0.879551744834741 -109.480876840859 0.447557234135827 -19.8510084315705 
! Gamma         0                0                0                0                
! Port Impedance         50               0                50               0                
56.8                           0.446923491040597 -20.2871454555493 0.879828778375745 -109.661894174161 0.879828778375746 -109.661894174161 0.446976777239071 -20.0259789215457 
! Gamma         0                0                0                0                
! Port Impedance         50               0                50               0                
56.9                           0.446337725212443 -20.4641346101313 0.88010770076516 -109.843033851399 0.880107700765161 -109.843033851399 0.446391365260591 -20.2010461363406 
! Gamma         0                0                0                0                
! Port Impedance         50               0                50               0                
57                             0.445746995890894 -20.6412361281967 0.880388502851318 -110.024296697093 0.88038850285132 -110.024296697093 0.445800992740581 -20.3762106284463 
! Gamma         0                0                0                0                
! Port Impedance         50               0                50               0                
57.1                           0.445151297579077 -20.8184507010186 0.880671175392441 -110.205683532713 0.880671175392442 -110.205683532712 0.44520565421359 -20.5514729441533 
! Gamma         0                0                0                0                
! Port Impedance         50               0                50               0                
57.2                           0.444550624775027 -20.995779015389 0.880955709056229 -110.387195176633 0.88095570905623 -110.387195176633 0.444605344209473 -20.726833623464 
! Gamma         0                0                0                0                
! Port Impedance         50               0                50               0                
57.3                           0.443944971972649 -21.1732217535582 0.881242094419461 -110.568832444102 0.881242094419463 -110.568832444102 0.444000057254347 -20.9022932000038 
! Gamma         0                0                0                0                
! Port Impedance         50               0                50               0                
57.4                           0.443334333662669 -21.3507795931735 0.881530321967589 -110.7505961472  0.88153032196759 -110.7505961472  0.443389787871556 -21.0778522009309 
! Gamma         0                0                0                0                
! Port Impedance         50               0                50               0                
57.5                           0.442718704333611 -21.5284532072168 0.881820382094331 -110.932487094798 0.881820382094332 -110.932487094798 0.442774530582648 -21.2535111468449 
! Gamma         0                0                0                0                
! Port Impedance         50               0                50               0                
57.6                           0.442098078472778 -21.706243263942 0.882112265101277 -111.114506092526 0.882112265101278 -111.114506092526 0.442154279908367 -21.4292705516945 
! Gamma         0                0                0                0                
! Port Impedance         50               0                50               0                
57.7                           0.44147245056724 -21.8841504268112 0.882405961197484 -111.296653942727 0.882405961197485 -111.296653942727 0.441529030369645 -21.6051309226827 
! Gamma         0                0                0                0                
! Port Impedance         50               0                50               0                
57.8                           0.44084181510484 -22.0621753544302 0.882701460499081 -111.478931444417 0.882701460499082 -111.478931444417 0.440898776488613 -21.7810927601722 
! Gamma         0                0                0                0                
! Port Impedance         50               0                50               0                
57.9                           0.440206166575203 -22.2403187004836 0.882998753028869 -111.661339393253 0.88299875302887 -111.661339393253 0.440263512789619 -21.9571565575886 
! Gamma         0                0                0                0                
! Port Impedance         50               0                50               0                
58                             0.439565499470763 -22.4185811136687 0.883297828715929 -111.843878581483 0.883297828715931 -111.843878581483 0.439623233800257 -22.1333228013221 
! Gamma         0                0                0                0                
! Port Impedance         50               0                50               0                
58.1                           0.438919808287788 -22.5969632376289 0.88359867739523 -112.026549797912 0.883598677395231 -112.026549797912 0.438977934052407 -22.3095919706283 
! Gamma         0                0                0                0                
! Port Impedance         50               0                50               0                
58.2                           0.438269087527432 -22.7754657108861 0.883901288807234 -112.209353827856 0.883901288807236 -112.209353827856 0.438327608083286 -22.4859645375272 
! Gamma         0                0                0                0                
! Port Impedance         50               0                50               0                
58.3                           0.437613331696784 -22.9540891667724 0.884205652597512 -112.392291453108 0.884205652597514 -112.392291453108 0.437672250436504 -22.6624409667009 
! Gamma         0                0                0                0                
! Port Impedance         50               0                50               0                
58.4                           0.436952535309933 -23.1328342333611 0.884511758316356 -112.575363451888 0.884511758316357 -112.575363451888 0.437011855663142 -22.8390217153901 
! Gamma         0                0                0                0                
! Port Impedance         50               0                50               0                
58.5                           0.436286692889042 -23.3117015333965 0.884819595418393 -112.758570598807 0.884819595418394 -112.758570598807 0.436346418322829 -23.0157072332883 
! Gamma         0                0                0                0                
! Port Impedance         50               0                50               0                
58.6                           0.435615798965436 -23.4906916842234 0.88512915326221 -112.941913664823 0.885129153262211 -112.941913664823 0.435675932984834 -23.1924979624353 
! Gamma         0                0                0                0                
! Port Impedance         50               0                50               0                
58.7                           0.434939848080695 -23.6698052977152 0.885440421109968 -113.125393417197 0.885440421109969 -113.125393417197 0.435000394229175 -23.3693943371088 
! Gamma         0                0                0                0                
! Port Impedance         50               0                50               0                
58.8                           0.43425883478776 -23.8490429802015 0.885753388127033 -113.309010619452 0.885753388127034 -113.309010619452 0.434319796647724 -23.5463967837143 
! Gamma         0                0                0                0                
! Port Impedance         50               0                50               0                
58.9                           0.433572753652052 -24.0284053323947 0.886068043381599 -113.492766031332 0.8860680433816  -113.492766031332 0.433634134845341 -23.7235057206738 
! Gamma         0                0                0                0                
! Port Impedance         50               0                50               0                
59                             0.432881599252599 -24.2078929493155 0.886384375844321 -113.676660408751 0.886384375844322 -113.676660408751 0.432943403441002 -23.9007215583122 
! Gamma         0                0                0                0                
! Port Impedance         50               0                50               0                
59.1                           0.432185366183174 -24.3875064202182 0.886702374387948 -113.86069450376 0.886702374387949 -113.86069450376 0.432247597068948 -24.0780446987426 
! Gamma         0                0                0                0                
! Port Impedance         50               0                50               0                
59.2                           0.431484049053443 -24.5672463285139 0.887022027786961 -114.044869064492 0.887022027786962 -114.044869064492 0.431546710379843 -24.2554755357499 
! Gamma         0                0                0                0                
! Port Impedance         50               0                50               0                
59.3                           0.430777642490125 -24.7471132516942 0.887343324717213 -114.229184835125 0.887343324717214 -114.229184835125 0.430840738041939 -24.433014454672 
! Gamma         0                0                0                0                
! Port Impedance         50               0                50               0                
59.4                           0.430066141138162 -24.9271077612526 0.887666253755574 -114.413642555835 0.887666253755575 -114.413642555835 0.430129674742258 -24.6106618322801 
! Gamma         0                0                0                0                
! Port Impedance         50               0                50               0                
59.5                           0.429349539661901 -25.1072304226057 0.88799080337958 -114.598242962751 0.887990803379582 -114.598242962751 0.429413515187779 -24.7884180366564 
! Gamma         0                0                0                0                
! Port Impedance         50               0                50               0                
59.6                           0.428627832746284 -25.2874817950136 0.888316961967086 -114.782986787909 0.888316961967088 -114.782986787908 0.428692254106636 -24.9662834270708 
! Gamma         0                0                0                0                
! Port Impedance         50               0                50               0                
59.7                           0.42790101509805 -25.4678624314984 0.88864471779592 -114.967874759205 0.888644717795921 -114.967874759205 0.427965886249337 -25.1442583538548 
! Gamma         0                0                0                0                
! Port Impedance         50               0                50               0                
59.8                           0.427169081446949 -25.648372878763 0.888974059043547 -115.152907600355 0.888974059043549 -115.152907600355 0.427234406389976 -25.3223431582743 
! Gamma         0                0                0                0                
! Port Impedance         50               0                50               0                
59.9                           0.426432026546967 -25.8290136771073 0.889304973786734 -115.338086030842 0.889304973786735 -115.338086030842 0.426497809327473 -25.5005381724   
! Gamma         0                0                0                0                
! Port Impedance         50               0                50               0                
60                             0.425689845177557 -26.0097853603451 0.889637450001218 -115.52341076587 0.889637450001219 -115.52341076587 0.425756089886817 -25.6788437189757 
! Gamma         0                0                0                0                
! Port Impedance         50               0                50               0                
60.1                           0.424942532144885 -26.1906884557182 0.889971475561382 -115.708882516324 0.889971475561383 -115.708882516324 0.425009242920319 -25.8572601112852 
! Gamma         0                0                0                0                
! Port Impedance         50               0                50               0                
60.2                           0.42419008228309 -26.3717234838112 0.890307038239939 -115.894501988713 0.89030703823994 -115.894501988713 0.424257263308875 -26.0357876530163 
! Gamma         0                0                0                0                
! Port Impedance         50               0                50               0                
60.3                           0.423432490455544 -26.5528909584633 0.890644125707609 -116.080269885129 0.89064412570761 -116.080269885129 0.423500145963251 -26.2144266381236 
! Gamma         0                0                0                0                
! Port Impedance         50               0                50               0                
60.4                           0.422669751556133 -26.7341913866808 0.890982725532815 -116.266186903198 0.890982725532816 -116.266186903198 0.422737885825361 -26.3931773506881 
! Gamma         0                0                0                0                
! Port Impedance         50               0                50               0                
60.5                           0.421901860510547 -26.9156252685473 0.891322825181379 -116.452253736031 0.891322825181381 -116.452253736031 0.421970477869572 -26.5720400647758 
! Gamma         0                0                0                0                
! Port Impedance         50               0                50               0                
60.6                           0.421128812277572 -27.0971930971332 0.89166441201622 -116.638471072175 0.891664412016221 -116.638471072175 0.42119791710401 -26.7510150442928 
! Gamma         0                0                0                0                
! Port Impedance         50               0                50               0                
60.7                           0.420350601850407 -27.2788953584041 0.892007473297062 -116.824839595565 0.892007473297063 -116.824839595565 0.420420198571883 -26.9301025428391 
! Gamma         0                0                0                0                
! Port Impedance         50               0                50               0                
60.8                           0.41956722425798 -27.4607325311274 0.892351996180149 -117.011359985476 0.892351996180151 -117.011359985476 0.419637317352809 -27.1093028035601 
! Gamma         0                0                0                0                
! Port Impedance         50               0                50               0                
60.9                           0.418778674566277 -27.6427050867787 0.892697967717963 -117.198032916471 0.892697967717964 -117.198032916471 0.41884926856416 -27.2886160589944 
! Gamma         0                0                0                0                
! Port Impedance         50               0                50               0                
61                             0.417984947879688 -27.8248134894464 0.893045374858947 -117.384859058354 0.893045374858948 -117.384859058354 0.418056047362414 -27.4680425309209 
! Gamma         0                0                0                0                
! Port Impedance         50               0                50               0                
61.1                           0.417186039342356 -28.0070581957347 0.89339420444724 -117.571839076119 0.893394204447241 -117.571839076119 0.41725764894452 -27.6475824302025 
! Gamma         0                0                0                0                
! Port Impedance         50               0                50               0                
61.2                           0.416381944139539 -28.1894396546662 0.893744443222417 -117.758973629899 0.893744443222418 -117.758973629899 0.416454068549273 -27.8272359566271 
! Gamma         0                0                0                0                
! Port Impedance         50               0                50               0                
61.3                           0.415572657498987 -28.3719583075825 0.894096077819227 -117.946263374917 0.894096077819228 -117.946263374917 0.415645301458695 -28.0070032987465 
! Gamma         0                0                0                0                
! Port Impedance         50               0                50               0                
61.4                           0.414758174692321 -28.5546145880438 0.894449094767354 -118.133708961433 0.894449094767355 -118.133708961433 0.414831342999438 -28.1868846337127 
! Gamma         0                0                0                0                
! Port Impedance         50               0                50               0                
61.5                           0.413938491036429 -28.7374089217271 0.89480348049117 -118.321311034696 0.894803480491171 -118.321311034696 0.414012188544187 -28.3668801271109 
! Gamma         0                0                0                0                
! Port Impedance         50               0                50               0                
61.6                           0.413113601894873 -28.9203417263231 0.895159221309506 -118.509070234889 0.895159221309507 -118.509070234889 0.413187833513077 -28.5469899327902 
! Gamma         0                0                0                0                
! Port Impedance         50               0                50               0                
61.7                           0.412283502679301 -29.1034134114315 0.895516303435422 -118.696987197081 0.895516303435423 -118.696987197081 0.412358273375126 -28.7272141926917 
! Gamma         0                0                0                0                
! Port Impedance         50               0                50               0                
61.8                           0.411448188850872 -29.2866243784553 0.895874712975993 -118.885062551171 0.895874712975993 -118.885062551171 0.411523503649669 -28.907553036673 
! Gamma         0                0                0                0                
! Port Impedance         50               0                50               0                
61.9                           0.410607655921699 -29.4699750204931 0.896234435932096 -119.073296921841 0.896234435932097 -119.073296921841 0.410683519907812 -29.0880065823307 
! Gamma         0                0                0                0                
! Port Impedance         50               0                50               0                
62                             0.409761899456284 -29.6534657222307 0.89659545819821 -119.261690928498 0.896595458198211 -119.261690928498 0.409838317773888 -29.2685749348187 
! Gamma         0                0                0                0                
! Port Impedance         50               0                50               0                
62.1                           0.408910915072985 -29.8370968598301 0.896957765562221 -119.450245185225 0.896957765562221 -119.450245185225 0.408987892926936 -29.4492581866646 
! Gamma         0                0                0                0                
! Port Impedance         50               0                50               0                
62.2                           0.408054698445477 -30.0208688008183 0.897321343705235 -119.638960300726 0.897321343705236 -119.638960300725 0.408132241102174 -29.6300564175825 
! Gamma         0                0                0                0                
! Port Impedance         50               0                50               0                
62.3                           0.40719324530423 -30.2047819039735 0.897686178201406 -119.827836878273 0.897686178201407 -119.827836878273 0.407271358092496 -29.8109696942819 
! Gamma         0                0                0                0                
! Port Impedance         50               0                50               0                
62.4                           0.406326551437998 -30.3888365192102 0.898052254517762 -120.016875515654 0.898052254517763 -120.016875515654 0.406405239749974 -29.9919980702749 
! Gamma         0                0                0                0                
! Port Impedance         50               0                50               0                
62.5                           0.405454612695313 -30.5730329874625 0.898419558014051 -120.206076805117 0.898419558014052 -120.206076805117 0.405533881987371 -30.1731415856783 
! Gamma         0                0                0                0                
! Port Impedance         50               0                50               0                
62.6                           0.404577424985996 -30.757371640566 0.898788073942589 -120.395441333319 0.89878807394259 -120.395441333319 0.404657280779664 -30.3544002670132 
! Gamma         0                0                0                0                
! Port Impedance         50               0                50               0                
62.7                           0.403694984282671 -30.9418528011379 0.899157787448118 -120.584969681267 0.899157787448119 -120.584969681267 0.403775432165578 -30.5357741270011 
! Gamma         0                0                0                0                
! Port Impedance         50               0                50               0                
62.8                           0.402807286622294 -31.126476782455 0.89952868356768 -120.774662424268 0.899528683567681 -120.774662424268 0.40288833224913 -30.7172631643562 
! Gamma         0                0                0                0                
! Port Impedance         50               0                50               0                
62.9                           0.401914328107688 -31.3112438883308 0.899900747230492 -120.96452013187 0.899900747230492 -120.96452013187 0.401995977201183 -30.8988673635737 
! Gamma         0                0                0                0                
! Port Impedance         50               0                50               0                
63                             0.401016104909092 -31.4961544129899 0.900273963257834 -121.154543367813 0.900273963257835 -121.154543367813 0.401098363261013 -31.0805866947151 
! Gamma         0                0                0                0                
! Port Impedance         50               0                50               0                
63.1                           0.400112613265715 -31.6812086409413 0.900648316362954 -121.344732689967 0.900648316362955 -121.344732689967 0.400195486737877 -31.2624211131887 
! Gamma         0                0                0                0                
! Port Impedance         50               0                50               0                
63.2                           0.399203849487304 -31.8664068468494 0.901023791150972 -121.535088650281 0.901023791150972 -121.535088650281 0.399287344012606 -31.4443705595268 
! Gamma         0                0                0                0                
! Port Impedance         50               0                50               0                
63.3                           0.398289809955717 -32.0517492954032 0.901400372118801 -121.725611794725 0.901400372118801 -121.725611794725 0.39837393153919 -31.6264349591587 
! Gamma         0                0                0                0                
! Port Impedance         50               0                50               0                
63.4                           0.39737049112651 -32.2372362411838 0.901778043655081 -121.916302663234 0.901778043655082 -121.916302663234 0.397455245846391 -31.8086142221793 
! Gamma         0                0                0                0                
! Port Impedance         50               0                50               0                
63.5                           0.396445889530527 -32.4228679285294 0.902156790040119 -122.107161789656 0.902156790040119 -122.107161789656 0.396531283539351 -31.9909082431137 
! Gamma         0                0                0                0                
! Port Impedance         50               0                50               0                
63.6                           0.39551600177551 -32.608644591399 0.902536595445839 -122.298189701689 0.902536595445839 -122.298189701689 0.395602041301217 -32.1733169006774 
! Gamma         0                0                0                0                
! Port Impedance         50               0                50               0                
63.7                           0.394580824547705 -32.7945664532331 0.902917443935752 -122.489386920829 0.902917443935753 -122.489386920829 0.394667515894775 -32.3558400575318 
! Gamma         0                0                0                0                
! Port Impedance         50               0                50               0                
63.8                           0.393640354613486 -32.9806337268133 0.903299319464929 -122.680753962314 0.90329931946493 -122.680753962314 0.393727704164093 -32.5384775600356 
! Gamma         0                0                0                0                
! Port Impedance         50               0                50               0                
63.9                           0.392694588820987 -33.1668466141191 0.903682205879989 -122.872291335061 0.90368220587999 -122.872291335061 0.39278260303617 -32.7212292379908 
! Gamma         0                0                0                0                
! Port Impedance         50               0                50               0                
64                             0.391743524101737 -33.3532053061824 0.904066086919099 -123.063999541617 0.904066086919099 -123.063999541617 0.391832209522604 -32.9040949043842 
! Gamma         0                0                0                0                
! Port Impedance         50               0                50               0                
64.1                           0.390787157472312 -33.5397099829399 0.904450946211985 -123.255879078095 0.904450946211985 -123.255879078095 0.390876520721255 -33.0870743551248 
! Gamma         0                0                0                0                
! Port Impedance         50               0                50               0                
64.2                           0.389825486035989 -33.7263608130839 0.904836767279959 -123.447930434121 0.90483676727996 -123.447930434121 0.389915533817929 -33.2701673687741 
! Gamma         0                0                0                0                
! Port Impedance         50               0                50               0                
64.3                           0.388858506984411 -33.913157953909 0.905223533535955 -123.640154092773 0.905223533535955 -123.640154092773 0.388949246088067 -33.4533737062737 
! Gamma         0                0                0                0                
! Port Impedance         50               0                50               0                
64.4                           0.387886217599261 -34.1001015511585 0.905611228284576 -123.832550530526 0.905611228284577 -123.832550530526 0.387977654898441 -33.636693110665 
! Gamma         0                0                0                0                
! Port Impedance         50               0                50               0                
64.5                           0.386908615253944 -34.2871917388664 0.905999834722162 -124.02512021719 0.905999834722163 -124.02512021719 0.387000757708862 -33.8201253068061 
! Gamma         0                0                0                0                
! Port Impedance         50               0                50               0                
64.6                           0.385925697415274 -34.474428639198 0.906389335936862 -124.217863615859 0.906389335936862 -124.217863615859 0.386018552073893 -34.0036700010803 
! Gamma         0                0                0                0                
! Port Impedance         50               0                50               0                
64.7                           0.384937461645175 -34.6618123622878 0.906779714908724 -124.410781182843 0.906779714908725 -124.410781182843 0.385031035644576 -34.1873268811014 
! Gamma         0                0                0                0                
! Port Impedance         50               0                50               0                
64.8                           0.383943905602382 -34.849343006074 0.907170954509802 -124.603873367619 0.907170954509803 -124.603873367619 0.384038206170162 -34.3710956154112 
! Gamma         0                0                0                0                
! Port Impedance         50               0                50               0                
64.9                           0.382945027044158 -35.0370206561311 0.907563037504268 -124.797140612767 0.907563037504268 -124.797140612767 0.383040061499853 -34.5549758531715 
! Gamma         0                0                0                0                
! Port Impedance         50               0                50               0                
65                             0.381940823828012 -35.2248453854993 0.907955946548544 -124.99058335391 0.907955946548545 -124.99058335391 0.382036599584547 -34.7389672238506 
! Gamma         0                0                0                0                
! Port Impedance         50               0                50               0                
65.1                           0.380931293913428 -35.4128172545107 0.908349664191453 -125.184202019661 0.908349664191453 -125.184202019661 0.381027818478599 -34.9230693369021 
! Gamma         0                0                0                0                
! Port Impedance         50               0                50               0                
65.2                           0.379916435363598 -35.6009363106137 0.90874417287437 -125.377997031559 0.908744172874371 -125.377997031559 0.380013716341586 -35.1072817814381 
! Gamma         0                0                0                0                
! Port Impedance         50               0                50               0                
65.3                           0.378896246347166 -35.7892025881924 0.909139454931405 -125.571968804012 0.909139454931405 -125.571968804012 0.378994291440075 -35.291604125895 
! Gamma         0                0                0                0                
! Port Impedance         50               0                50               0                
65.4                           0.377870725139978 -35.9776161083853 0.909535492589585 -125.766117744238 0.909535492589586 -125.766117744238 0.377969542149408 -35.4760359176929 
! Gamma         0                0                0                0                
! Port Impedance         50               0                50               0                
65.5                           0.376839870126833 -36.1661768788984 0.909932267969066 -125.960444252205 0.909932267969066 -125.960444252205 0.376939466955486 -35.660576682887 
! Gamma         0                0                0                0                
! Port Impedance         50               0                50               0                
65.6                           0.375803679803252 -36.3548848938171 0.910329763083344 -126.154948720571 0.910329763083345 -126.154948720571 0.375904064456567 -35.8452259258128 
! Gamma         0                0                0                0                
! Port Impedance         50               0                50               0                
65.7                           0.374762152777237 -36.5437401334133 0.910727959839501 -126.349631534628 0.910727959839501 -126.349631534628 0.374863333365064 -36.0299831287229 
! Gamma         0                0                0                0                
! Port Impedance         50               0                50               0                
65.8                           0.373715287771058 -36.7327425639495 0.911126840038446 -126.544493072237 0.911126840038447 -126.544493072237 0.373817272509362 -36.2148477514157 
! Gamma         0                0                0                0                
! Port Impedance         50               0                50               0                
65.9                           0.372663083623022 -36.9218921374798 0.911526385375189 -126.739533703775 0.911526385375189 -126.739533703775 0.372765880835624 -36.3998192308574 
! Gamma         0                0                0                0                
! Port Impedance         50               0                50               0                
66                             0.371605539289267 -37.1111887916467 0.91192657743912 -126.934753792069 0.91192657743912 -126.934753792069 0.371709157409622 -36.5848969807944 
! Gamma         0                0                0                0                
! Port Impedance         50               0                50               0                
66.1                           0.370542653845551 -37.300632449474 0.912327397714311 -127.130153692342 0.912327397714311 -127.130153692342 0.370647101418561 -36.7700803913581 
! Gamma         0                0                0                0                
! Port Impedance         50               0                50               0                
66.2                           0.369474426489051 -37.4902230191565 0.912728827579831 -127.325733752149 0.912728827579831 -127.325733752149 0.36957971217292 -36.9553688286607 
! Gamma         0                0                0                0                
! Port Impedance         50               0                50               0                
66.3                           0.368400856540164 -37.6799603938454 0.913130848310079 -127.52149431132 0.91313084831008 -127.52149431132 0.368506989108288 -37.1407616343816 
! Gamma         0                0                0                0                
! Port Impedance         50               0                50               0                
66.4                           0.367321943444317 -37.8698444514294 0.913533441075134 -127.7174357019  0.913533441075134 -127.7174357019  0.367428931787218 -37.3262581253457 
! Gamma         0                0                0                0                
! Port Impedance         50               0                50               0                
66.5                           0.366237686773778 -38.059875054312 0.913936586941121 -127.913558248086 0.913936586941121 -127.913558248086 0.366345539901075 -37.5118575930907 
! Gamma         0                0                0                0                
! Port Impedance         50               0                50               0                
66.6                           0.365148086229473 -38.2500520491845 0.914340266870596 -128.109862266175 0.914340266870597 -128.109862266175 0.365256813271902 -37.6975593034259 
! Gamma         0                0                0                0                
! Port Impedance         50               0                50               0                
66.7                           0.364053141642809 -38.4403752667938 0.914744461722948 -128.306348064494 0.914744461722948 -128.306348064494 0.364162751854278 -37.8833624959801 
! Gamma         0                0                0                0                
! Port Impedance         50               0                50               0                
66.8                           0.362952852977498 -38.630844521707 0.915149152254817 -128.503015943348 0.915149152254817 -128.503015943348 0.363063355737194 -38.0692663837396 
! Gamma         0                0                0                0                
! Port Impedance         50               0                50               0                
66.9                           0.361847220331387 -38.8214596120702 0.915554319120534 -128.69986619496 0.915554319120534 -128.69986619496 0.361958625145925 -38.2552701525752 
! Gamma         0                0                0                0                
! Port Impedance         50               0                50               0                
67                             0.360736243938293 -39.0122203193626 0.915959942872574 -128.896899103406 0.915959942872574 -128.896899103406 0.360848560443914 -38.4413729607581 
! Gamma         0                0                0                0                
! Port Impedance         50               0                50               0                
67.1                           0.359619924169836 -39.203126408146 0.916366003962032 -129.094114944561 0.916366003962032 -129.094114944561 0.359733162134652 -38.627573938465 
! Gamma         0                0                0                0                
! Port Impedance         50               0                50               0                
67.2                           0.358498261537282 -39.3941776258095 0.916772482739115 -129.291513986036 0.916772482739115 -129.291513986036 0.358612430863572 -38.8138721872705 
! Gamma         0                0                0                0                
! Port Impedance         50               0                50               0                
67.3                           0.357371256693386 -39.5853737023074 0.917179359453652 -129.489096487122 0.917179359453652 -129.489096487122 0.357486367419938 -39.0002667796286 
! Gamma         0                0                0                0                
! Port Impedance         50               0                50               0                
67.4                           0.356238910434234 -39.7767143498937 0.917586614255624 -129.686862698725 0.917586614255624 -129.686862698725 0.356354972738751 -39.1867567583406 
! Gamma         0                0                0                0                
! Port Impedance         50               0                50               0                
67.5                           0.355101223701094 -39.9681992628494 0.917994227195718 -129.884812863315 0.917994227195718 -129.884812863315 0.35521824790264 -39.3733411360111 
! Gamma         0                0                0                0                
! Port Impedance         50               0                50               0                
67.6                           0.353958197582265 -40.1598281172047 0.918402178225887 -130.082947214858 0.918402178225887 -130.082947214858 0.354076194143779 -39.5600188944899 
! Gamma         0                0                0                0                
! Port Impedance         50               0                50               0                
67.7                           0.352809833314929 -40.3516005704551 0.918810447199947 -130.281265978763 0.918810447199947 -130.281265978763 0.352928812845786 -39.7467889843014 
! Gamma         0                0                0                0                
! Port Impedance         50               0                50               0                
67.8                           0.351656132287006 -40.5435162612717 0.919219013874176 -130.479769371821 0.919219013874176 -130.479769371821 0.35177610554564 -39.9336503240582 
! Gamma         0                0                0                0                
! Port Impedance         50               0                50               0                
67.9                           0.350497096039007 -40.7355748092044 0.919627857907949 -130.678457602146 0.919627857907949 -130.678457602146 0.350618073935597 -40.1206017998617 
! Gamma         0                0                0                0                
! Port Impedance         50               0                50               0                
68                             0.34933272626589 -40.9277758143791 0.920036958864381 -130.877330869118 0.920036958864381 -130.877330869118 0.349454719865106 -40.307642264687 
! Gamma         0                0                0                0                
! Port Impedance         50               0                50               0                
68.1                           0.348163024818918 -41.1201188571883 0.920446296210995 -131.07638936332 0.920446296210995 -131.07638936332 0.348286045342728 -40.4947705377521 
! Gamma         0                0                0                0                
! Port Impedance         50               0                50               0                
68.2                           0.346987993707518 -41.3126034979739 0.920855849320413 -131.275633266486 0.920855849320413 -131.275633266486 0.347112052538063 -40.6819854038717 
! Gamma         0                0                0                0                
! Port Impedance         50               0                50               0                
68.3                           0.345807635101135 -41.5052292767041 0.92126559747106 -131.475062751438 0.92126559747106 -131.475062751438 0.345932743783673 -40.8692856127936 
! Gamma         0                0                0                0                
! Port Impedance         50               0                50               0                
68.4                           0.34462195133109 -41.6979957126416 0.921675519847896 -131.67467798203 0.921675519847895 -131.67467798203 0.344748121577006 -41.056669878519 
! Gamma         0                0                0                0                
! Port Impedance         50               0                50               0                
68.5                           0.343430944892442 -41.8909023040048 0.922085595543165 -131.87447911309 0.922085595543165 -131.87447911309 0.343558188582329 -41.244136878604 
! Gamma         0                0                0                0                
! Port Impedance         50               0                50               0                
68.6                           0.34223461844584 -42.0839485276207 0.922495803557169 -132.074466290362 0.922495803557169 -132.074466290362 0.342362947632656 -41.4316852534441 
! Gamma         0                0                0                0                
! Port Impedance         50               0                50               0                
68.7                           0.341032974819377 -42.2771338385703 0.922906122799055 -132.27463965045 0.922906122799054 -132.27463965045 0.341162401731677 -41.6193136055388 
! Gamma         0                0                0                0                
! Port Impedance         50               0                50               0                
68.8                           0.33982601701045 -42.4704576698245 0.923316532087632 -132.474999320758 0.923316532087631 -132.474999320758 0.339956554055693 -41.8070204987372 
! Gamma         0                0                0                0                
! Port Impedance         50               0                50               0                
68.9                           0.338613748187608 -42.6639194318722 0.923727010152205 -132.675545419436 0.923727010152205 -132.675545419436 0.338745407955548 -41.9948044574636 
! Gamma         0                0                0                0                
! Port Impedance         50               0                50               0                
69                             0.337396171692405 -42.8575185123387 0.924137535633435 -132.876278055322 0.924137535633434 -132.876278055322 0.33752896695856 -42.1826639659213 
! Gamma         0                0                0                0                
! Port Impedance         50               0                50               0                
69.1                           0.336173291041247 -43.0512542755948 0.92454808708421 -133.077197327888 0.924548087084209 -133.077197327888 0.336307234770455 -42.3705974672766 
! Gamma         0                0                0                0                
! Port Impedance         50               0                50               0                
69.2                           0.334945109927239 -43.2451260623569 0.924958642970553 -133.278303327179 0.924958642970552 -133.278303327179 0.335080215277303 -42.5586033628186 
! Gamma         0                0                0                0                
! Port Impedance         50               0                50               0                
69.3                           0.333711632222027 -43.4391331892759 0.92536918167254 -133.479596133761 0.92536918167254 -133.479596133761 0.333847912547447 -42.7466800110973 
! Gamma         0                0                0                0                
! Port Impedance         50               0                50               0                
69.4                           0.332472861977641 -43.6332749485169 0.925779681485248 -133.681075818667 0.925779681485247 -133.681075818667 0.332610330833437 -42.9348257270367 
! Gamma         0                0                0                0                
! Port Impedance         50               0                50               0                
69.5                           0.331228803428324 -43.8275506073272 0.926190120619716 -133.882742443337 0.926190120619716 -133.882742443337 0.331367474573962 -43.1230387810246 
! Gamma         0                0                0                0                
! Port Impedance         50               0                50               0                
69.6                           0.329979460992372 -44.0219594075939 0.926600477203943 -134.084596059568 0.926600477203942 -134.084596059568 0.33011934839578 -43.3113173979753 
! Gamma         0                0                0                0                
! Port Impedance         50               0                50               0                
69.7                           0.328724839273959 -44.2165005653897 0.927010729283891 -134.286636709456 0.927010729283891 -134.286636709456 0.328865957115647 -43.4996597563671 
! Gamma         0                0                0                0                
! Port Impedance         50               0                50               0                
69.8                           0.327464943064958 -44.4111732705065 0.927420854824529 -134.488864425345 0.927420854824528 -134.488864425345 0.327607305742246 -43.6880639872512 
! Gamma         0                0                0                0                
! Port Impedance         50               0                50               0                
69.9                           0.326199777346762 -44.6059766859772 0.92783083171088 -134.691279229769 0.927830831710879 -134.691279229769 0.326343399478111 -43.8765281732333 
! Gamma         0                0                0                0                
! Port Impedance         50               0                50               0                
70                             0.324929347292097 -44.8009099475843 0.92824063774911 -134.893881135406 0.92824063774911 -134.893881135406 0.325074243721553 -44.0650503474249 
! Gamma         0                0                0                0                
! Port Impedance         50               0                50               0                
70.1                           0.323653658266829 -44.9959721633554 0.928650250667629 -135.096670145016 0.928650250667629 -135.096670145016 0.323799844068582 -44.2536284923645 
! Gamma         0                0                0                0                
! Port Impedance         50               0                50               0                
70.2                           0.322372715831764 -45.1911624130449 0.929059648118217 -135.299646251397 0.929059648118216 -135.299646251397 0.322520206314824 -44.4422605389071 
! Gamma         0                0                0                0                
! Port Impedance         50               0                50               0                
70.3                           0.321086525744445 -45.3864797476013 0.929468807677171 -135.502809437327 0.92946880767717 -135.502809437327 0.32123533645744 -44.6309443650813 
! Gamma         0                0                0                0                
! Port Impedance         50               0                50               0                
70.4                           0.319795093960938 -45.5819231886204 0.929877706846484 -135.706159675515 0.929877706846483 -135.706159675515 0.319945240697038 -44.8196777949115 
! Gamma         0                0                0                0                
! Port Impedance         50               0                50               0                
70.5                           0.318498426637613 -45.7774917277817 0.930286323055037 -135.909696928549 0.930286323055036 -135.909696928549 0.318649925439586 -45.0084585972058 
! Gamma         0                0                0                0                
! Port Impedance         50               0                50               0                
70.6                           0.317196530132921 -45.9731843262708 0.930694633659822 -136.113421148849 0.930694633659821 -136.113421148849 0.317349397298316 -45.1972844843068 
! Gamma         0                0                0                0                
! Port Impedance         50               0                50               0                
70.7                           0.315889411009154 -46.1689999141835 0.931102615947181 -136.317332278609 0.93110261594718 -136.317332278609 0.316043663095631 -45.3861531108048 
! Gamma         0                0                0                0                
! Port Impedance         50               0                50               0                
70.8                           0.314577076034207 -46.3649373899144 0.93151024713408 -136.521430249755 0.93151024713408 -136.521430249755 0.314732729865002 -45.5750620722117 
! Gamma         0                0                0                0                
! Port Impedance         50               0                50               0                
70.9                           0.313259532183323 -46.5609956195259 0.931917504369395 -136.725714983894 0.931917504369395 -136.725714983894 0.313416604852865 -45.7640089035933 
! Gamma         0                0                0                0                
! Port Impedance         50               0                50               0                
71                             0.311936786640834 -46.7571734361005 0.932324364735227 -136.930186392261 0.932324364735226 -136.930186392261 0.312095295520514 -45.9529910781606 
! Gamma         0                0                0                0                
! Port Impedance         50               0                50               0                
71.1                           0.310608846801892 -46.9534696390729 0.932730805248242 -137.134844375677 0.932730805248242 -137.134844375677 0.310768809545985 -46.1420060058157 
! Gamma         0                0                0                0                
! Port Impedance         50               0                50               0                
71.2                           0.309275720274187 -47.1498829935421 0.933136802861034 -137.339688824499 0.933136802861034 -137.339688824499 0.309437154825941 -46.3310510316528 
! Gamma         0                0                0                0                
! Port Impedance         50               0                50               0                
71.3                           0.307937414879658 -47.3464122295633 0.933542334463508 -137.544719618571 0.933542334463508 -137.544719618571 0.30810033947755 -46.5201234344117 
! Gamma         0                0                0                0                
! Port Impedance         50               0                50               0                
71.4                           0.306593938656195 -47.5430560414182 0.933947376884295 -137.749936627182 0.933947376884294 -137.749936627182 0.306758371840354 -46.7092204248816 
! Gamma         0                0                0                0                
! Port Impedance         50               0                50               0                
71.5                           0.305245299859321 -47.7398130868623 0.934351906892181 -137.955339709017 0.934351906892181 -137.955339709016 0.305411260478142 -46.8983391442541 
! Gamma         0                0                0                0                
! Port Impedance         50               0                50               0                
71.6                           0.303891506963878 -47.93668198635  0.93475590119757 -138.160928712112 0.93475590119757 -138.160928712112 0.304059014180807 -47.0874766624225 
! Gamma         0                0                0                0                
! Port Impedance         50               0                50               0                
71.7                           0.302532568665684 -48.1336613222341 0.935159336453963 -138.366703473814 0.935159336453963 -138.366703473814 0.302701641966209 -47.276629976226 
! Gamma         0                0                0                0                
! Port Impedance         50               0                50               0                
71.8                           0.30116849388319 -48.330749637942 0.935562189259466 -138.572663820729 0.935562189259466 -138.572663820729 0.301339153082021 -47.4657960076363 
! Gamma         0                0                0                0                
! Port Impedance         50               0                50               0                
71.9                           0.299799291759122 -48.5279454371233 0.93596443615832 -138.778809568689 0.935964436158319 -138.778809568689 0.299971557007573 -47.6549716018845 
! Gamma         0                0                0                0                
! Port Impedance         50               0                50               0                
72                             0.298424971662106 -48.7252471827727 0.936366053642454 -138.9851405227  0.936366053642453 -138.9851405227  0.298598863455698 -47.844153525525 
! Gamma         0                0                0                0                
! Port Impedance         50               0                50               0                
72.1                           0.297045543188283 -48.9226532963225 0.936767018153066 -139.191656476907 0.936767018153065 -139.191656476907 0.297221082374562 -48.0333384644354 
! Gamma         0                0                0                0                
! Port Impedance         50               0                50               0                
72.2                           0.295661016162911 -49.1201621567068 0.937167306082223 -139.398357214549 0.937167306082222 -139.398357214549 0.295838223949492 -48.2225230217486 
! Gamma         0                0                0                0                
! Port Impedance         50               0                50               0                
72.3                           0.29427140064195 -49.317772099394 0.93756689377449 -139.605242507924 0.937566893774489 -139.605242507924 0.294450298604797 -48.4117037157146 
! Gamma         0                0                0                0                
! Port Impedance         50               0                50               0                
72.4                           0.292876706913635 -49.5154814153885 0.937965757528577 -139.812312118341 0.937965757528576 -139.812312118341 0.293057317005582 -48.6008769774895 
! Gamma         0                0                0                0                
! Port Impedance         50               0                50               0                
72.5                           0.291476945500033 -49.7132883501971 0.938363873599017 -140.019565796089 0.938363873599016 -140.019565796089 0.291659290059562 -48.7900391488474 
! Gamma         0                0                0                0                
! Port Impedance         50               0                50               0                
72.6                           0.290072127158585 -49.911191102763 0.938761218197862 -140.227003280397 0.938761218197861 -140.227003280397 0.29025622891886 -48.9791864798148 
! Gamma         0                0                0                0                
! Port Impedance         50               0                50               0                
72.7                           0.288662262883632 -50.1091878243613 0.939157767496407 -140.434624299394 0.939157767496406 -140.434624299394 0.288848144981805 -49.1683151262202 
! Gamma         0                0                0                0                
! Port Impedance         50               0                50               0                
72.8                           0.287247363907925 -50.3072766174581 0.939553497626933 -140.642428570075 0.939553497626932 -140.642428570075 0.287435049894722 -49.3574211471595 
! Gamma         0                0                0                0                
! Port Impedance         50               0                50               0                
72.9                           0.285827441704121 -50.5054555345293 0.939948384684479 -140.850415798266 0.939948384684478 -140.850415798266 0.28601695555372 -49.5465005023697 
! Gamma         0                0                0                0                
! Port Impedance         50               0                50               0                
73                             0.284402507986255 -50.7037225768391 0.940342404728636 -141.058585678589 0.940342404728635 -141.058585678589 0.284593874106463 -49.7355490495109 
! Gamma         0                0                0                0                
! Port Impedance         50               0                50               0                
73.1                           0.282972574711209 -50.9020756931746 0.94073553378536 -141.266937894426 0.940735533785359 -141.266937894426 0.283165817953946 -49.9245625413491 
! Gamma         0                0                0                0                
! Port Impedance         50               0                50               0                
73.2                           0.281537654080145 -51.1005127785361 0.941127747848819 -141.475472117888 0.941127747848818 -141.475472117888 0.281732799752263 -50.113536622838 
! Gamma         0                0                0                0                
! Port Impedance         50               0                50               0                
73.3                           0.280097758539934 -51.2990316727808 0.941519022883249 -141.684188009784 0.941519022883248 -141.684188009784 0.280294832414362 -50.3024668280942 
! Gamma         0                0                0                0                
! Port Impedance         50               0                50               0                
73.4                           0.278652900784564 -51.4976301592172 0.941909334824847 -141.893085219587 0.941909334824846 -141.893085219587 0.278851929111805 -50.4913485772613 
! Gamma         0                0                0                0                
! Port Impedance         50               0                50               0                
73.5                           0.277203093756524 -51.6963059631484 0.942298659583679 -142.102163385406 0.942298659583679 -142.102163385406 0.277404103276512 -50.6801771732584 
! Gamma         0                0                0                0                
! Port Impedance         50               0                50               0                
73.6                           0.275748350648177 -51.8950567503625 0.942686973045615 -142.311422133956 0.942686973045614 -142.311422133956 0.27595136860251 -50.8689477984074 
! Gamma         0                0                0                0                
! Port Impedance         50               0                50               0                
73.7                           0.274288684903105 -52.0938801255672 0.943074251074281 -142.520861080527 0.94307425107428 -142.520861080527 0.274493739047667 -51.0576555109344 
! Gamma         0                0                0                0                
! Port Impedance         50               0                50               0                
73.8                           0.272824110217445 -52.2927736307652 0.943460469513043 -142.730479828964 0.943460469513042 -142.730479828964 0.273031228835431 -51.2462952413383 
! Gamma         0                0                0                0                
! Port Impedance         50               0                50               0                
73.9                           0.271354640541193 -52.4917347435706 0.943845604187007 -142.940277971631 0.943845604187006 -142.940277971631 0.271563852456556 -51.4348617886219 
! Gamma         0                0                0                0                
! Port Impedance         50               0                50               0                
74                             0.269880290079498 -52.6907608754594 0.944229630905043 -143.150255089393 0.944229630905042 -143.150255089393 0.270091624670833 -51.623349816379 
! Gamma         0                0                0                0                
! Port Impedance         50               0                50               0                
74.1                           0.268401073293934 -52.8898493699544 0.944612525461831 -143.360410751588 0.94461252546183 -143.360410751587 0.268614560508807 -51.8117538487295 
! Gamma         0                0                0                0                
! Port Impedance         50               0                50               0                
74.2                           0.266917004903738 -53.0889975007412 0.94499426363993 -143.570744516004 0.944994263639929 -143.570744516004 0.267132675273502 -52.0000682660984 
! Gamma         0                0                0                0                
! Port Impedance         50               0                50               0                
74.3                           0.265428099887053 -53.2882024697083 0.945374821211873 -143.781255928859 0.945374821211871 -143.781255928859 0.265645984542138 -52.1882873008279 
! Gamma         0                0                0                0                
! Port Impedance         50               0                50               0                
74.4                           0.263934373482119 -53.487461404915 0.945754173942271 -143.991944524776 0.94575417394227 -143.991944524776 0.264154504167843 -52.3764050326181 
! Gamma         0                0                0                0                
! Port Impedance         50               0                50               0                
74.5                           0.262435841188471 -53.6867713584746 0.946132297589956 -144.202809826767 0.946132297589955 -144.202809826767 0.26265825028137 -52.5644153837861 
! Gamma         0                0                0                0                
! Port Impedance         50               0                50               0                
74.6                           0.260932518768092 -53.886129304357 0.946509167910132 -144.413851346208 0.946509167910131 -144.413851346208 0.261157239292814 -52.7523121143354 
! Gamma         0                0                0                0                
! Port Impedance         50               0                50               0                
74.7                           0.259424422246559 -54.0855321361016 0.946884760656551 -144.625068582829 0.946884760656551 -144.625068582829 0.259651487893323 -52.9400888168277 
! Gamma         0                0                0                0                
! Port Impedance         50               0                50               0                
74.8                           0.257911567914159 -54.2849766644389 0.947259051583717 -144.836461024689 0.947259051583716 -144.836461024689 0.258141013056812 -53.1277389110462 
! Gamma         0                0                0                0                
! Port Impedance         50               0                50               0                
74.9                           0.256393972326985 -54.4844596148146 0.947632016449096 -145.048028148166 0.947632016449095 -145.048028148166 0.256625832041688 -53.3152556384403 
! Gamma         0                0                0                0                
! Port Impedance         50               0                50               0                
75                             0.254871652308011 -54.6839776248123 0.948003631015363 -145.25976941794 0.948003631015362 -145.25976941794 0.255105962392562 -53.5026320563434 
! Gamma         0                0                0                0                
! Port Impedance         50               0                50               0                
75.1                           0.253344624948141 -54.8835272414709 0.948373871052655 -145.47168428698 0.948373871052654 -145.47168428698 0.253581421941984 -53.6898610319496 
! Gamma         0                0                0                0                
! Port Impedance         50               0                50               0                
75.2                           0.251812907607235 -55.083104918488 0.948742712340855 -145.683772196532 0.948742712340854 -145.683772196532 0.252052228812164 -53.8769352360389 
! Gamma         0                0                0                0                
! Port Impedance         50               0                50               0                
75.3                           0.250276517915116 -55.2827070133084 0.94911013067189 -145.896032576107 0.949110130671889 -145.896032576107 0.250518401416719 -54.0638471364397 
! Gamma         0                0                0                0                
! Port Impedance         50               0                50               0                
75.4                           0.24873547377255 -55.4823297840869 0.949476101852049 -146.108464843472 0.949476101852048 -146.108464843472 0.248979958462412 -54.2505889912126 
! Gamma         0                0                0                0                
! Port Impedance         50               0                50               0                
75.5                           0.2471897933522  -55.6819693865239 0.949840601704321 -146.321068404641 0.94984060170432 -146.321068404641 0.247436918950908 -54.437152841545 
! Gamma         0                0                0                0                
! Port Impedance         50               0                50               0                
75.6                           0.245639495099568 -55.8816218705626 0.950203606070752 -146.533842653869 0.950203606070751 -146.533842653869 0.245889302180543 -54.6235305043382 
! Gamma         0                0                0                0                
! Port Impedance         50               0                50               0                
75.7                           0.244084597733896 -56.081283176945 0.95056509081482 -146.746786973643 0.950565090814819 -146.746786973643 0.244337127748101 -54.8097135644747 
! Gamma         0                0                0                0                
! Port Impedance         50               0                50               0                
75.8                           0.242525120249063 -56.2809491336154 0.950925031823829 -146.959900734678 0.950925031823829 -146.959900734678 0.24278041555061 -54.9956933667463 
! Gamma         0                0                0                0                
! Port Impedance         50               0                50               0                
75.9                           0.24096108191444 -56.4806154519675 0.951283405011323 -147.173183295917 0.951283405011321 -147.173183295917 0.241219185787151 -55.1814610074291 
! Gamma         0                0                0                0                
! Port Impedance         50               0                50               0                
76                             0.23939250227574 -56.6802777229223 0.951640186319507 -147.386634004523 0.951640186319506 -147.386634004523 0.239653458960689 -55.367007325483 
! Gamma         0                0                0                0                
! Port Impedance         50               0                50               0                
76.1                           0.237819401155828 -56.8799314128329 0.951995351721705 -147.600252195882 0.951995351721705 -147.600252195882 0.238083255879923 -55.5523228933584 
! Gamma         0                0                0                0                
! Port Impedance         50               0                50               0                
76.2                           0.236241798655518 -57.0795718592026 0.952348877224816 -147.814037193602 0.952348877224816 -147.814037193602 0.236508597661159 -55.7373980073902 
! Gamma         0                0                0                0                
! Port Impedance         50               0                50               0                
76.3                           0.234659715154348 -57.2791942662074 0.952700738871796 -148.027988309514 0.952700738871795 -148.027988309514 0.234929505730218 -55.922222677754 
! Gamma         0                0                0                0                
! Port Impedance         50               0                50               0                
76.4                           0.233073171311321 -57.4787937000165 0.953050912744153 -148.242104843676 0.953050912744152 -148.242104843676 0.233346001824357 -56.1067866179645 
! Gamma         0                0                0                0                
! Port Impedance         50               0                50               0                
76.5                           0.231482188065641 -57.678365083891 0.953399374964462 -148.456386084376 0.953399374964461 -148.456386084376 0.231758107994239 -56.291079233889 
! Gamma         0                0                0                0                
! Port Impedance         50               0                50               0                
76.6                           0.229886786637409 -57.877903193059 0.95374610169889 -148.670831308141 0.953746101698889 -148.670831308141 0.230165846605925 -56.4750896122509 
! Gamma         0                0                0                0                
! Port Impedance         50               0                50               0                
76.7                           0.228286988528314 -58.0774026493447 0.954091069159741 -148.885439779738 0.95409106915974 -148.885439779738 0.228569240342917 -56.6588065085948 
! Gamma         0                0                0                0                
! Port Impedance         50               0                50               0                
76.8                           0.226682815522284 -58.2768579155475 0.954434253608011 -149.100210752189 0.95443425360801 -149.100210752189 0.226968312208233 -56.8422183346833 
! Gamma         0                0                0                0                
! Port Impedance         50               0                50               0                
76.9                           0.225074289686135 -58.4762632895475 0.954775631355962 -149.315143466776 0.954775631355961 -149.315143466776 0.225363085526537 -57.0253131452944 
! Gamma         0                0                0                0                
! Port Impedance         50               0                50               0                
77                             0.22346143337019 -58.6756128981299 0.955115178769705 -149.530237153056 0.955115178769704 -149.530237153056 0.223753583946318 -57.2080786243858 
! Gamma         0                0                0                0                
! Port Impedance         50               0                50               0                
77.1                           0.221844269208874 -58.8749006905072 0.955452872271802 -149.74549102887 0.955452872271801 -149.74549102887 0.222139831442117 -57.3905020705895 
! Gamma         0                0                0                0                
! Port Impedance         50               0                50               0                
77.2                           0.220222820121301 -59.0741204315238 0.955788688343875 -149.960904300359 0.955788688343874 -149.960904300359 0.220521852316833 -57.5725703819998 
! Gamma         0                0                0                0                
! Port Impedance         50               0                50               0                
77.3                           0.218597109311834 -59.2732656945244 0.956122603529233 -150.176476161981 0.956122603529232 -150.176476161981 0.218899671204071 -57.7542700402137 
! Gamma         0                0                0                0                
! Port Impedance         50               0                50               0                
77.4                           0.216967160270635 -59.4723298538656 0.956454594435505 -150.392205796525 0.956454594435504 -150.392205796525 0.217273313070588 -57.9355870935794 
! Gamma         0                0                0                0                
! Port Impedance         50               0                50               0                
77.5                           0.215332996774189 -59.671306077052 0.956784637737293 -150.608092375132 0.956784637737292 -150.608092375132 0.215642803218791 -58.1165071396088 
! Gamma         0                0                0                0                
! Port Impedance         50               0                50               0                
77.6                           0.213694642885815 -59.8701873164707 0.957112710178829 -150.824135057313 0.957112710178828 -150.824135057313 0.214008167289344 -58.2970153065021 
! Gamma         0                0                0                0                
! Port Impedance         50               0                50               0                
77.7                           0.212052122956181 -60.0689663007032 0.957438788576642 -151.040332990971 0.957438788576641 -151.040332990971 0.212369431263847 -58.4770962337352 
! Gamma         0                0                0                0                
! Port Impedance         50               0                50               0                
77.8                           0.210405461623766 -60.2676355253892 0.957762849822243 -151.256685312426 0.957762849822242 -151.256685312426 0.210726621467625 -58.6567340516499 
! Gamma         0                0                0                0                
! Port Impedance         50               0                50               0                
77.9                           0.208754683815357 -60.4661872436113 0.958084870884814 -151.473191146436 0.958084870884813 -151.473191146436 0.209079764572621 -58.8359123599913 
! Gamma         0                0                0                0                
! Port Impedance         50               0                50               0                
78                             0.207099814746497 -60.6646134557763 0.958404828813903 -151.689849606225 0.958404828813903 -151.689849606225 0.207428887600406 -59.0146142053232 
! Gamma         0                0                0                0                
! Port Impedance         50               0                50               0                
78.1                           0.205440879921949 -60.8629058989573 0.958722700742138 -151.90665979351 0.958722700742138 -151.90665979351 0.205774017925318 -59.1928220572575 
! Gamma         0                0                0                0                
! Port Impedance         50               0                50               0                
78.2                           0.20377790513614 -61.0610560356659 0.959038463887938 -152.123620798532 0.959038463887938 -152.123620798532 0.204115183277723 -59.3705177834211 
! Gamma         0                0                0                0                
! Port Impedance         50               0                50               0                
78.3                           0.202110916473605 -61.2590550420165 0.959352095558239 -152.34073170008 0.959352095558238 -152.34073170008 0.20245241174744 -59.5476826230833 
! Gamma         0                0                0                0                
! Port Impedance         50               0                50               0                
78.4                           0.200439940309425 -61.4568937952458 0.959663573151222 -152.557991565533 0.959663573151221 -152.557991565533 0.200785731787312 -59.7242971593575 
! Gamma         0                0                0                0                
! Port Impedance         50               0                50               0                
78.5                           0.198765003309671 -61.654562860543 0.959972874159055 -152.775399450885 0.959972874159054 -152.775399450885 0.199115172216952 -59.9003412898881 
! Gamma         0                0                0                0                
! Port Impedance         50               0                50               0                
78.6                           0.197086132431842 -61.8520524771503 0.960279976170631 -152.992954400783 0.96027997617063 -152.992954400783 0.197440762226674 -60.0757941959261 
! Gamma         0                0                0                0                
! Port Impedance         50               0                50               0                
78.7                           0.195403354925305 -62.0493525436819 0.96058485687432 -153.210655448567 0.96058485687432 -153.210655448567 0.195762531381613 -60.2506343096869 
! Gamma         0                0                0                0                
! Port Impedance         50               0                50               0                
78.8                           0.193716698331759 -62.2464526026115 0.960887494060723 -153.428501616304 0.960887494060722 -153.428501616304 0.194080509626074 -60.4248392798801 
! Gamma         0                0                0                0                
! Port Impedance         50               0                50               0                
78.9                           0.192026190485685 -62.4433418238732 0.961187865625425 -153.646491914827 0.961187865625424 -153.646491914827 0.192394727288097 -60.5983859352906 
! Gamma         0                0                0                0                
! Port Impedance         50               0                50               0                
79                             0.190331859514834 -62.6400089875151 0.961485949571763 -153.864625343783 0.961485949571762 -153.864625343783 0.19070521508428 -60.7712502462808 
! Gamma         0                0                0                0                
! Port Impedance         50               0                50               0                
79.1                           0.18863373384071 -62.8364424653423 0.961781724013586 -154.08290089167 0.961781724013586 -154.08290089167 0.189012004124868 -60.9434072840748 
! Gamma         0                0                0                0                
! Port Impedance         50               0                50               0                
79.2                           0.186931842179093 -63.0326302014775 0.962075167178026 -154.301317535882 0.962075167178025 -154.301317535882 0.187315125919125 -61.1148311776753 
! Gamma         0                0                0                0                
! Port Impedance         50               0                50               0                
79.3                           0.185226213540578 -63.2285596917678 0.962366257408263 -154.519874242758 0.962366257408262 -154.519874242758 0.185614612381031 -61.2854950682488 
! Gamma         0                0                0                0                
! Port Impedance         50               0                50               0                
79.4                           0.183516877231152 -63.4242179619529 0.962654973166299 -154.73856996763 0.962654973166298 -154.73856996763 0.1839104958353  -61.4553710608078 
! Gamma         0                0                0                0                
! Port Impedance         50               0                50               0                
79.5                           0.18180386285279 -63.619591544511 0.962941293035729 -154.957403654869 0.962941293035728 -154.957403654869 0.182202809023769 -61.6244301729988 
! Gamma         0                0                0                0                
! Port Impedance         50               0                50               0                
79.6                           0.180087200304113 -63.814666454084 0.963225195724512 -155.176374237939 0.963225195724511 -155.176374237939 0.180491585112183 -61.7926422807932 
! Gamma         0                0                0                0                
! Port Impedance         50               0                50               0                
79.7                           0.178366919781089 -64.0094281613819 0.963506660067741 -155.395480639448 0.96350666006774 -155.395480639448 0.17877685769739 -61.9599760608616 
! Gamma         0                0                0                0                
! Port Impedance         50               0                50               0                
79.8                           0.176643051777771 -64.2038615654556 0.963785665030414 -155.614721771203 0.963785665030413 -155.614721771203 0.177058660815008 -62.126398929393 
! Gamma         0                0                0                0                
! Port Impedance         50               0                50               0                
79.9                           0.174915627087122 -64.397950964216 0.964062189710203 -155.834096534266 0.964062189710203 -155.834096534266 0.175337028947566 -62.2918769771001 
! Gamma         0                0                0                0                
! Port Impedance         50               0                50               0                
80                             0.173184676801883 -64.5916800230715 0.964336213340219 -156.053603819012 0.964336213340219 -156.053603819012 0.17361199703319 -62.4563749001331 
! Gamma         0                0                0                0                
! Port Impedance         50               0                50               0                
80.1                           0.171450232315549 -64.785031741538 0.964607715291775 -156.273242505186 0.964607715291774 -156.273242505186 0.171883600474865 -62.6198559265976 
! Gamma         0                0                0                0                
! Port Impedance         50               0                50               0                
80.2                           0.169712325323399 -64.977988417673 0.964876675077143 -156.493011461967 0.964876675077142 -156.493011461967 0.170151875150308 -62.7822817383481 
! Gamma         0                0                0                0                
! Port Impedance         50               0                50               0                
80.3                           0.167970987823646 -65.1705316101607 0.965143072352313 -156.712909548026 0.965143072352312 -156.712909548026 0.168416857422524 -62.9436123877008 
! Gamma         0                0                0                0                
! Port Impedance         50               0                50               0                
80.4                           0.166226252118692 -65.3626420978695 0.96540688691974 -156.932935611595 0.965406886919739 -156.932935611595 0.166678584151082 -63.1038062086771 
! Gamma         0                0                0                0                
! Port Impedance         50               0                50               0                
80.5                           0.164478150816493 -65.5542998366808 0.965668098731089 -157.153088490528 0.965668098731088 -157.153088490528 0.164937092704179 -63.2628197223547 
! Gamma         0                0                0                0                
! Port Impedance         50               0                50               0                
80.6                           0.162726716832067 -65.7454839133741 0.965926687889973 -157.37336701237 0.965926687889972 -157.37336701237 0.163192420971557 -63.4206075358688 
! Gamma         0                0                0                0                
! Port Impedance         50               0                50               0                
80.7                           0.160971983389149 -65.9361724963294 0.966182634654684 -157.593769994428 0.966182634654684 -157.593769994428 0.161444607378353 -63.5771222345585 
! Gamma         0                0                0                0                
! Port Impedance         50               0                50               0                
80.8                           0.159213984022   -66.12634278279  0.966435919440918 -157.814296243837 0.966435919440917 -157.814296243837 0.159693690899929 -63.7323142667165 
! Gamma         0                0                0                0                
! Port Impedance         50               0                50               0                
80.9                           0.157452752577414 -66.3159709424023 0.966686522824485 -158.034944557636 0.966686522824485 -158.034944557636 0.157939711077812 -63.8861318203405 
! Gamma         0                0                0                0                
! Port Impedance         50               0                50               0                
81                             0.15568832321691 -66.5050320567205 0.966934425544023 -158.255713722839 0.966934425544023 -158.255713722839 0.1561827080368  -64.0385206912377 
! Gamma         0                0                0                0                
! Port Impedance         50               0                50               0                
81.1                           0.153920730419148 -66.6935000543405 0.967179608503687 -158.476602516513 0.967179608503687 -158.476602516513 0.154422722503347 -64.189424141766 
! Gamma         0                0                0                0                
! Port Impedance         50               0                50               0                
81.2                           0.152150008982595 -66.8813476412853 0.96742205277584 -158.697609705849 0.96742205277584 -158.697609705849 0.152659795825357 -64.3387827494324 
! Gamma         0                0                0                0                
! Port Impedance         50               0                50               0                
81.3                           0.150376194028448 -67.0685462262368 0.967661739603728 -158.918734048249 0.967661739603728 -158.918734048249 0.150893969993475 -64.4865342444903 
! Gamma         0                0                0                0                
! Port Impedance         50               0                50               0                
81.4                           0.148599321003869 -67.2550658401589 0.96789865040414 -159.139974291399 0.96789865040414 -159.139974291399 0.14912528766404 -64.6326133355972 
! Gamma         0                0                0                0                
! Port Impedance         50               0                50               0                
81.5                           0.146819425685524 -67.4408750498206 0.968132766770063 -159.361329173354 0.968132766770063 -159.361329173354 0.147353792183831 -64.776951522499 
! Gamma         0                0                0                0                
! Port Impedance         50               0                50               0                
81.6                           0.145036544183502 -67.6259408646682 0.968364070473318 -159.582797422619 0.968364070473318 -159.582797422619 0.145579527616775 -64.9194768946063 
! Gamma         0                0                0                0                
! Port Impedance         50               0                50               0                
81.7                           0.143250712945628 -67.810228636445 0.968592543467187 -159.804377758236 0.968592543467187 -159.804377758236 0.143802538772788 -65.0601139142134 
! Gamma         0                0                0                0                
! Port Impedance         50               0                50               0                
81.8                           0.141461968762194 -67.9937019508932 0.968818167889018 -160.02606888987 0.968818167889018 -160.02606888987 0.142022871238972 -65.1987831829793 
! Gamma         0                0                0                0                
! Port Impedance         50               0                50               0                
81.9                           0.139670348771199 -68.1763225107962 0.969040926062827 -160.247869517896 0.969040926062826 -160.247869517896 0.140240571413336 -65.3354011901567 
! Gamma         0                0                0                0                
! Port Impedance         50               0                50               0                
82                             0.137875890464105 -68.3580500095482 0.969260800501868 -160.469778333487 0.969260800501869 -160.469778333487 0.138455686541353 -65.4698800408834 
! Gamma         0                0                0                0                
! Port Impedance         50               0                50               0                
82.1                           0.136078631692188 -68.5388419943419 0.969477773911207 -160.691794018709 0.969477773911207 -160.691794018709 0.13666826475555 -65.6021271626851 
! Gamma         0                0                0                0                
! Port Impedance         50               0                50               0                
82.2                           0.134278610673538 -68.7186537179686 0.969691829190257 -160.91391524661 0.969691829190257 -160.91391524661 0.134878355118467 -65.7320449881303 
! Gamma         0                0                0                0                
! Port Impedance         50               0                50               0                
82.3                           0.132475866000767 -68.8974379781109 0.969902949435311 -161.136140681315 0.969902949435311 -161.136140681315 0.133086007669319 -65.859530611358 
! Gamma         0                0                0                0                
! Port Impedance         50               0                50               0                
82.4                           0.13067043664954 -69.0751449428782 0.97011111794205 -161.358468978124 0.97011111794205 -161.358468978124 0.131291273474687 -65.984475415949 
! Gamma         0                0                0                0                
! Port Impedance         50               0                50               0                
82.5                           0.128862361987951 -69.251721961197 0.970316318208033 -161.580898783605 0.970316318208033 -161.580898783605 0.129494204683704 -66.1067646713255 
! Gamma         0                0                0                0                
! Port Impedance         50               0                50               0                
82.6                           0.127051681786893 -69.4271133564987 0.970518533935167 -161.803428735695 0.970518533935168 -161.803428735695 0.127694854588117 -66.2262770945499 
! Gamma         0                0                0                0                
! Port Impedance         50               0                50               0                
82.7                           0.125238436231521 -69.6012602019642 0.970717749032157 -162.0260574638  0.970717749032157 -162.0260574638  0.125893277687806 -66.3428843740301 
! Gamma         0                0                0                0                
! Port Impedance         50               0                50               0                
82.8                           0.12342266593389 -69.7741000753798 0.970913947616933 -162.248783588898 0.970913947616933 -162.248783588898 0.124089529762256 -66.4564506512362 
! Gamma         0                0                0                0                
! Port Impedance         50               0                50               0                
82.9                           0.121604411946951 -69.945566791412 0.971107114019055 -162.471605723638 0.971107114019055 -162.471605723638 0.122283667948675 -66.5668319560734 
! Gamma         0                0                0                0                
! Port Impedance         50               0                50               0                
83                             0.119783715780024 -70.1155901088416 0.9712972327821  -162.694522472448 0.971297232782101 -162.694522472448 0.120475750827428 -66.6738755910331 
! Gamma         0                0                0                0                
! Port Impedance         50               0                50               0                
83.1                           0.117960619415922 -70.2840954099869 0.971484288666022 -162.91753243164 0.971484288666023 -162.91753243164 0.118665838515585 -66.7774194586574 
! Gamma         0                0                0                0                
! Port Impedance         50               0                50               0                
83.2                           0.116135165329945 -70.4510033491853 0.971668266649485 -163.140634189518 0.971668266649485 -163.140634189518 0.116853992769516 -66.8772913261743 
! Gamma         0                0                0                0                
! Port Impedance         50               0                50               0                
83.3                           0.114307396510909 -70.6162294668013 0.971849151932177 -163.363826326484 0.971849151932178 -163.363826326484 0.115040277097486 -66.9733080204008 
! Gamma         0                0                0                0                
! Port Impedance         50               0                50               0                
83.4                           0.112477356484515 -70.7796837647536 0.972026929937098 -163.587107415154 0.972026929937099 -163.587107415154 0.113224756883443 -67.065274545129 
! Gamma         0                0                0                0                
! Port Impedance         50               0                50               0                
83.5                           0.110645089339282 -70.9412702390193 0.972201586312819 -163.810476020463 0.97220158631282 -163.810476020463 0.111407499523259 -67.1529831122183 
! Gamma         0                0                0                0                
! Port Impedance         50               0                50               0                
83.6                           0.108810639755408 -71.1008863639467 0.972373106935715 -164.033930699783 0.972373106935716 -164.033930699783 0.109588574574877 -67.2362120764634 
! Gamma         0                0                0                0                
! Port Impedance         50               0                50               0                
83.7                           0.106974053036887 -71.2584225224908 0.972541477912176 -164.257470003034 0.972541477912176 -164.257470003034 0.107768053924048 -67.314724762998 
! Gamma         0                0                0                0                
! Port Impedance         50               0                50               0                
83.8                           0.105135375147309 -71.4137613756467 0.972706685580779 -164.481092472802 0.97270668558078 -164.481092472802 0.105946011967506 -67.3882681744776 
! Gamma         0                0                0                0                
! Port Impedance         50               0                50               0                
83.9                           0.103294652749812 -71.5667771633891 0.972868716514449 -164.704796644455 0.97286871651445 -164.704796644455 0.104122525815767 -67.4565715635425 
! Gamma         0                0                0                0                
! Port Impedance         50               0                50               0                
84                             0.101451933251746 -71.7173349282907 0.973027557522571 -164.928581046262 0.973027557522571 -164.928581046262 0.102297675517963 -67.5193448540498 
! Gamma         0                0                0                0                
! Port Impedance         50               0                50               0                
84.1                           0.0996072648546202 -71.8652896516764 0.973183195653085 -165.152444199513 0.973183195653086 -165.152444199513 0.100471544311516 -67.5762768922296 
! Gamma         0                0                0                0                
! Port Impedance         50               0                50               0                
84.2                           0.0977606966101327 -72.0104852906126 0.97333561819455 -165.376384618637 0.973335618194551 -165.376384618637 0.0986442188999162 -67.627033506223 
! Gamma         0                0                0                0                
! Port Impedance         50               0                50               0                
84.3                           0.0959122784830332 -72.1527537022251 0.973484812678173 -165.600400811329 0.973484812678173 -165.600400811329 0.0968157897622224 -67.6712553493133 
! Gamma         0                0                0                0                
! Port Impedance         50               0                50               0                
84.4                           0.0940620614218501 -72.2919134396841 0.973630766879804 -165.824491278671 0.973630766879805 -165.824491278671 0.0949863514985688 -67.7085554985084 
! Gamma         0                0                0                0                
! Port Impedance         50               0                50               0                
84.5                           0.0922100974385393 -72.4277684016736 0.973773468821912 -166.048654515254 0.973773468821913 -166.048654515254 0.0931560032166126 -67.7385167758535 
! Gamma         0                0                0                0                
! Port Impedance         50               0                50               0                
84.6                           0.0903564396984143 -72.5601063141542 0.973912906775509 -166.272889009309 0.97391290677551 -166.272889009309 0.0913248489645541 -67.7606887548604 
! Gamma         0                0                0                0                
! Port Impedance         50               0                50               0                
84.7                           0.0885011426218537 -72.6886970196659 0.974049069262058 -166.497193242833 0.974049069262059 -166.497193242833 0.0894929982173552 -67.774584408565 
! Gamma         0                0                0                0                
! Port Impedance         50               0                50               0                
84.8                           0.0866442619995904 -72.8132905451585 0.974181945055337 -166.721565691712 0.974181945055338 -166.721565691712 0.0876605664237963 -67.7796763488336 
! Gamma         0                0                0                0                
! Port Impedance         50               0                50               0                
84.9                           0.0847858551236624 -72.9336149142429 0.974311523183273 -166.946004825859 0.974311523183274 -166.946004825859 0.0858276756233501 -67.7753925983981 
! Gamma         0                0                0                0                
! Port Impedance         50               0                50               0                
85                             0.0829259809365389 -73.0493736636297 0.974437792929736 -167.170509109338 0.974437792929738 -167.170509109338 0.0839944551432835 -67.7611118274856 
! Gamma         0                0                0                0                
! Port Impedance         50               0                50               0                
85.1                           0.0810647002013689 -73.1602430161404 0.974560743836309 -167.395077000497 0.97456074383631 -167.395077000497 0.0821610423882912 -67.7361579755162 
! Gamma         0                0                0                0                
! Port Impedance         50               0                50               0                
85.2                           0.0792020756968036 -73.2658686537351 0.974680365704005 -167.619706952103 0.974680365704006 -167.619706952103 0.0803275837370936 -67.699794164796 
! Gamma         0                0                0                0                
! Port Impedance         50               0                50               0                
85.3                           0.0773381724406332 -73.3658620231264 0.974796648594961 -167.844397411474 0.974796648594962 -167.844397411474 0.0784942355629919 -67.6512157970051 
! Gamma         0                0                0                0                
! Port Impedance         50               0                50               0                
85.4                           0.0754730579472001 -73.4597960932824 0.974909582834091 -168.069146820615 0.974909582834092 -168.069146820615 0.0766611653985869 -67.5895427040037 
! Gamma         0                0                0                0                
! Port Impedance         50               0                50               0                
85.5                           0.0736068025245978 -73.5472004678464 0.975019159010698 -168.293953616353 0.975019159010699 -168.293953616353 0.0748285532685708 -67.513810201395 
! Gamma         0                0                0                0                
! Port Impedance         50               0                50               0                
85.6                           0.0717394796189713 -73.6275557354515 0.975125367980054 -168.518816230473 0.975125367980055 -168.518816230473 0.0729965932191171 -67.4229588655558 
! Gamma         0                0                0                0                
! Port Impedance         50               0                50               0                
85.7                           0.0698711662146979 -73.7002869160914 0.975228200864934 -168.743733089859 0.975228200864935 -168.743733089859 0.0711654950780082 -67.3158228214493 
! Gamma         0                0                0                0                
! Port Impedance         50               0                50               0                
85.8                           0.0680019433012132 -73.7647558308321 0.975327649057119 -168.968702616631 0.975327649057121 -168.968702616631 0.0693354864863537 -67.1911162882063 
! Gamma         0                0                0                0                
! Port Impedance         50               0                50               0                
85.9                           0.0661318964196867 -73.8202521835293 0.975423704218853 -169.193723228283 0.975423704218855 -169.193723228283 0.0675068152512636 -67.0474180806469 
! Gamma         0                0                0                0                
! Port Impedance         50               0                50               0                
86                             0.0642611163057701 -73.8659830946487 0.975516358284263 -169.418793337828 0.975516358284264 -169.418793337828 0.065679752078954 -66.8831537056477 
! Gamma         0                0                0                0                
! Port Impedance         50               0                50               0                
86.1                           0.0623896996485143 -73.9010607658502 0.975605603460737 -169.643911353935 0.975605603460739 -169.643911353935 0.0638545937606455 -66.6965746201908 
! Gamma         0                0                0                0                
! Port Impedance         50               0                50               0                
86.2                           0.060517749990539 -73.924487875805 0.975691432230266 -169.869075681076 0.975691432230267 -169.869075681076 0.0620316668992226 -66.4857341300299 
! Gamma         0                0                0                0                
! Port Impedance         50               0                50               0                
86.3                           0.0586453788008004 -73.9351402075766 0.975773837350735 -170.094284719664 0.975773837350737 -170.094284719665 0.0602113322844185 -66.2484593005917 
! Gamma         0                0                0                0                
! Port Impedance         50               0                50               0                
86.4                           0.0567727067596153 -73.9317458787594 0.975852811857185 -170.319536866204 0.975852811857187 -170.319536866204 0.058393990048723 -65.9823181204231 
! Gamma         0                0                0                0                
! Port Impedance         50               0                50               0                
86.5                           0.054899865306155 -73.912860377892 0.97592834906302 -170.54483051343 0.975928349063022 -170.54483051343 0.0565800857671683 -65.6845809967763 
! Gamma         0                0                0                0                
! Port Impedance         50               0                50               0                
86.6                           0.0530269985127576 -73.876836391286 0.976000442561182 -170.770164050458 0.976000442561184 -170.770164050458 0.0547701177029502 -65.3521754660931 
! Gamma         0                0                0                0                
! Port Impedance         50               0                50               0                
86.7                           0.0511542653688964 -73.8217871151598 0.976069086225277 -170.995535862927 0.976069086225279 -170.995535862927 0.0529646454501404 -64.9816327613711 
! Gamma         0                0                0                0                
! Port Impedance         50               0                50               0                
86.8                           0.0492818425824708 -73.7455413634075 0.97613427421066 -171.220944333148 0.976134274210661 -171.220944333149 0.0511643002872447 -64.5690245844532 
! Gamma         0                0                0                0                
! Port Impedance         50               0                50               0                
86.9                           0.0474099280393938 -73.6455882655736 0.976196000955477 -171.446387840255 0.976196000955478 -171.446387840255 0.0493697976350078 -64.1098880739719 
! Gamma         0                0                0                0                
! Port Impedance         50               0                50               0                
87                             0.0455387451079985 -73.5190086515109 0.976254261181662 -171.671864760348 0.976254261181663 -171.671864760348 0.0475819521138394 -63.5991365284566 
! Gamma         0                0                0                0                
! Port Impedance         50               0                50               0                
87.1                           0.0436685480371051 -73.3623892650036 0.976309049895889 -171.897373466643 0.976309049895891 -171.897373466643 0.0458016958267348 -63.0309529295073 
! Gamma         0                0                0                0                
! Port Impedance         50               0                50               0                
87.2                           0.041799628783501 -73.1717146309515 0.976360362390486 -172.122912329628 0.976360362390488 -172.122912329628 0.0440301006611713 -62.3986627068955 
! Gamma         0                0                0                0                
! Port Impedance         50               0                50               0                
87.3                           0.0399323257266877 -72.942229561145 0.97640819424429 -172.348479717204 0.976408194244292 -172.348479717204 0.0422684056185454 -61.6945815011565 
! Gamma         0                0                0                0                
! Port Impedance         50               0                50               0                
87.4                           0.0380670349027306 -72.6682626858462 0.976452541323475 -172.574073994844 0.976452541323477 -172.574073994844 0.0405180504555473 -60.9098329362723 
! Gamma         0                0                0                0                
! Port Impedance         50               0                50               0                
87.5                           0.0362042246402626 -72.3429976852062 0.976493399782321 -172.799693525737 0.976493399782323 -172.799693525737 0.0387807172737254 -60.034130683098 
! Gamma         0                0                0                0                
! Port Impedance         50               0                50               0                
87.6                           0.0343444548496947 -71.9581735191846 0.976530766063942 -173.025336670946 0.976530766063945 -173.025336670946 0.03705838213938 -59.0555185175008 
! Gamma         0                0                0                0                
! Port Impedance         50               0                50               0                
87.7                           0.0324884027640501 -71.5036870691013 0.976564636900974 -173.251001789557 0.976564636900976 -173.251001789557 0.0353533793721097 -57.9600619369248 
! Gamma         0                0                0                0                
! Port Impedance         50               0                50               0                
87.8                           0.0306368977577981 -70.9670598757555 0.976595009316203 -173.476687238834 0.976595009316205 -173.476687238834 0.0336684818184384 -56.7314857184819 
! Gamma         0                0                0                0                
! Port Impedance         50               0                50               0                
87.9                           0.0287909691439789 -70.3327129685615 0.976621880623163 -173.702391374368 0.976621880623165 -173.702391374368 0.0320070012188465 -55.3507545192272 
! Gamma         0                0                0                0                
! Port Impedance         50               0                50               0                
88                             0.0269519128481042 -69.5809667193115 0.976645248426675 -173.928112550236 0.976645248426677 -173.928112550236 0.0303729136319351 -53.7955998724532 
! Gamma         0                0                0                0                
! Port Impedance         50               0                50               0                
88.1                           0.0251213860523062 -68.686640700225 0.976665110623348 -174.153849119149 0.976665110623351 -174.153849119149 0.028771015657239 -52.0400094960344 
! Gamma         0                0                0                0                
! Port Impedance         50               0                50               0                
88.2                           0.0233015441201301 -67.6170627168169 0.976681465402029 -174.379599432612 0.976681465402032 -174.379599432612 0.0272071175777472 -50.0537182296861 
! Gamma         0                0                0                0                
! Port Impedance         50               0                50               0                
88.3                           0.0214952428096729 -66.3291921303219 0.976694311244205 -174.605361841075 0.976694311244208 -174.605361841075 0.0256882788730917 -47.8017811831489 
! Gamma         0                0                0                0                
! Port Impedance         50               0                50               0                
88.4                           0.0197063435865486 -64.7653980124569 0.976703646924363 -174.831134694087 0.976703646924365 -174.831134694087 0.0242230885999908 -45.2443788025535 
! Gamma         0                0                0                0                
! Port Impedance         50               0                50               0                
88.5                           0.0179401855153033 -62.847176543416 0.976709471510295 -175.056916340455 0.976709471510298 -175.056916340456 0.0228219857291892 -42.3371125496819 
! Gamma         0                0                0                0                
! Port Impedance         50               0                50               0                
88.6                           0.0162043322899959 -60.465714417332 0.97671178436337 -175.282705128395 0.976711784363372 -175.282705128395 0.0214975991942834 -39.0322074117016 
! Gamma         0                0                0                0                
! Port Impedance         50               0                50               0                
88.7                           0.014509782130925 -57.4677330160669 0.97671058513874 -175.508499405689 0.976710585138742 -175.508499405689 0.0202650593733692 -35.2812332772639 
! Gamma         0                0                0                0                
! Port Impedance         50               0                50               0                
88.8                           0.0128729629876912 -53.6347940056758 0.976705873785513 -175.734297519842 0.976705873785515 -175.734297519842 0.0191421873435633 -31.0401277958167 
! Gamma         0                0                0                0                
! Port Impedance         50               0                50               0                
88.9                           0.0113190392974164 -48.6556200456589 0.976697650546873 -175.960097818233 0.976697650546876 -175.960097818233 0.018149405948912 -26.2772757320641 
! Gamma         0                0                0                0                
! Port Impedance         50               0                50               0                
89                             0.00988724421921163 -42.0990124642895 0.976685915960156 -176.185898648279 0.976685915960158 -176.185898648279 0.017309153914826 -20.9848458237461 
! Gamma         0                0                0                0                
! Port Impedance         50               0                50               0                
89.1                           0.00863856140750578 -33.4239271056483 0.97667067085687 -176.411698357581 0.976670670856873 -176.411698357581 0.0166445684848819 -15.1921078192156 
! Gamma         0                0                0                0                
! Port Impedance         50               0                50               0                
89.2                           0.0076630370330825 -22.1354430119443 0.976651916362681 -176.637495294086 0.976651916362684 -176.637495294086 0.0161773149982989 -8.97701044302194 
! Gamma         0                0                0                0                
! Port Impedance         50               0                50               0                
89.3                           0.00707454284378363 -8.25529613911659 0.976629653897338 -176.863287806244 0.976629653897341 -176.863287806244 0.0159247527318737 -2.46999368540419 
! Gamma         0                0                0                0                
! Port Impedance         50               0                50               0                
89.4                           0.00697169333447792 7.05566092239762 0.976603885174561 -177.089074243157 0.976603885174564 -177.089074243157 0.0158970762402553 4.15566608646915 
! Gamma         0                0                0                0                
! Port Impedance         50               0                50               0                
89.5                           0.00737470158882571 21.7178501330095 0.976574612201876 -177.314852954741 0.976574612201879 -177.314852954741 0.016095383935726 10.7076819261258 
! Gamma         0                0                0                0                
! Port Impedance         50               0                50               0                
89.6                           0.00820924255550449 34.0941332381272 0.976541837280403 -177.540622291881 0.976541837280406 -177.540622291881 0.0165114549233151 17.0056796289261 
! Gamma         0                0                0                0                
! Port Impedance         50               0                50               0                
89.7                           0.00936042284184277 43.7655062858605 0.976505563004601 -177.766380606582 0.976505563004604 -177.766380606582 0.017129331018356 22.9076180158039 
! Gamma         0                0                0                0                
! Port Impedance         50               0                50               0                
89.8                           0.0107265930343405 51.0979243919422 0.97646579226196 -177.992126252129 0.976465792261963 -177.99212625213 0.017928047704385 28.323020001335  
! Gamma         0                0                0                0                
! Port Impedance         50               0                50               0                
89.9                           0.0122357614104185 56.6468493916295 0.976422528232649 -178.217857583242 0.976422528232652 -178.217857583242 0.01888454954458 33.2119426570558 
! Gamma         0                0                0                0                
! Port Impedance         50               0                50               0                
90                             0.0138410393665948 60.8930930444761 0.97637577438912 -178.443572956228 0.976375774389123 -178.443572956228 0.019976050422363 37.574642351513  
! Gamma         0                0                0                0                
! Port Impedance         50               0                50               0                
90.1                           0.0155124255848237 64.1931990821913 0.976325534495658 -178.669270729137 0.97632553449566 -178.669270729138 0.0211815490769414 41.4382309474599 
! Gamma         0                0                0                0                
! Port Impedance         50               0                50               0                
90.2                           0.0172304999747923 66.7989807894778 0.97627181260789 -178.89494926192 0.976271812607893 -178.89494926192 0.022482567170484 44.8446758323568 
! Gamma         0                0                0                0                
! Port Impedance         50               0                50               0                
90.3                           0.0189823969001319 68.8867838374759 0.976214613072248 -179.120606916576 0.976214613072251 -179.120606916576 0.0238633330218548 47.8419290677042 
! Gamma         0                0                0                0                
! Port Impedance         50               0                50               0                
90.4                           0.0207593628698231 70.5811165378491 0.97615394052538 -179.346242057314 0.976153940525383 -179.346242057314 0.025310640495901 50.4782391905881 
! Gamma         0                0                0                0                
! Port Impedance         50               0                50               0                
90.5                           0.0225552818986555 71.97120534822   0.976089799893523 -179.571853050701 0.976089799893526 -179.571853050701 0.0268135550366594 52.7989590626242 
! Gamma         0                0                0                0                
! Port Impedance         50               0                50               0                
90.6                           0.0243657723669933 73.1220983302387 0.97602219639182 -179.797438265817 0.976022196391823 -179.797438265817 0.0283630739621507 54.8450461902937 
! Gamma         0                0                0                0                
! Port Impedance         50               0                50               0                
90.7                           0.0261876218530383 74.0820480919807 0.975951135523602 179.977003925592 0.975951135523605 179.977003925592 0.0299517983230937 56.6525965799252 
! Gamma         0                0                0                0                
! Port Impedance         50               0                50               0                
90.8                           0.0280184249491728 74.8874508295241 0.975876623079616 179.751475148962 0.975876623079619 179.751475148962 0.0315736418297809 58.2529518024279 
! Gamma         0                0                0                0                
! Port Impedance         50               0                50               0                
90.9                           0.0298563455822877 75.5661920493339 0.975798665137215 179.525977026759 0.975798665137219 179.525977026758 0.0332235844805644 59.6730877205467 
! Gamma         0                0                0                0                
! Port Impedance         50               0                50               0                
91                             0.0316999574599959 76.139947568926  0.975717268059497 179.300511178326 0.9757172680595  179.300511178326 0.0348974696150986 60.9361133832532 
! Gamma         0                0                0                0                
! Port Impedance         50               0                50               0                
91.1                           0.0335481346661385 76.6257914472811 0.975632438494399 179.075079219737 0.975632438494402 179.075079219737 0.0365918393521035 62.0617860689522 
! Gamma         0                0                0                0                
! Port Impedance         50               0                50               0                
91.2                           0.035399975156184 77.0373375106017 0.975544183373756 178.849682763641 0.975544183373759 178.849682763641 0.0383038023053087 63.066995316202  
! Gamma         0                0                0                0                
! Port Impedance         50               0                50               0                
91.3                           0.0372547462837129 77.3855622000893 0.975452509912304 178.624323419114 0.975452509912307 178.624323419114 0.040030927682174 63.9661956738816 
! Gamma         0                0                0                0                
! Port Impedance         50               0                50               0                
91.4                           0.0391118453646722 77.6794063344595 0.975357425606646 178.399002791512 0.975357425606649 178.399002791512 0.0417711605944404 64.771782543963  
! Gamma         0                0                0                0                
! Port Impedance         50               0                50               0                
91.5                           0.0409707706897268 77.9262212025853 0.975258938234173 178.17372248232  0.975258938234176 178.17372248232  0.0435227542664719 65.4944129343099 
! Gamma         0                0                0                0                
! Port Impedance         50               0                50               0                
91.6                           0.0428310999161816 78.1321034811393 0.975157055851944 177.948484089004 0.975157055851947 177.948484089004 0.0452842156428379 66.1432763127533 
! Gamma         0                0                0                0                
! Port Impedance         50               0                50               0                
91.7                           0.0446924737518085 78.3021496801998 0.975051786795518 177.723289204867 0.975051786795521 177.723289204867 0.0470542616043974 66.7263219177617 
! Gamma         0                0                0                0                
! Port Impedance         50               0                50               0                
91.8                           0.0465545834873239 78.4406515983188 0.974943139677749 177.498139418897 0.974943139677752 177.498139418897 0.0488317835875868 67.2504489090287 
! Gamma         0                0                0                0                
! Port Impedance         50               0                50               0                
91.9                           0.0484171613646168 78.5512480166065 0.974831123387538 177.273036315627 0.974831123387542 177.273036315627 0.0506158188726009 67.7216652357081 
! Gamma         0                0                0                0                
! Port Impedance         50               0                50               0                
92                             0.0502799730596764 78.6370435651226 0.974715747088542 177.047981474984 0.974715747088545 177.047981474984 0.0524055271792169 68.1452203880324 
! Gamma         0                0                0                0                
! Port Impedance         50               0                50               0                
92.1                           0.0521428117604923 78.7007027041462 0.974597020217838 176.822976472151 0.974597020217842 176.822976472151 0.0542001715015301 68.5257164494046 
! Gamma         0                0                0                0                
! Port Impedance         50               0                50               0                
92.2                           0.054005493460353 78.744524655069  0.97447495248456 176.598022877419 0.974474952484562 176.598022877419 0.0559991023413073 68.8672011628189 
! Gamma         0                0                0                0                
! Port Impedance         50               0                50               0                
92.3                           0.0558678531866071 78.7705036126487 0.974349553868475 176.373122256046 0.974349553868478 176.373122256046 0.0578017446777063 69.1732461016565 
! Gamma         0                0                0                0                
! Port Impedance         50               0                50               0                
92.4                           0.0577297419557959 78.7803774865498 0.974220834618541 176.148276168114 0.974220834618544 176.148276168114 0.0596075871495347 69.4470124995032 
! Gamma         0                0                0                0                
! Port Impedance         50               0                50               0                
92.5                           0.0595910242977344 78.7756676304081 0.974088805251409 175.92348616839  0.974088805251412 175.92348616839  0.0614161730344959 69.6913068434287 
! Gamma         0                0                0                0                
! Port Impedance         50               0                50               0                
92.6                           0.0614515762288309 78.7577114354075 0.973953476549893 175.698753806185 0.973953476549896 175.698753806185 0.0632270926943055 69.9086279612667 
! Gamma         0                0                0                0                
! Port Impedance         50               0                50               0                
92.7                           0.0633112835826947 78.7276892335722 0.973814859561403 175.474080625215 0.973814859561407 175.474080625215 0.0650399772208508 70.1012070254373 
! Gamma         0                0                0                0                
! Port Impedance         50               0                50               0                
92.8                           0.0651700406269539 78.6866466322749 0.973672965596336 175.249468163461 0.973672965596339 175.249468163461 0.0668544930705885 70.2710416433237 
! Gamma         0                0                0                0                
! Port Impedance         50               0                50               0                
92.9                           0.0670277489109619 78.6355131567832 0.973527806226432 175.024917953036 0.973527806226435 175.024917953035 0.0686703375156519 70.4199249977511 
! Gamma         0                0                0                0                
! Port Impedance         50               0                50               0                
93                             0.068884316300746 78.5751178911986 0.973379393283091 174.800431520044 0.973379393283094 174.800431520044 0.0704872347726036 70.5494708324613 
! Gamma         0                0                0                0                
! Port Impedance         50               0                50               0                
93.1                           0.0707396561668775 78.5062026649727 0.973227738855659 174.57601038445  0.973227738855662 174.576010384449 0.0723049326957911 70.6611349397518 
! Gamma         0                0                0                0                
! Port Impedance         50               0                50               0                
93.2                           0.0725936866978388 78.4294332214546 0.973072855289669 174.351656059939 0.973072855289672 174.351656059939 0.0741231999429085 70.7562336948618 
! Gamma         0                0                0                0                
! Port Impedance         50               0                50               0                
93.3                           0.074446330316991 78.3454087187    0.972914755185056 174.127370053791 0.97291475518506 174.127370053791 0.0759418235370943 70.8359600895705 
! Gamma         0                0                0                0                
! Port Impedance         50               0                50               0                
93.4                           0.0762975131853741 78.2546698451928 0.972753451394332 173.903153866743 0.972753451394335 173.903153866743 0.0777606067630869 70.9013976419156 
! Gamma         0                0                0                0                
! Port Impedance         50               0                50               0                
93.5                           0.0781471647761789 78.157705779826  0.972588957020724 173.679008992859 0.972588957020727 173.679008992859 0.0795793673460331 70.953532496895  
! Gamma         0                0                0                0                
! Port Impedance         50               0                50               0                
93.6                           0.079995217509062 78.0549601832103 0.972421285416288 173.454936919403 0.972421285416291 173.454936919403 0.0813979358700602 70.9932639819012 
! Gamma         0                0                0                0                
! Port Impedance         50               0                50               0                
93.7                           0.0818416064348993 77.9468363736412 0.972250450179981 173.230939126708 0.972250450179984 173.230939126708 0.0832161544010691 71.0214138384532 
! Gamma         0                0                0                0                
! Port Impedance         50               0                50               0                
93.8                           0.0836862689630216 77.8337018140002 0.972076465155702 173.007017088047 0.972076465155705 173.007017088047 0.0850338752839618 71.0387343168819 
! Gamma         0                0                0                0                
! Port Impedance         50               0                50               0                
93.9                           0.0855291446245687 77.715892014043  0.971899344430306 172.783172269512 0.97189934443031 172.783172269511 0.0868509600893895 71.0459152916473 
! Gamma         0                0                0                0                
! Port Impedance         50               0                50               0                
94                             0.0873701748664258 77.5937139348698 0.97171910233158 172.559406129882 0.971719102331584 172.559406129882 0.0886672786889278 71.0435905308626 
! Gamma         0                0                0                0                
! Port Impedance         50               0                50               0                
94.1                           0.0892093028714102 77.4674489679631 0.971535753426195 172.335720120507 0.971535753426198 172.335720120507 0.0904827084410747 71.0323432334932 
! Gamma         0                0                0                0                
! Port Impedance         50               0                50               0                
94.2                           0.091046473400826 77.3373555494372 0.971349312517618 172.112115685176 0.971349312517621 172.112115685176 0.0922971334729702 71.0127109308686 
! Gamma         0                0                0                0                
! Port Impedance         50               0                50               0                
94.3                           0.0928816326563615 77.2036714604641 0.971159794644008 171.888594260004 0.971159794644012 171.888594260004 0.0941104440451324 70.9851898350413 
! Gamma         0                0                0                0                
! Port Impedance         50               0                50               0                
94.4                           0.0947147281585323 77.0666158568901 0.970967215076074 171.665157273306 0.970967215076078 171.665157273306 0.0959225359883318 70.9502387046486 
! Gamma         0                0                0                0                
! Port Impedance         50               0                50               0                
94.5                           0.0965457086395399 76.926391064454  0.970771589314903 171.441806145483 0.970771589314906 171.441806145483 0.0977333102033168 70.9082822889406 
! Gamma         0                0                0                0                
! Port Impedance         50               0                50               0                
94.6                           0.0983745239485799 76.783184170535  0.970572933089768 171.218542288898 0.970572933089772 171.218542288898 0.0995426722154634 70.8597144021541 
! Gamma         0                0                0                0                
! Port Impedance         50               0                50               0                
94.7                           0.100201124967991 76.6371684387966 0.970371262355904 170.995367107768 0.970371262355907 170.995367107768 0.101350531777504 70.8049006732621 
! Gamma         0                0                0                0                
! Port Impedance         50               0                50               0                
94.8                           0.102025463538816 76.4885045692627 0.970166593292259 170.77228199804  0.970166593292262 170.77228199804  0.103156802514427 70.7441810100174 
! Gamma         0                0                0                0                
! Port Impedance         50               0                50               0                
94.9                           0.103847492394682 76.3373418231368 0.969958942299218 170.549288347285 0.969958942299221 170.549288347285 0.104961401605519 70.6778718110248 
! Gamma         0                0                0                0                
! Port Impedance         50               0                50               0                
95                             0.105667165102855 76.1838190289939 0.969748325996306 170.326387534582 0.969748325996309 170.326387534582 0.106764249499106 70.6062679551402 
! Gamma         0                0                0                0                
! Port Impedance         50               0                50               0                
95.1                           0.107484436011691 76.028065484654  0.96953476121986 170.103580930406 0.969534761219863 170.103580930406 0.108565269656196 70.5296445936994 
! Gamma         0                0                0                0                
! Port Impedance         50               0                50               0                
95.2                           0.109299260203628 75.8702017671358 0.969318265020684 169.880869896523 0.969318265020687 169.880869896522 0.110364388319689 70.4482587678249 
! Gamma         0                0                0                0                
! Port Impedance         50               0                50               0                
95.3                           0.111111593453186 75.7103404614103 0.969098854661677 169.658255785876 0.969098854661681 169.658255785875 0.112161534306288 70.3623508702564 
! Gamma         0                0                0                0                
! Port Impedance         50               0                50               0                
95.4                           0.112921392189249 75.5485868172948 0.968876547615442 169.435739942483 0.968876547615446 169.435739942483 0.113956638818552 70.2721459687407 
! Gamma         0                0                0                0                
! Port Impedance         50               0                50               0                
95.5                           0.114728613461243 75.3850393426034 0.968651361561867 169.213323701331 0.96865136156187 169.213323701331 0.115749635274904 70.1778550059307 
! Gamma         0                0                0                0                
! Port Impedance         50               0                50               0                
95.6                           0.116533214908737 75.2197903396463 0.968423314385692 168.99100838827  0.968423314385695 168.99100838827  0.117540459155598 70.0796758889409 
! Gamma         0                0                0                0                
! Port Impedance         50               0                50               0                
95.7                           0.118335154734093 75.0529263912856 0.968192424174053 168.768795319912 0.968192424174056 168.768795319912 0.119329047863052 69.977794480139  
! Gamma         0                0                0                0                
! Port Impedance         50               0                50               0                
95.8                           0.120134391677798 74.8845288019906 0.967958709214004 168.546685803529 0.967958709214006 168.546685803529 0.121115340594892 69.8723854993993 
! Gamma         0                0                0                0                
! Port Impedance         50               0                50               0                
95.9                           0.121930884996231 74.7146739986699 0.967722187990025 168.324681136956 0.967722187990027 168.324681136956 0.122899278228504 69.763613346855  
! Gamma         0                0                0                0                
! Port Impedance         50               0                50               0                
96                             0.12372459444161 74.5434338954918 0.967482879181507 168.10278260849  0.96748287918151 168.10278260849  0.124680803215858 69.6516328541552 
! Gamma         0                0                0                0                
! Port Impedance         50               0                50               0                
96.1                           0.125515480243822 74.3708762264108 0.967240801660224 167.880991496795 0.967240801660227 167.880991496795 0.126459859487604 69.5365899713284 
! Gamma         0                0                0                0                
! Port Impedance         50               0                50               0                
96.2                           0.127303503094014 74.1970648486798 0.966995974487783 167.659309070808 0.966995974487785 167.659309070808 0.128236392365446 69.4186223955705 
! Gamma         0                0                0                0                
! Port Impedance         50               0                50               0                
96.3                           0.129088624129733 74.0220600202575 0.96674841691306 167.437736589642 0.966748416913062 167.437736589642 0.130010348482079 69.297860147568  
! Gamma         0                0                0                0                
! Port Impedance         50               0                50               0                
96.4                           0.130870804921434 73.84591865369   0.966498148369624 167.216275302499 0.966498148369626 167.216275302499 0.131781675707877 69.1744261003733 
! Gamma         0                0                0                0                
! Port Impedance         50               0                50               0                
96.5                           0.132650007460281 73.6686945487608 0.96624518847314 166.994926448573 0.966245188473143 166.994926448573 0.133550323083716 69.0484364653016 
! Gamma         0                0                0                0                
! Port Impedance         50               0                50               0                
96.6                           0.134426194147041 73.4904386059463 0.965989557018765 166.773691256968 0.965989557018768 166.773691256968 0.135316240759344 68.9200012388494 
! Gamma         0                0                0                0                
! Port Impedance         50               0                50               0                
96.7                           0.136199327782008 73.3111990225044 0.965731273978522 166.552570946605 0.965731273978525 166.552570946605 0.137079379936785 68.7892246142189 
! Gamma         0                0                0                0                
! Port Impedance         50               0                50               0                
96.8                           0.137969371555833 73.1310214728132 0.965470359498668 166.33156672614  0.965470359498671 166.331566726139 0.13883969281831 68.6562053606588 
! Gamma         0                0                0                0                
! Port Impedance         50               0                50               0                
96.9                           0.139736289041217 72.9499492744184 0.965206833897048 166.110679793875 0.965206833897051 166.110679793875 0.140597132558535 68.5210371735081 
! Gamma         0                0                0                0                
! Port Impedance         50               0                50               0                
97                             0.14150004418528 72.7680235410962 0.964940717660437 165.889911337681 0.96494071766044 165.889911337681 0.14235165322033 68.3838089975369 
! Gamma         0                0                0                0                
! Port Impedance         50               0                50               0                
97.1                           0.143260601302696 72.5852833240895 0.964672031441873 165.669262534911 0.964672031441876 165.669262534911 0.144103209734112 68.2446053259219 
! Gamma         0                0                0                0                
! Port Impedance         50               0                50               0                
97.2                           0.145017925069358 72.4017657425818 0.964400796057977 165.448734552326 0.964400796057979 165.448734552326 0.145851757860339 68.1035064769595 
! Gamma         0                0                0                0                
! Port Impedance         50               0                50               0                
97.3                           0.146771980516657 72.2175061043401 0.964127032486264 165.228328546012 0.964127032486267 165.228328546012 0.14759725415479 67.9605888504251 
! Gamma         0                0                0                0                
! Port Impedance         50               0                50               0                
97.4                           0.148522733026234 72.03253801739   0.963850761862454 165.008045661303 0.963850761862456 165.008045661303 0.149339655936489 67.8159251652933 
! Gamma         0                0                0                0                
! Port Impedance         50               0                50               0                
97.5                           0.150270148325189 71.8468934934852 0.963572005477757 164.787887032712 0.96357200547776 164.787887032711 0.151078921258045 67.6695846803719 
! Gamma         0                0                0                0                
! Port Impedance         50               0                50               0                
97.6                           0.152014192481691 71.660603044066  0.963290784776173 164.56785378385  0.963290784776176 164.56785378385  0.152815008878124 67.5216333992688 
! Gamma         0                0                0                0                
! Port Impedance         50               0                50               0                
97.7                           0.153754831901022 71.4736957693336 0.963007121351766 164.34794702736  0.963007121351768 164.34794702736  0.154547878235951 67.372134260962  
! Gamma         0                0                0                0                
! Port Impedance         50               0                50               0                
97.8                           0.155492033321873 71.2861994410149 0.962721036945941 164.128167864843 0.962721036945943 164.128167864843 0.156277489427664 67.2211473171372 
! Gamma         0                0                0                0                
! Port Impedance         50               0                50               0                
97.9                           0.157225763813006 71.0981405793272 0.962432553444718 163.908517386791 0.96243255344472 163.908517386791 0.158003803184306 67.0687298973511 
! Gamma         0                0                0                0                
! Port Impedance         50               0                50               0                
98                             0.158955990770195 70.9095445246095 0.962141692875998 163.688996672518 0.962141692876   163.688996672518 0.15972678085141 66.9149367629781 
! Gamma         0                0                0                0                
! Port Impedance         50               0                50               0                
98.1                           0.160682681913396 70.7204355040543 0.961848477406821 163.469606790098 0.961848477406823 163.469606790098 0.161446384369992 66.7598202508165 
! Gamma         0                0                0                0                
! Port Impedance         50               0                50               0                
98.2                           0.162405805284147 70.5308366939198 0.961552929340629 163.250348796296 0.96155292934063 163.250348796296 0.16316257625883 66.603430407156  
! Gamma         0                0                0                0                
! Port Impedance         50               0                50               0                
98.3                           0.164125329243217 70.3407702775745 0.96125507111452 163.031223736508 0.961255071114521 163.031223736508 0.164875319597983 66.4458151130314 
! Gamma         0                0                0                0                
! Port Impedance         50               0                50               0                
98.4                           0.165841222468401 70.1502574997023 0.960954925296504 162.812232644702 0.960954925296505 162.812232644702 0.166584578013397 66.2870202013311 
! Gamma         0                0                0                0                
! Port Impedance         50               0                50               0                
98.5                           0.167553453952506 69.9593187169546 0.960652514582753 162.593376543355 0.960652514582754 162.593376543355 0.168290315662526 66.1270895663715 
! Gamma         0                0                0                0                
! Port Impedance         50               0                50               0                
98.6                           0.169261993001469 69.7679734453242 0.960347861794857 162.374656443397 0.960347861794858 162.374656443397 0.169992497220932 65.9660652664895 
! Gamma         0                0                0                0                
! Port Impedance         50               0                50               0                
98.7                           0.170966809232671 69.576240404477  0.960040989877072 162.156073344155 0.960040989877073 162.156073344155 0.171691087869705 65.8039876201743 
! Gamma         0                0                0                0                
! Port Impedance         50               0                50               0                
98.8                           0.172667872573328 69.3841375592757 0.959731921893574 161.937628233298 0.959731921893575 161.937628233298 0.173386053283745 65.6408952961952 
! Gamma         0                0                0                0                
! Port Impedance         50               0                50               0                
98.9                           0.174365153258983 69.1916821586991 0.959420681025716 161.719322086783 0.959420681025717 161.719322086783 0.175077359620731 65.4768253981697 
! Gamma         0                0                0                0                
! Port Impedance         50               0                50               0                
99                             0.176058621832181 68.9988907723375 0.959107290569276 161.501155868805 0.959107290569277 161.501155868805 0.176764973510801 65.3118135439587 
! Gamma         0                0                0                0                
! Port Impedance         50               0                50               0                
99.1                           0.177748249141139 68.8057793246516 0.958791773931721 161.283130531746 0.958791773931722 161.283130531746 0.178448862046887 65.1458939402535 
! Gamma         0                0                0                0                
! Port Impedance         50               0                50               0                
99.2                           0.179434006338565 68.6123631271413 0.958474154629464 161.065247016127 0.958474154629465 161.065247016127 0.180128992775598 64.9790994526955 
! Gamma         0                0                0                0                
! Port Impedance         50               0                50               0                
99.3                           0.181115864880541 68.4186569085772 0.95815445628513 160.847506250559 0.958154456285131 160.847506250559 0.181805333688678 64.8114616718313 
! Gamma         0                0                0                0                
! Port Impedance         50               0                50               0                
99.4                           0.182793796525448 68.2246748434311 0.957832702624823 160.629909151703 0.957832702624824 160.629909151703 0.183477853214958 64.6430109751912 
! Gamma         0                0                0                0                
! Port Impedance         50               0                50               0                
99.5                           0.184467773332972 68.0304305786259 0.9575089174754  160.412456624218 0.957508917475401 160.412456624218 0.185146520212767 64.4737765857543 
! Gamma         0                0                0                0                
! Port Impedance         50               0                50               0                
99.6                           0.186137767663155 67.8359372587198 0.957183124761748 160.195149560727 0.957183124761748 160.195149560727 0.186811303962786 64.3037866270394 
! Gamma         0                0                0                0                
! Port Impedance         50               0                50               0                
99.7                           0.187803752175495 67.6412075496339 0.956855348504069 159.977988841771 0.956855348504069 159.977988841771 0.188472174161298 64.133068175051  
! Gamma         0                0                0                0                
! Port Impedance         50               0                50               0                
99.8                           0.189465699828093 67.4462536610165 0.956525612815168 159.760975335771 0.956525612815167 159.760975335771 0.190129100913811 63.9616473072836 
! Gamma         0                0                0                0                
! Port Impedance         50               0                50               0                
99.9                           0.191123583876809 67.2510873673399 0.956193941897753 159.544109898989 0.956193941897753 159.544109898989 0.191782054729039 63.7895491489757 
! Gamma         0                0                0                0                
! Port Impedance         50               0                50               0                
100                            0.192777377874484 67.0557200278054 0.95586036004174 159.327393375496 0.955860360041739 159.327393375496 0.193431006513173 63.6167979167993 
! Gamma         0                0                -0               -0               
! Port Impedance         50               0                50               0                
