! Touchstone file exported from HFSS 2026.1.0
!        File:           C:/ffzhzh/LocalFiles/Ansys_Project_Files/temp_train_BSMRDL_333_1783011046_53980.aedt
!        Generated:      12:52:21 AM Jul  3, 2026
!        Design:         BSMRDL
!        Project:        temp_train_BSMRDL_333_1783011046_53980
!
! Variables:
!        h_bsmrdl = 2.89um
!        h_ox = 20um
!        h_rdl = 5um
!        h_sub = 80um
!        h_tmrdl = 5um
!        h_tsv = 80um
!        h_via = 3um
!        l_bsmrdl = 846.11um
!        l_sub = 1246.11um
!        l_tmrdl = 200um
!        m_sub = 200um
!        pitch = 55.04um
!        r_tsv = 6um
!        s_tmrdl = 10um
!        w_bsmrdl = 10.48um
!        w_sub = 500um
!        w_tmrdl = 12um
!        x_tsv_center1 = 206um
!        x_tsv_center2 = 1062.59um
!        x_tsv_center3 = 1274.59um
!        x_tsv_center4 = 2131.18um
!        x_tsv_center5 = 2343.18um
!        x_tsv_center6 = 3199.77um
!
# GHz S MA R 50.000000
! Terminal data exported
! Port[1] = BSM_RDL1_1_T1
! Port[2] = BSM_RDL1_1_T2
0.1                            0.0111558344809605 28.6505615994574 0.990233113739477 -0.401612945252442 0.990233113739479 -0.401612945252441 0.0111558599567643 28.6502737775192 
! Gamma         0                0                0                0                
! Port Impedance         50               0                50               0                
0.2                            0.014609224996609 46.974548838793  0.990123416871551 -0.802307047464393 0.990123416871553 -0.802307047464398 0.0146092974036277 46.9737612976384 
! Gamma         0                0                0                0                
! Port Impedance         50               0                50               0                
0.3                            0.0189870078527605 57.3121701211157 0.989951266283755 -1.20137721177886 0.989951266283757 -1.20137721177888 0.0189871176356079 57.3108358427133 
! Gamma         0                0                0                0                
! Port Impedance         50               0                50               0                
0.4                            0.0237542115496788 63.4038039521799 0.989728971933298 -1.59844681872979 0.9897289719333  -1.59844681872983 0.0237543468666757 63.4019537086654 
! Gamma         0                0                0                0                
! Port Impedance         50               0                50               0                
0.5                            0.028692970600169 67.2468873631422 0.989468498742722 -1.99345595090791 0.989468498742724 -1.99345595090797 0.028693127654581 67.2445566810451 
! Gamma         0                0                0                0                
! Port Impedance         50               0                50               0                
0.6                            0.0337105975400251 69.8155553121994 0.989179422561771 -2.38656760481148 0.989179422561773 -2.38656760481157 0.0337107821495144 69.8127666659506 
! Gamma         0                0                0                0                
! Port Impedance         50               0                50               0                
0.7                            0.038765393363732 71.6088621344041 0.988868262602141 -2.77805624736495 0.988868262602143 -2.77805624736507 0.0387656187819509 71.6056240064071 
! Gamma         0                0                0                0                
! Port Impedance         50               0                50               0                
0.8                            0.0438379408011227 72.9001636536702 0.98853876690991 -3.16822050038588 0.988538766909912 -3.16822050038602 0.0438382244027566 72.8964741604141 
! Gamma         0                0                0                0                
! Port Impedance         50               0                50               0                
0.9                            0.0489189833241439 73.8488152823276 0.98819260213624 -3.55733158103663 0.988192602136241 -3.55733158103679 0.048919343653419 73.8446663586023 
! Gamma         0                0                0                0                
! Port Impedance         50               0                50               0                
1                              0.0540039548844392 74.5529706275404 0.987830070914537 -3.945611270399  0.987830070914538 -3.94561127039917 0.0540044096364932 74.5483513755452 
! Gamma         0                0                0                0                
! Port Impedance         50               0                50               0                
1.1                            0.0590904300021332 75.0760854144313 0.987450687949523 -4.33322829584643 0.987450687949523 -4.3332282958466 0.0590909949277109 75.070984333956  
! Gamma         0                0                0                0                
! Port Impedance         50               0                50               0                
1.2                            0.0641769291729905 75.4609667705219 0.987053581017246 -4.72030380313652 0.987053581017247 -4.72030380313669 0.0641776176668342 75.4553730376695 
! Gamma         0                0                0                0                
! Port Impedance         50               0                50               0                
1.3                            0.0692623681788453 75.7375871950425 0.986637743306445 -5.10692001547935 0.986637743306445 -5.10692001547952 0.0692631912898523 75.7314912724428 
! Gamma         0                0                0                0                
! Port Impedance         50               0                50               0                
1.4                            0.0743458136531313 75.9276215533827 0.986202178666858 -5.49312900682067 0.986202178666857 -5.49312900682084 0.0743467803133434 75.9210153860202 
! Gamma         0                0                0                0                
! Port Impedance         50               0                50               0                
1.5                            0.0794263820645536 76.0471866130714 0.985745976927729 -5.87896029992997 0.985745976927728 -5.87896029993013 0.0794274994048939 76.040063594364  
! Gamma         0                0                0                0                
! Port Impedance         50               0                50               0                
1.6                            0.0845032036929601 76.1085559185642 0.985268346710174 -6.26442694756991 0.985268346710173 -6.26442694757007 0.0845044773701624 76.1009107456621 
! Gamma         0                0                0                0                
! Port Impedance         50               0                50               0                
1.7                            0.0895754143446933 76.1212694662205 0.984768624014116 -6.64953018401561 0.984768624014115 -6.64953018401575 0.0895768488417063 76.11309795465   
! Gamma         0                0                0                0                
! Port Impedance         50               0                50               0                
1.8                            0.0946421575806216 76.0928739326106 0.984246267989522 -7.03426288592916 0.984246267989521 -7.0342628859293 0.094643756465395 76.0841728281946 
! Gamma         0                0                0                0                
! Port Impedance         50               0                50               0                
1.9                            0.0997025898545646 76.0294303112762 0.983700850661785 -7.41861210292508 0.983700850661783 -7.41861210292521 0.0997043559944152 76.020197117683  
! Gamma         0                0                0                0                
! Port Impedance         50               0                50               0                
2                              0.104755885487203 75.9358708509062 0.98313204444196 -7.80256088746324 0.983132044441958 -7.80256088746335 0.104757821221922 75.9261036800137 
! Gamma         0                0                0                0                
! Port Impedance         50               0                50               0                
2.1                            0.109801240455335 75.8162557223447 0.982539609471598 -8.18608960862379 0.982539609471596 -8.18608960862389 0.109803347734572 75.8059531686707 
! Gamma         0                0                0                0                
! Port Impedance         50               0                50               0                
2.2                            0.114837874851877 75.6739613153967 0.981923381811155 -8.5691768908698 0.981923381811153 -8.56917689086989 0.114840155342826 75.6631223529663 
! Gamma         0                0                0                0                
! Port Impedance         50               0                50               0                
2.3                            0.119865034200337 75.5118208636542 0.981283262894079 -8.95180028259194 0.981283262894077 -8.95180028259202 0.119867489371377 75.5004447625014 
! Gamma         0                0                0                0                
! Port Impedance         50               0                50               0                
2.4                            0.124881989893322 75.3322311476772 0.980619210351783 -9.33393673090994 0.980619210351781 -9.33393673091001 0.124884621078473 75.3203174069025 
! Gamma         0                0                0                0                
! Port Impedance         50               0                50               0                
2.5                            0.129888039011816 75.1372346132493 0.979931230154201 -9.71556291795184 0.979931230154198 -9.7155629179519 0.129890847460095 75.1247829077192 
! Gamma         0                0                0                0                
! Port Impedance         50               0                50               0                
2.6                            0.134882503736205 74.9285833736241 0.979219369938192 -10.096655498239 0.97921936993819 -10.0966554982391 0.134885490649156 74.9155935117407 
! Gamma         0                0                0                0                
! Port Impedance         50               0                50               0                
2.7                            0.139864730509469 74.7077896613909 0.978483713371677 -10.4771912655202 0.978483713371675 -10.4771912655202 0.139867897069488 74.6942615517578 
! Gamma         0                0                0                0                
! Port Impedance         50               0                50               0                
2.8                            0.144834089068447 74.4761660072357 0.977724375401767 -10.8571472692947 0.977724375401765 -10.8571472692947 0.144837436459967 74.4620996324234 
! Gamma         0                0                0                0                
! Port Impedance         50               0                50               0                
2.9                            0.149789971423487 74.2348575346393 0.976941498247348 -11.2365008954757 0.976941498247346 -11.2365008954757 0.14979350084863 74.2202529305936 
! Gamma         0                0                0                0                
! Port Impedance         50               0                50               0                
3                              0.154731790839919 73.9848681367161 0.976135248013382 -11.6152299215111 0.97613524801338 -11.6152299215111 0.15473550352988 73.9697253766379 
! Gamma         0                0                0                0                
! Port Impedance         50               0                50               0                
3.1                            0.159658980855204 73.7270818577793 0.97530581182177 -11.9933125533363 0.975305811821768 -11.9933125533363 0.159662878078336 73.711401039541  
! Gamma         0                0                0                0                
! Port Impedance         50               0                50               0                
3.2                            0.164570994351738 73.4622804816733 0.974453395370276 -12.3707274494313 0.974453395370274 -12.3707274494313 0.164575077419095 73.4460617180301 
! Gamma         0                0                0                0                
! Port Impedance         50               0                50               0                
3.3                            0.169467302695713 73.1911580942262 0.973578220845747 -12.7474537357538 0.973578220845745 -12.7474537357538 0.169471572964643 73.1744015052339 
! Gamma         0                0                0                0                
! Port Impedance         50               0                50               0                
3.4                            0.174347394946008 72.914333213235  0.972680525130647 -13.1234710142474 0.972680525130645 -13.1234710142474 0.17435185382225 72.8970389204099 
! Gamma         0                0                0                0                
! Port Impedance         50               0                50               0                
3.5                            0.179210777132885 72.6323589490428 0.971760558252648 -13.4987593668553 0.971760558252647 -13.4987593668553 0.179215426071512 72.6145270708948 
! Gamma         0                0                0                0                
! Port Impedance         50               0                50               0                
3.6                            0.184056971603619 72.345731560056  0.970818582036024 -13.8732993564165 0.970818582036022 -13.8732993564165 0.184061812109122 72.3273622087057 
! Gamma         0                0                0                0                
! Port Impedance         50               0                50               0                
3.7                            0.188885516430687 72.0548976920957 0.969854868920957 -14.2470720254283 0.969854868920954 -14.2470720254283 0.188890550056392 72.0359909707458 
! Gamma         0                0                0                0                
! Port Impedance         50               0                50               0                
3.8                            0.193695964877334 71.7602605322848 0.968869700922989 -14.6200588933708 0.968869700922986 -14.6200588933708 0.193701193224326 71.7408165333629 
! Gamma         0                0                0                0                
! Port Impedance         50               0                50               0                
3.9                            0.198487884915004 71.4621850629277 0.967863368709821 -14.9922419530858 0.967863368709819 -14.9922419530858 0.198493309630693 71.4422038667577 
! Gamma         0                0                0                0                
! Port Impedance         50               0                50               0                
4                              0.203260858787199 71.1610025653925 0.96683617077672 -15.363603666555 0.966836170776718 -15.363603666555 0.203266481563613 71.1404842392809 
! Gamma         0                0                0                0                
! Port Impedance         50               0                50               0                
4.1                            0.208014482614463 70.8570144960425 0.965788412705134 -15.7341269603161 0.965788412705132 -15.7341269603161 0.208020305186356 70.8359590936885 
! Gamma         0                0                0                0                
! Port Impedance         50               0                50               0                
4.2                            0.212748366035593 70.5504958340503 0.964720406491842 -16.1037952206789 0.96472040649184 -16.1037952206788 0.212754390178431 70.5289033952083 
! Gamma         0                0                0                0                
! Port Impedance         50               0                50               0                
4.3                            0.217462131880512 70.2416979831791 0.963632469938147 -16.4725922888504 0.963632469938145 -16.4725922888503 0.217468359408372 70.2195685335172 
! Gamma         0                0                0                0                
! Port Impedance         50               0                50               0                
4.4                            0.222155415870679 69.9308512953494 0.96252492609047 -16.8405024560396 0.962524926090468 -16.8405024560395 0.222161848634109 69.9081848464578 
! Gamma         0                0                0                0                
! Port Impedance         50               0                50               0                
4.5                            0.226827866343324 69.6181672722774 0.961398102725178 -17.2075104585834 0.961398102725177 -17.2075104585833 0.226834506227179 69.5949638217923 
! Gamma         0                0                0                0                
! Port Impedance         50               0                50               0                
4.6                            0.231479143996167 69.3038404921046 0.96025233187168 -17.5736014731184 0.960252331871679 -17.5736014731183 0.231485992917461 69.2801000239175 
! Gamma         0                0                0                0                
! Port Impedance         50               0                50               0                
4.7                            0.236108921649699 68.9880503002906 0.95908794936885 -17.9387611118096 0.959087949368848 -17.9387611118095 0.236115981555471 68.9637727848222 
! Gamma         0                0                0                0                
! Port Impedance         50               0                50               0                
4.8                            0.240716884024406 68.6709622977681 0.957905294450639 -18.3029754176376 0.957905294450638 -18.3029754176375 0.240724156889622 68.6461476922869 
! Gamma         0                0                0                0                
! Port Impedance         50               0                50               0                
4.9                            0.245302727530659 68.352729654192  0.95670470935744 -18.6662308597417 0.956704709357438 -18.6662308597417 0.245310215356153 68.3273779031661 
! Gamma         0                0                0                0                
! Port Impedance         50               0                50               0                
5                              0.249866160069261 68.0334942698421 0.95548653897029 -19.028514328811 0.955486538970289 -19.028514328811 0.249873864879731 68.0076053053104 
! Gamma         0                0                0                0                
! Port Impedance         50               0                50               0                
5.1                            0.254406900840931 67.7133878061849 0.954251130465508 -19.3898131325153 0.954251130465506 -19.3898131325153 0.254414824682984 67.6869615481411 
! Gamma         0                0                0                0                
! Port Impedance         50               0                50               0                
5.2                            0.258924680163182 67.392532602144  0.952998832987695 -19.750114990966 0.952998832987693 -19.750114990966 0.25893282510344 67.3655689589254 
! Gamma         0                0                0                0                
! Port Impedance         50               0                50               0                
5.3                            0.26341923929332 67.0710424906497 0.9517299973394  -20.109408032197 0.951729997339399 -20.109408032197 0.263427607416581 67.0435413593257 
! Gamma         0                0                0                0                
! Port Impedance         50               0                50               0                
5.4                            0.267890330256411 66.7490235279578 0.950444975685963 -20.4676807876558 0.950444975685962 -20.4676807876558 0.26789892366387 66.7209847947151 
! Gamma         0                0                0                0                
! Port Impedance         50               0                50               0                
5.5                            0.272337715677262 66.4265746464797 0.949144121274306 -20.8249221876971 0.949144121274305 -20.824922187697 0.272346536484796 66.3979981869995 
! Gamma         0                0                0                0                
! Port Impedance         50               0                50               0                
5.6                            0.276761168615608 66.1037882403788 0.947827788164607 -21.1811215570692 0.947827788164606 -21.1811215570691 0.276770218952115 66.0746739202046 
! Gamma         0                0                0                0                
! Port Impedance         50               0                50               0                
5.7                            0.281160472403772 65.7807506919377 0.946496330973958 -21.536268610388 0.946496330973957 -21.536268610388 0.281169754409574 65.7510983668327 
! Gamma         0                0                0                0                
! Port Impedance         50               0                50               0                
5.8                            0.285535420486252 65.4575428456314 0.945150104631219 -21.8903534475913 0.945150104631218 -21.8903534475912 0.285544936311549 65.427352361923  
! Gamma         0                0                0                0                
! Port Impedance         50               0                50               0                
5.9                            0.289885816260713 65.13424043593   0.943789464142398 -22.2433665493687 0.943789464142397 -22.2433665493687 0.289895568064097 65.1035116308411 
! Gamma         0                0                0                0                
! Port Impedance         50               0                50               0                
6                              0.294211472919987 64.8109144740773 0.942414764365982 -22.5952987725637 0.942414764365981 -22.5952987725637 0.294221462867015 64.7796471760449 
! Gamma         0                0                0                0                
! Port Impedance         50               0                50               0                
6.1                            0.298512213294757 64.4876315984248 0.9410263597977  -22.9461413455432 0.941026359797699 -22.9461413455432 0.298522443556565 64.455825627404  
! Gamma         0                0                0                0                
! Port Impedance         50               0                50               0                
6.2                            0.302787869696642 64.1644543923245 0.939624604364283 -23.2958858635341 0.939624604364282 -23.2958858635341 0.30279834244862 64.1321095600798 
! Gamma         0                0                0                0                
! Port Impedance         50               0                50               0                
6.3                            0.307038283761482 63.8414416730929 0.938209851225816 -23.6445242839233 0.938209851225815 -23.6445242839233 0.307049001181993 63.8085577834749 
! Gamma         0                0                0                0                
! Port Impedance         50               0                50               0                
6.4                            0.311263306292652 63.5186487551274 0.936782452586352 -23.992048921522 0.936782452586351 -23.992048921522 0.311274270561802 63.4852256043372 
! Gamma         0                0                0                0                
! Port Impedance         50               0                50               0                
6.5                            0.315462797104295 63.1961276898914 0.935342759512458 -24.3384524437925 0.935342759512457 -24.3384524437925 0.31547401040274 63.1621650667311 
! Gamma         0                0                0                0                
! Port Impedance         50               0                50               0                
6.6                            0.319636624864375 62.8739274851598 0.933891121759422 -24.6837278660383 0.933891121759421 -24.6837278660383 0.319648089372182 62.839425171271  
! Gamma         0                0                0                0                
! Port Impedance         50               0                50               0                
6.7                            0.323784666937513 62.552094305639  0.932427887604868 -25.0278685465588 0.932427887604867 -25.0278685465587 0.323796384833054 62.5170520757294 
! Gamma         0                0                0                0                
! Port Impedance         50               0                50               0                
6.8                            0.327906809227569 62.2306716568346 0.930953403689543 -25.370868181768 0.930953403689542 -25.370868181768 0.327918782686459 62.1950892788924 
! Gamma         0                0                0                0                
! Port Impedance         50               0                50               0                
6.9                            0.332002946019974 61.9097005538239 0.929468014865061 -25.7127208012811 0.92946801486506 -25.7127208012811 0.332015177214043 61.8735777893213 
! Gamma         0                0                0                0                
! Port Impedance         50               0                50               0                
7                              0.336072979823826 61.5892196764078 0.927972064048411 -26.0534207629682 0.92797206404841 -26.0534207629682 0.336085470920131 61.5525562804938 
! Gamma         0                0                0                0                
! Port Impedance         50               0                50               0                
7.1                            0.340116821213788 61.269265511953  0.926465892083041 -26.3929627479793 0.926465892083041 -26.3929627479793 0.340129574373657 61.2320612336365 
! Gamma         0                0                0                0                
! Port Impedance         50               0                50               0                
7.2                            0.344134388671831 60.9498724870934 0.92494983760634 -26.7313417557409 0.924949837606339 -26.7313417557409 0.34414740604994 60.912127069416  
! Gamma         0                0                0                0                
! Port Impedance         50               0                50               0                
7.3                            0.348125608428883 60.6310730893312 0.923424236923354 -27.068553098929 0.923424236923353 -27.068553098929 0.348138892172366 60.5927862695318 
! Gamma         0                0                0                0                
! Port Impedance         50               0                50               0                
7.4                            0.352090414306454 60.3128979794725 0.921889423886588 -27.4045923984185 0.921889423886587 -27.4045923984185 0.35210396655404 60.2740694891422 
! Gamma         0                0                0                0                
! Port Impedance         50               0                50               0                
7.5                            0.356028747558314 59.9953760957288 0.920345729781726 -27.7394555782139 0.920345729781726 -27.7394555782139 0.356042570439497 59.9560056609585 
! Gamma         0                0                0                0                
! Port Impedance         50               0                50               0                
7.6                            0.359940556712299 59.6785347502341 0.918793483219137 -28.0731388603624 0.918793483219136 -28.0731388603625 0.359954652346529 59.6386220917544 
! Gamma         0                0                0                0                
! Port Impedance         50               0                50               0                
7.7                            0.363825797412337 59.3623997186485 0.917233010031014 -28.4056387598541 0.917233010031013 -28.4056387598541 0.363840167908245 59.3219445519616 
! Gamma         0                0                0                0                
! Port Impedance         50               0                50               0                
7.8                            0.367684432260787 59.046995323451  0.915664633174027 -28.7369520795099 0.915664633174026 -28.7369520795099 0.367699079715428 59.0059973589569 
! Gamma         0                0                0                0                
! Port Impedance         50               0                50               0                
7.9                            0.371516430661173 58.7323445114659 0.91408867263733 -29.0670759048626 0.914088672637329 -29.0670759048626 0.371531357159297 58.6908034545813 
! Gamma         0                0                0                0                
! Port Impedance         50               0                50               0                
8                              0.375321768661409 58.4184689261125 0.912505445355819 -29.3960075990322 0.912505445355818 -29.3960075990323 0.375336976274757 58.3763844773843 
! Gamma         0                0                0                0                
! Port Impedance         50               0                50               0                
8.1                            0.379100428797614 58.1053889748187 0.910915265128485 -29.7237447975993 0.910915265128483 -29.7237447975994 0.379115919584231 58.0627608300315 
! Gamma         0                0                0                0                
! Port Impedance         50               0                50               0                
8.2                            0.382852399938606 57.793123892     0.90931844254176 -30.0502854034792 0.909318442541759 -30.0502854034793 0.382868175942177 57.7499517422784 
! Gamma         0                0                0                0                
! Port Impedance         50               0                50               0                
8.3                            0.386577677131155 57.4816917979636 0.907715284897714 -30.3756275818002 0.907715284897713 -30.3756275818002 0.386593740380365 57.4379753298696 
! Gamma         0                0                0                0                
! Port Impedance         50               0                50               0                
8.4                            0.390276261446104 57.1711097540657 0.906106096146984 -30.6997697547878 0.906106096146983 -30.6997697547879 0.390292613954019 57.1268486496918 
! Gamma         0                0                0                0                
! Port Impedance         50               0                50               0                
8.5                            0.393948159825439 56.8613938144194 0.904491176826318 -31.0227105966597 0.904491176826317 -31.0227105966597 0.393964803588897 56.8165877514766 
! Gamma         0                0                0                0                
! Port Impedance         50               0                50               0                
8.6                            0.39759338493038 56.5525590744221 0.902870824000613 -31.3444490285314 0.902870824000612 -31.3444490285315 0.397610321929414 56.5072077263244 
! Gamma         0                0                0                0                
! Port Impedance         50               0                50               0                
8.7                            0.401211954990598 56.2446197163479 0.901245331209315 -31.6649842133388 0.901245331209314 -31.6649842133388 0.401229187187869 56.198722752293  
! Gamma         0                0                0                0                
! Port Impedance         50               0                50               0                
8.8                            0.404803893654626 55.937589052228  0.899614988417086 -31.9843155507765 0.899614988417085 -31.9843155507766 0.404821422994872 55.8911461372742 
! Gamma         0                0                0                0                
! Port Impedance         50               0                50               0                
8.9                            0.408369229841531 55.6314795642231 0.897980081968594 -32.3024426722587 0.897980081968593 -32.3024426722587 0.408387058251047 55.584490359363  
! Gamma         0                0                0                0                
! Port Impedance         50               0                50               0                
9                              0.411907997593948 55.3263029426718 0.896340894547339 -32.6193654359008 0.896340894547338 -32.6193654359008 0.411926126980067 55.2787671049029 
! Gamma         0                0                0                0                
! Port Impedance         50               0                50               0                
9.1                            0.415420235932515 55.0220701219861 0.894697705138372 -32.9350839215282 0.894697705138371 -32.9350839215283 0.415438668183116 54.9739873043784 
! Gamma         0                0                0                0                
! Port Impedance         50               0                50               0                
9.2                            0.418905988711794 54.7187913145473 0.893050788994815 -33.2495984257119 0.893050788994814 -33.2495984257119 0.418924725694826 54.6701611663081 
! Gamma         0                0                0                0                
! Port Impedance         50               0                50               0                
9.3                            0.422365304477742 54.4164760427449 0.891400417608057 -33.5629094568342 0.891400417608056 -33.5629094568343 0.422384348040761 54.3672982092815 
! Gamma         0                0                0                0                
! Port Impedance         50               0                50               0                
9.4                            0.425798236326775 54.1151331692879 0.88974685868152 -33.8750177301877 0.889746858681518 -33.8750177301877 0.425817588296502 54.0654072922672 
! Gamma         0                0                0                0                
! Port Impedance         50               0                50               0                
9.5                            0.4292048417665  53.8147709259078 0.88809037610788 -34.1859241631072 0.888090376107879 -34.1859241631073 0.42922450394839 53.7644966433141 
! Gamma         0                0                0                0                
! Port Impedance         50               0                50               0                
9.6                            0.432585182578152 53.5153969405617 0.886431229949642 -34.4956298701399 0.886431229949641 -34.49562987014  0.432605156755983 53.4645738867522 
! Gamma         0                0                0                0                
! Port Impedance         50               0                50               0                
9.7                            0.43593932468079 53.217018263237  0.884769676422949 -34.8041361582528 0.884769676422948 -34.8041361582529 0.43595961261627 53.1656460689956 
! Gamma         0                0                0                0                
! Port Impedance         50               0                50               0                
9.8                            0.4392673379973  52.9196413904493 0.88310596788453 -35.1114445220817 0.883105967884528 -35.1114445220817 0.439287941429685 52.8677196830381 
! Gamma         0                0                0                0                
! Port Impedance         50               0                50               0                
9.9                            0.442569296322241 52.623272288519  0.881440352821667 -35.4175566392212 0.881440352821666 -35.4175566392213 0.442590216967971 52.5708006917281 
! Gamma         0                0                0                0                
! Port Impedance         50               0                50               0                
10                             0.445845277191571 52.3279164157035 0.879773075845099 -35.7224743655604 0.879773075845097 -35.7224743655604 0.445866516743923 52.2748945498993 
! Gamma         0                0                0                0                
! Port Impedance         50               0                50               0                
10.1                           0.449095361754288 52.0335787432598 0.878104377684731 -36.0261997306626 0.87810437768473 -36.0261997306627 0.449116921883046 51.9800062254317 
! Gamma         0                0                0                0                
! Port Impedance         50               0                50               0                
10.2                           0.452319634646025 51.7402637755017 0.876434495188075 -36.3287349331938 0.876434495188073 -36.3287349331939 0.452341516997161 51.6861402193069 
! Gamma         0                0                0                0                
! Port Impedance         50               0                50               0                
10.3                           0.45551818386461 51.4479755689145 0.874763661321298 -36.6300823363986 0.874763661321296 -36.6300823363987 0.455540390059985 51.393300584722  
! Gamma         0                0                0                0                
! Port Impedance         50               0                50               0                
10.4                           0.458691100647634 51.1567177503844 0.873092105172796 -36.9302444636275 0.873092105172795 -36.9302444636276 0.458713632284715 51.1014909453169 
! Gamma         0                0                0                0                
! Port Impedance         50               0                50               0                
10.5                           0.461838479352032 50.8664935345947 0.871420051959192 -37.2292239939147 0.871420051959191 -37.2292239939148 0.461861338003623 50.8107145125696 
! Gamma         0                0                0                0                
! Port Impedance         50               0                50               0                
10.6                           0.464960417335706 50.5773057406377 0.869747723033652 -37.5270237576094 0.86974772303365 -37.5270237576095 0.464983604549693 50.520974102407  
! Gamma         0                0                0                0                
! Port Impedance         50               0                50               0                
10.7                           0.468057014841203 50.2891568078892 0.868075335896438 -37.8236467320605 0.868075335896437 -37.8236467320606 0.468080532140322 50.2322721510775 
! Gamma         0                0                0                0                
! Port Impedance         50               0                50               0                
10.8                           0.47112837488146 50.0020488111855 0.866403104207607 -38.1190960373568 0.866403104207605 -38.1190960373569 0.471152223763071 49.9446107303272 
! Gamma         0                0                0                0                
! Port Impedance         50               0                50               0                
10.9                           0.474174603127622 49.7159834753433 0.864731237801743 -38.4133749321224 0.864731237801742 -38.4133749321225 0.474198785063508 49.6579915619191 
! Gamma         0                0                0                0                
! Port Impedance         50               0                50               0                
11                             0.477195807798955 49.43096218906   0.863059942704665 -38.7064868093703 0.863059942704664 -38.7064868093704 0.477220324235128 49.3724160315314 
! Gamma         0                0                0                0                
! Port Impedance         50               0                50               0                
11.1                           0.480192099554836 49.1469860182255 0.861389421151994 -38.9984351924125 0.861389421151992 -38.9984351924126 0.480216951911367 49.0878852020685 
! Gamma         0                0                0                0                
! Port Impedance         50               0                50               0                
11.2                           0.483163591388848 48.8640557186797 0.859719871609511 -39.2892237308296 0.859719871609509 -39.2892237308297 0.483188781059706 48.8043998264181 
! Gamma         0                0                0                0                
! Port Impedance         50               0                50               0                
11.3                           0.48611039852496 48.5821717484443 0.858051488795219 -39.5788561964993 0.858051488795218 -39.5788561964994 0.486135926877873 48.521960359681  
! Gamma         0                0                0                0                
! Port Impedance         50               0                50               0                
11.4                           0.489032638315812 48.301334279456  0.856384463703018 -39.867336479685 0.856384463703017 -39.8673364796851 0.489058506692134 48.2405669709037 
! Gamma         0                0                0                0                
! Port Impedance         50               0                50               0                
11.5                           0.491930430143069 48.0215432088272 0.854718983627923 -40.1546685851851 0.854718983627921 -40.1546685851852 0.491956639857675 47.960219554338  
! Gamma         0                0                0                0                
! Port Impedance         50               0                50               0                
11.6                           0.494803895319881 47.7427981696582 0.85305523219274 -40.4408566285428 0.853055232192738 -40.4408566285429 0.494830447661066 47.6809177402522 
! Gamma         0                0                0                0                
! Port Impedance         50               0                50               0                
11.7                           0.497653156995404 47.4650985414233 0.851393389376124 -40.7259048323181 0.851393389376123 -40.7259048323182 0.497680053224803 47.4026609053165 
! Gamma         0                0                0                0                
! Port Impedance         50               0                50               0                
11.8                           0.500478340061397 47.1884434599522 0.84973363154195 -41.009817522421 0.849733631541948 -41.009817522421 0.50050558141392 47.1254481825829 
! Gamma         0                0                0                0                
! Port Impedance         50               0                50               0                
11.9                           0.503279571060873 46.9128318270257 0.848076131469906 -41.2925991245074 0.848076131469904 -41.2925991245075 0.503307158744653 46.8492784710802 
! Gamma         0                0                0                0                
! Port Impedance         50               0                50               0                
12                             0.506056978098796 46.6382623196052 0.846421058387264 -41.5742541604376 0.846421058387262 -41.5742541604376 0.506084913295152 46.5741504450424 
! Gamma         0                0                0                0                
! Port Impedance         50               0                50               0                
12.1                           0.508810690754812 46.3647333987123 0.84476857800173 -41.8547872447962 0.844768578001728 -41.8547872447963 0.508838974618229 46.3000625627875 
! Gamma         0                0                0                0                
! Port Impedance         50               0                50               0                
12.2                           0.511540839997992 46.0922433179757 0.84311885253533 -42.1342030814767 0.843118852535328 -42.1342030814768 0.511569473656115 46.0270130752633 
! Gamma         0                0                0                0                
! Port Impedance         50               0                50               0                
12.3                           0.514247558103588 45.8207901318607 0.841472040759247 -42.4125064603274 0.841472040759245 -42.4125064603275 0.514276542657227 45.7550000342759 
! Gamma         0                0                0                0                
! Port Impedance         50               0                50               0                
12.4                           0.516930978571759 45.5503717035949 0.839828298029556 -42.6897022538609 0.839828298029554 -42.689702253861 0.51696031509491 45.4840213004145 
! Gamma         0                0                0                0                
! Port Impedance         50               0                50               0                
12.5                           0.519591236048268 45.2809857128048 0.838187776323793 -42.9657954140264 0.838187776323792 -42.9657954140265 0.519620925588154 45.2140745506869 
! Gamma         0                0                0                0                
! Port Impedance         50               0                50               0                
12.6                           0.522228466247136 45.0126296628754 0.836550624278294 -43.240790969045 0.836550624278293 -43.2407909690451 0.522258509824247 44.9451572858785 
! Gamma         0                0                0                0                
! Port Impedance         50               0                50               0                
12.7                           0.524842805875202 44.7453008880455 0.834916987226246 -43.5146940203072 0.834916987226244 -43.5146940203073 0.524873204483367 44.677266837646  
! Gamma         0                0                0                0                
! Port Impedance         50               0                50               0                
12.8                           0.527434392558609 44.4789965602495 0.833287007236396 -43.7875097393337 0.833287007236395 -43.7875097393338 0.527465147165066 44.4104003753588 
! Gamma         0                0                0                0                
! Port Impedance         50               0                50               0                
12.9                           0.530003364771156 44.2137136957167 0.831660823152362 -44.0592433647978 0.83166082315236 -44.0592433647979 0.530034476316641 44.144554912697  
! Gamma         0                0                0                0                
! Port Impedance         50               0                50               0                
13                             0.532549861764523 43.9494491613386 0.830038570632488 -44.3299001996107 0.830038570632487 -44.3299001996108 0.532581331163376 43.8797273140178 
! Gamma         0                0                0                0                
! Port Impedance         50               0                50               0                
13.1                           0.535074023500326 43.6861996808138 0.828420382190199 -44.5994856080676 0.828420382190198 -44.5994856080677 0.535105851640599 43.6159143004994 
! Gamma         0                0                0                0                
! Port Impedance         50               0                50               0                
13.2                           0.537575990583988 43.423961840579  0.8268063872348  -44.8680050130565 0.826806387234799 -44.8680050130566 0.537608178327574 43.3531124560711 
! Gamma         0                0                0                0                
! Port Impedance         50               0                50               0                
13.3                           0.540055904200396 43.1627320955357 0.825196712112671 -45.1354638933273 0.825196712112669 -45.1354638933274 0.540088452383167 43.0913182331389 
! Gamma         0                0                0                0                
! Port Impedance         50               0                50               0                
13.4                           0.542513906051325 42.9025067745799 0.823591480148817 -45.4018677808219 0.823591480148816 -45.401867780822 0.54254681548328 42.8305279581145 
! Gamma         0                0                0                0                
! Port Impedance         50               0                50               0                
13.5                           0.544950138294597 42.643282085944  0.821990811688724 -45.6672222580646 0.821990811688722 -45.6672222580647 0.544983409760023 42.5707378367554 
! Gamma         0                0                0                0                
! Port Impedance         50               0                50               0                
13.6                           0.547364743484951 42.3850541223559 0.820394824140474 -45.9315329556124 0.820394824140472 -45.9315329556124 0.547398377742596 42.3119439593241 
! Gamma         0                0                0                0                
! Port Impedance         50               0                50               0                
13.7                           0.549757864516606 42.1278188660249 0.818803632017087 -46.1948055495646 0.818803632017086 -46.1948055495647 0.549791862299856 42.0541423055722 
! Gamma         0                0                0                0                
! Port Impedance         50               0                50               0                
13.8                           0.552129644567468 41.8715721934598 0.817217346979041 -46.4570457591316 0.81721734697904 -46.4570457591317 0.552164006584544 41.797328749558  
! Gamma         0                0                0                0                
! Port Impedance         50               0                50               0                
13.9                           0.55448022704499 41.6163098801252 0.815636077876938 -46.7182593442612 0.815636077876937 -46.7182593442613 0.554514953979147 41.5414990643013 
! Gamma         0                0                0                0                
! Port Impedance         50               0                50               0                
14                             0.556809755533616 41.3620276049429 0.814059930794274 -46.9784521033236 0.814059930794272 -46.9784521033237 0.556844848043354 41.2866489262843 
! Gamma         0                0                0                0                
! Port Impedance         50               0                50               0                
14.1                           0.559118373743818 41.1087209546441 0.812489009090279 -47.2376298708527 0.812489009090278 -47.2376298708528 0.559153832463102 41.0327739198025 
! Gamma         0                0                0                0                
! Port Impedance         50               0                50               0                
14.2                           0.561406225462674 40.856385427977  0.810923413442801 -47.4957985153445 0.810923413442801 -47.4957985153446 0.561442051001166 40.7798695411715 
! Gamma         0                0                0                0                
! Port Impedance         50               0                50               0                
14.3                           0.563673454505978 40.605016439776  0.809363241891185 -47.7529639371113 0.809363241891184 -47.7529639371113 0.563709647449269 40.527931202795  
! Gamma         0                0                0                0                
! Port Impedance         50               0                50               0                
14.4                           0.565920204671833 40.3546093248973 0.807808589879129 -48.0091320661905 0.807808589879128 -48.0091320661906 0.565956765581691 40.2769542370995 
! Gamma         0                0                0                0                
! Port Impedance         50               0                50               0                
14.5                           0.568146619695724 40.1051593420251 0.806259550297489 -48.2643088603094 0.806259550297488 -48.2643088603094 0.568183549110348 40.0269339003397 
! Gamma         0                0                0                0                
! Port Impedance         50               0                50               0                
14.6                           0.570352843207023 39.8566616773539 0.804716213526994 -48.5185003029018 0.804716213526993 -48.5185003029018 0.5703901416413  39.7778653762794 
! Gamma         0                0                0                0                
! Port Impedance         50               0                50               0                
14.7                           0.572539018686909 39.6091114481502 0.803178667480849 -48.7717124011798 0.803178667480848 -48.7717124011799 0.572576686632683 39.5297437797526 
! Gamma         0                0                0                0                
! Port Impedance         50               0                50               0                
14.8                           0.574705289427676 39.3625037061987 0.801646997647205 -49.0239511842569 0.801646997647204 -49.023951184257 0.574743327354018 39.2825641601087 
! Gamma         0                0                0                0                
! Port Impedance         50               0                50               0                
14.9                           0.576851798493387 39.1168334411365 0.800121287131465 -49.2752227013229 0.800121287131465 -49.2752227013229 0.576890206846878 39.0363215045454 
! Gamma         0                0                0                0                
! Port Impedance         50               0                50               0                
15                             0.578978688681875 38.8720955836794 0.798601616698406 -49.52553301987  0.798601616698406 -49.5255330198701 0.579017467886889 38.7910107413341 
! Gamma         0                0                0                0                
! Port Impedance         50               0                50               0                
15.1                           0.581086102488033 38.6282850087431 0.797088064814094 -49.7748882239693 0.797088064814094 -49.7748882239694 0.581125252947026 38.5466267429408 
! Gamma         0                0                0                0                
! Port Impedance         50               0                50               0                
15.2                           0.583174182068383 38.3853965384648 0.795580707687571 -50.0232944125963 0.795580707687571 -50.0232944125964 0.583213704162189 38.3031643290456 
! Gamma         0                0                0                0                
! Port Impedance         50               0                50               0                
15.3                           0.585243069206897 38.1434249451256 0.794079619312297 -50.2707576980055 0.794079619312296 -50.2707576980055 0.585282963295029 38.0606182694652 
! Gamma         0                0                0                0                
! Port Impedance         50               0                50               0                
15.4                           0.587292905282036 37.9023649539803 0.792584871507322 -50.5172842041524 0.792584871507322 -50.5172842041524 0.587333171702987 37.818983286981  
! Gamma         0                0                0                0                
! Port Impedance         50               0                50               0                
15.5                           0.589323831234986 37.6622112459945 0.791096533958182 -50.7628800651635 0.791096533958182 -50.7628800651636 0.58936447030654 37.5782540600758 
! Gamma         0                0                0                0                
! Port Impedance         50               0                50               0                
15.6                           0.591335987539063 37.4229584604948 0.789614674257488 -51.0075514238521 0.789614674257488 -51.0075514238521 0.5913769995586  37.3384252255828 
! Gamma         0                0                0                0                
! Port Impedance         50               0                50               0                
15.7                           0.593329514170259 37.1846011977324 0.788139357945201 -51.2513044302791 0.7881393579452  -51.2513044302791 0.593370899415072 37.0994913812481 
! Gamma         0                0                0                0                
! Port Impedance         50               0                50               0                
15.8                           0.595304550578903 36.9471340213653 0.78667064854858 -51.49414524036  0.78667064854858 -51.49414524036  0.595346309306518 36.8614470882124 
! Gamma         0                0                0                0                
! Port Impedance         50               0                50               0                
15.9                           0.59726123566242 36.7105514608596 0.785208607621789 -51.7360800145146 0.78520860762179 -51.7360800145147 0.59730336811091 36.6242868734109 
! Gamma         0                0                0                0                
! Port Impedance         50               0                50               0                
16                             0.599199707739152 36.4748480138135 0.78375329478514 -51.9771149163608 0.78375329478514 -51.9771149163609 0.599242214127457 36.3880052318972 
! Gamma         0                0                0                0                
! Port Impedance         50               0                50               0                
16.1                           0.601120104523215 36.2400181482072 0.782304767763972 -52.21725611145  0.782304767763972 -52.21725611145  0.601162985051468 36.1525966290913 
! Gamma         0                0                0                0                
! Port Impedance         50               0                50               0                
16.2                           0.603022563100379 36.0060563045792 0.780863082427156 -52.4565097660445 0.780863082427156 -52.4565097660446 0.603065817950228 35.9180555029556 
! Gamma         0                0                0                0                
! Port Impedance         50               0                50               0                
16.3                           0.604907219904937 35.7729568981329 0.779428292825207 -52.6948820459363 0.779428292825207 -52.6948820459363 0.604950849239867 35.6843762661005 
! Gamma         0                0                0                0                
! Port Impedance         50               0                50               0                
16.4                           0.606774210697539 35.5407143207743 0.778000451227994 -52.9323791153046 0.778000451227994 -52.9323791153046 0.6068182146632  35.4515533078213 
! Gamma         0                0                0                0                
! Port Impedance         50               0                50               0                
16.5                           0.608623670543974 35.309322943085  0.776579608162053 -53.1690071356138 0.776579608162053 -53.1690071356139 0.608668049268505 35.2195809960705 
! Gamma         0                0                0                0                
! Port Impedance         50               0                50               0                
16.6                           0.610455733794867 35.0787771162301 0.775165812447478 -53.4047722645495 0.775165812447479 -53.4047722645495 0.610500487389221 34.9884536793642 
! Gamma         0                0                0                0                
! Port Impedance         50               0                50               0                
16.7                           0.612270534066278 34.8490711738043 0.773759111234393 -53.6396806549915 0.773759111234393 -53.6396806549916 0.612315662624545 34.7581656886282 
! Gamma         0                0                0                0                
! Port Impedance         50               0                50               0                
16.8                           0.614068204221169 34.6201994336183 0.772359550038996 -53.8737384540253 0.772359550038996 -53.8737384540254 0.614113707820901 34.528711338983  
! Gamma         0                0                0                0                
! Port Impedance         50               0                50               0                
16.9                           0.615848876351727 34.3921561994268 0.77096717277917 -54.106951801988 0.77096717277917 -54.1069518019881 0.61589475505426 34.300084931471  
! Gamma         0                0                0                0                
! Port Impedance         50               0                50               0                
17                             0.617612681762514 34.1649357625996 0.769582021809655 -54.3393268315508 0.769582021809656 -54.3393268315508 0.617658935613291 34.0722807547275 
! Gamma         0                0                0                0                
! Port Impedance         50               0                50               0                
17.1                           0.619359750954425 33.9385324037386 0.768204137956778 -54.5708696668354 0.768204137956779 -54.5708696668354 0.619406379983313 33.8452930865957 
! Gamma         0                0                0                0                
! Port Impedance         50               0                50               0                
17.2                           0.621090213609436 33.712940394241  0.76683356055273 -54.8015864225648 0.766833560552731 -54.8015864225648 0.621137217831044 33.6191161956903 
! Gamma         0                0                0                0                
! Port Impedance         50               0                50               0                
17.3                           0.622804198576106 33.4881539978114 0.765470327469402 -55.0314832032467 0.765470327469403 -55.0314832032467 0.622851577990102 33.3937443429081 
! Gamma         0                0                0                0                
! Port Impedance         50               0                50               0                
17.4                           0.624501833855836 33.2641674719241 0.76411447515176 -55.2605661023899 0.76411447515176 -55.2605661023899 0.624549588447259 33.1691717828895 
! Gamma         0                0                0                0                
! Port Impedance         50               0                50               0                
17.5                           0.626183246589844 33.0409750692361 0.762766038650766 -55.4888412017515 0.762766038650767 -55.4888412017515 0.626231376329412 32.9453927654315 
! Gamma         0                0                0                0                
! Port Impedance         50               0                50               0                
17.6                           0.627848563046846 32.8185710389542 0.761425051655845 -55.716314570616 0.761425051655845 -55.716314570616 0.627897067891264 32.7224015368531 
! Gamma         0                0                0                0                
! Port Impedance         50               0                50               0                
17.7                           0.629497908611421 32.5969496281555 0.760091546526887 -55.9429922651039 0.760091546526888 -55.9429922651039 0.629546788503684 32.5001923413158 
! Gamma         0                0                0                0                
! Port Impedance         50               0                50               0                
17.8                           0.63113140777304 32.3761050830643 0.758765554325796 -56.1688803275101 0.758765554325797 -56.1688803275101 0.631180662642736 32.2787594220994 
! Gamma         0                0                0                0                
! Port Impedance         50               0                50               0                
17.9                           0.632749184115744 32.1560316502856 0.757447104847572 -56.3939847856711 0.757447104847573 -56.3939847856712 0.632798813879345 32.0580970228349 
! Gamma         0                0                0                0                
! Port Impedance         50               0                50               0                
18                             0.634351360308446 31.9367235779974 0.756136226650936 -56.6183116523604 0.756136226650937 -56.6183116523605 0.634401364869602 31.838199388696  
! Gamma         0                0                0                0                
! Port Impedance         50               0                50               0                
18.1                           0.635938058095842 31.7181751171022 0.754832947088494 -56.8418669247111 0.754832947088495 -56.8418669247111 0.63598843734567 31.61906076755   
! Gamma         0                0                0                0                
! Port Impedance         50               0                50               0                
18.2                           0.637509398289916 31.500380522339  0.753537292336444 -57.0646565836654 0.753537292336445 -57.0646565836654 0.637560152107281 31.4006754110695 
! Gamma         0                0                0                0                
! Port Impedance         50               0                50               0                
18.3                           0.639065500762022 31.2833340533584 0.752249287423816 -57.2866865934506 0.752249287423817 -57.2866865934507 0.639116629013814 31.1830375758058 
! Gamma         0                0                0                0                
! Port Impedance         50               0                50               0                
18.4                           0.640606484435508 31.067029975759  0.750968956261267 -57.5079629010801 0.750968956261268 -57.5079629010802 0.64065798697692 30.966141524226  
! Gamma         0                0                0                0                
! Port Impedance         50               0                50               0                
18.5                           0.642132467278901 30.8514625620899 0.749696321669408 -57.7284914358793 0.749696321669409 -57.7284914358793 0.64218434395369 30.7499815257136 
! Gamma         0                0                0                0                
! Port Impedance         50               0                50               0                
18.6                           0.643643566299598 30.6366260928163 0.748431405406684 -57.9482781090358 0.748431405406685 -57.9482781090358 0.643695816940354 30.5345518575345 
! Gamma         0                0                0                0                
! Port Impedance         50               0                50               0                
18.7                           0.645139897538076 30.4225148572534 0.747174228196804 -58.1673288131734 0.747174228196805 -58.1673288131734 0.645192521966475 30.3198468057695 
! Gamma         0                0                0                0                
! Port Impedance         50               0                50               0                
18.8                           0.646621576062584 30.2091231544661 0.745924809755713 -58.3856494219487 0.745924809755714 -58.3856494219487 0.64667457408964 30.1058606662137 
! Gamma         0                0                0                0                
! Port Impedance         50               0                50               0                
18.9                           0.648088715964323 29.9964452941373 0.744683168818126 -58.6032457896706 0.744683168818127 -58.6032457896707 0.648142087390633 29.8925877452444 
! Gamma         0                0                0                0                
! Port Impedance         50               0                50               0                
19                             0.649541430353074 29.7844755974054 0.743449323163615 -58.8201237509409 0.743449323163616 -58.8201237509409 0.649595174969059 29.6800223606577 
! Gamma         0                0                0                0                
! Port Impedance         50               0                50               0                
19.1                           0.650979831353286 29.5732083976721 0.742223289642254 -59.0362891203166 0.742223289642255 -59.0362891203166 0.651033948939418 29.4681588424757 
! Gamma         0                0                0                0                
! Port Impedance         50               0                50               0                
19.2                           0.652404030100584 29.3626380413806 0.741005084199829 -59.2517476919929 0.741005084199829 -59.2517476919929 0.65245852042762 29.2569915337246 
! Gamma         0                0                0                0                
! Port Impedance         50               0                50               0                
19.3                           0.653814136738705 29.1527588887659 0.739794721902612 -59.4665052395063 0.739794721902613 -59.4665052395063 0.653868999567899 29.0465147911836 
! Gamma         0                0                0                0                
! Port Impedance         50               0                50               0                
19.4                           0.655210260416834 28.9435653145777 0.738592216961709 -59.6805675154566 0.738592216961709 -59.6805675154566 0.655265495500154 28.8367229861082 
! Gamma         0                0                0                0                
! Port Impedance         50               0                50               0                
19.5                           0.656592509287329 28.7350517087766 0.737397582756973 -59.8939402512491 0.737397582756974 -59.8939402512491 0.656648116367661 28.6276105049253 
! Gamma         0                0                0                0                
! Port Impedance         50               0                50               0                
19.6                           0.657960990503831 28.5272124772051 0.736210831860509 -60.1066291568542 0.736210831860509 -60.1066291568542 0.658016969315177 28.4191717499034 
! Gamma         0                0                0                0                
! Port Impedance         50               0                50               0                
19.7                           0.65931581021973 28.3200420422325 0.735031976059743 -60.3186399205855 0.735031976059743 -60.3186399205856 0.659372160487401 28.2114011397978 
! Gamma         0                0                0                0                
! Port Impedance         50               0                50               0                
19.8                           0.660657073586993 28.1135348433765 0.733861026380094 -60.5299782088956 0.733861026380094 -60.5299782088956 0.66071379502779 28.0042931104711 
! Gamma         0                0                0                0                
! Port Impedance         50               0                50               0                
19.9                           0.661984884755327 27.907685337901  0.732697993107227 -60.7406496661883 0.732697993107227 -60.7406496661883 0.66204197707772 27.7978421154905 
! Gamma         0                0                0                0                
! Port Impedance         50               0                50               0                
20                             0.663299346871673 27.7024880013908 0.7315428858089  -60.9506599146475 0.7315428858089  -60.9506599146475 0.663356809775966 27.5920426267023 
! Gamma         -0               -0               0                0                
! Port Impedance         50               0                50               0                
