! Touchstone file exported from HFSS 2026.1.0
!        File:           C:/ffzhzh/LocalFiles/Ansys_Project_Files/temp_train_BSMRDL_309_1783010622_51716.aedt
!        Generated:      12:44:58 AM Jul  3, 2026
!        Design:         BSMRDL
!        Project:        temp_train_BSMRDL_309_1783010622_51716
!
! Variables:
!        h_bsmrdl = 4.09um
!        h_ox = 20um
!        h_rdl = 5um
!        h_sub = 80um
!        h_tmrdl = 5um
!        h_tsv = 80um
!        h_via = 3um
!        l_bsmrdl = 889.03um
!        l_sub = 1289.03um
!        l_tmrdl = 200um
!        m_sub = 200um
!        pitch = 25.27um
!        r_tsv = 6um
!        s_tmrdl = 10um
!        w_bsmrdl = 19.06um
!        w_sub = 500um
!        w_tmrdl = 12um
!        x_tsv_center1 = 206um
!        x_tsv_center2 = 1114.09um
!        x_tsv_center3 = 1326.09um
!        x_tsv_center4 = 2234.18um
!        x_tsv_center5 = 2446.18um
!        x_tsv_center6 = 3354.27um
!
# GHz S MA R 50.000000
! Terminal data exported
! Port[1] = BSM_RDL1_1_T1
! Port[2] = BSM_RDL1_1_T2
0.1                            0.00449261798790274 18.0425297711616 0.995734514312577 -0.295243645766978 0.995734514312577 -0.295243645766981 0.004492615317274 18.0423172479804 
! Gamma         0                0                0                0                
! Port Impedance         50               0                50               0                
0.2                            0.00534305004235121 28.6936442139476 0.995325957199125 -0.577177644937179 0.995325957199125 -0.577177644937167 0.00534301838562337 28.68328196405   
! Gamma         0                0                0                0                
! Port Impedance         50               0                50               0                
0.3                            0.0062191667723627 34.2253934252948 0.994899324487611 -0.8451531255081 0.994899324487611 -0.845153125508065 0.00621814748279412 34.2094400412649 
! Gamma         0                0                0                0                
! Port Impedance         50               0                50               0                
0.4                            0.00699547604304352 37.6865344278111 0.99454993488949 -1.1048571647829 0.99454993488949 -1.10485716478285 0.00699317824726699 37.6719938446114 
! Gamma         0                0                0                0                
! Port Impedance         50               0                50               0                
0.5                            0.00768599109696756 40.402362934208  0.994284481417731 -1.36095360454893 0.994284481417731 -1.36095360454887 0.00768260547031897 40.3929289992422 
! Gamma         0                0                0                0                
! Port Impedance         50               0                50               0                
0.6                            0.00832735263264807 42.808845899995  0.994082892616524 -1.61588181715403 0.994082892616525 -1.61588181715398 0.00832320131832321 42.8055714674057 
! Gamma         0                0                0                0                
! Port Impedance         50               0                50               0                
0.7                            0.00894750765622887 45.0245779395405 0.993924679745939 -1.87069451916279 0.99392467974594 -1.87069451916274 0.00894288456626523 45.0271927565    
! Gamma         0                0                0                0                
! Port Impedance         50               0                50               0                
0.8                            0.00956336113125952 47.0717137744295 0.993794649922171 -2.12578161438893 0.993794649922172 -2.12578161438889 0.00955849121401885 47.0794393099644 
! Gamma         0                0                0                0                
! Port Impedance         50               0                50               0                
0.9                            0.0101840260778998 48.9498829759401 0.993682489958934 -2.38124756519271 0.993682489958936 -2.38124756519268 0.0101790684779844 48.9618325173714 
! Gamma         0                0                0                0                
! Port Impedance         50               0                50               0                
1                              0.0108138717764805 50.6582028194319 0.99358135716366 -2.63708228540471 0.993581357163661 -2.63708228540468 0.0108089338895867 50.6735527360703 
! Gamma         0                0                0                0                
! Port Impedance         50               0                50               0                
1.1                            0.0114545559983655 52.2001530046773 0.993486706018154 -2.89323459849142 0.993486706018155 -2.8932345984914 0.0114497074064938 52.2182021910998 
! Gamma         0                0                0                0                
! Port Impedance         50               0                50               0                
1.2                            0.0121062518850631 53.5833100969404 0.993395486594899 -3.14964281166314 0.9933954865949  -3.14964281166313 0.0121015354400313 53.6034887759154 
! Gamma         0                0                0                0                
! Port Impedance         50               0                50               0                
1.3                            0.0127683599150427 54.8179342259096 0.993305627453874 -3.40624682592747 0.993305627453875 -3.40624682592747 0.0127637998832342 54.8397920813417 
! Gamma         0                0                0                0                
! Port Impedance         50               0                50               0                
1.4                            0.0134399124297296 55.9156291853036 0.993215706288295 -3.66299238856128 0.993215706288296 -3.66299238856128 0.0134355202766879 55.938816883461  
! Gamma         0                0                0                0                
! Port Impedance         50               0                50               0                
1.5                            0.0141197992727747 56.8883597043099 0.99312473905712 -3.91983207429295 0.993124739057121 -3.91983207429296 0.0141155777095044 56.9126100223339 
! Gamma         0                0                0                0                
! Port Impedance         50               0                50               0                
1.6                            0.0148068904778811 57.7478157772207 0.993032043203095 -4.17672497897221 0.993032043203096 -4.17672497897222 0.0148028362737043 57.7729267907434 
! Gamma         0                0                0                0                
! Port Impedance         50               0                50               0                
1.7                            0.0155001001106371 58.5050419456827 0.992937147453846 -4.43363597782536 0.992937147453847 -4.43363597782537 0.0154962060455074 58.5308629799388 
! Gamma         0                0                0                0                
! Port Impedance         50               0                50               0                
1.8                            0.0161984167517079 59.1702488494872 0.992839731274813 -4.6905349045573 0.992839731274814 -4.69053490455731 0.0161946729724384 59.1966691386704 
! Gamma         0                0                0                0                
! Port Impedance         50               0                50               0                
1.9                            0.0169009153334925 59.752742270592  0.99273958348581 -4.94739578991031 0.992739583485811 -4.94739578991033 0.0168973102979776 59.7796819830795 
! Gamma         0                0                0                0                
! Port Impedance         50               0                50               0                
2                              0.0176067588145582 60.260923814285  0.992636573466252 -5.20419620381307 0.992636573466254 -5.20419620381309 0.0176032799510682 60.2883270313595 
! Gamma         0                0                0                0                
! Port Impedance         50               0                50               0                
2.1                            0.0183151945688217 60.702332531717  0.992530630767141 -5.46091670571503 0.992530630767142 -5.46091670571505 0.01831182873787 60.7301617898003 
! Gamma         0                0                0                0                
! Port Impedance         50               0                50               0                
2.2                            0.0190255482709699 61.0837077192492 0.992421730428576 -5.71754039261884 0.992421730428577 -5.71754039261887 0.0190222820900138 61.1119397810356 
! Gamma         0                0                0                0                
! Port Impedance         50               0                50               0                
2.3                            0.0197372168400661 61.4110605930832 0.992309882230623 -5.97405252993439 0.992309882230624 -5.97405252993443 0.0197340369126197 61.4396831743782 
! Gamma         0                0                0                0                
! Port Impedance         50               0                50               0                
2.4                            0.0204496612938109 61.6897474630781 0.992195122697053 -6.23044025034455 0.992195122697053 -6.23044025034459 0.0204465543717329 61.718756698466  
! Gamma         0                0                0                0                
! Port Impedance         50               0                50               0                
2.5                            0.0211623999548416 61.9245402004593 0.992077509054035 -6.48669230758867 0.992077509054036 -6.48669230758871 0.0211593530537513 61.9539386784538 
! Gamma         0                0                0                0                
! Port Impedance         50               0                50               0                
2.6                            0.0218750022145344 62.1196917909525 0.991957114596856 -6.74279887420467 0.991957114596857 -6.74279887420471 0.0218720026962325 62.1494870276873 
! Gamma         0                0                0                0                
! Port Impedance         50               0                50               0                
2.7                            0.0225870829268032 62.2789959931737 0.991834025084789 -6.99875137431611 0.99183402508479 -6.99875137431614 0.0225841185583726 62.3091992439434 
! Gamma         0                0                0                0                
! Port Impedance         50               0                50               0                
2.8                            0.0232982974318527 62.4058408555123 0.991708335896951 -7.25454234432776 0.991708335896952 -7.2545423443278 0.0232953564281915 62.4364661869508 
! Gamma         0                0                0                0                
! Port Impedance         50               0                50               0                
2.9                            0.0240083371725591 62.503256264122  0.99158014975898 -7.51016531586518 0.99158014975898 -7.51016531586521 0.0240054082270666 62.5343198278642 
! Gamma         0                0                0                0                
! Port Impedance         50               0                50               0                
3                              0.024716925849218 62.5739559178056 0.99144957490366 -7.76561471648221 0.991449574903661 -7.76561471648225 0.0247139981559294 62.6054753802935 
! Gamma         0                0                0                0                
! Port Impedance         50               0                50               0                
3.1                            0.0254238160529494 62.6203742284519 0.991316723565897 -8.02088578460715 0.991316723565898 -8.02088578460719 0.0254208793224209 62.6523683220954 
! Gamma         0                0                0                0                
! Port Impedance         50               0                50               0                
3.2                            0.0261287863188596 62.6446986766851 0.991181710738791 -8.27597449594563 0.991181710738792 -8.27597449594567 0.0261258307894065 62.6771868456316 
! Gamma         0                0                0                0                
! Port Impedance         50               0                50               0                
3.3                            0.0268316385440546 62.6488981420965 0.991044653136403 -8.53087749914746 0.991044653136403 -8.5308774991475 0.0268286549894538 62.6819002620003 
! Gamma         0                0                0                0                
! Port Impedance         50               0                50               0                
3.4                            0.0275321957209953 62.6347476948938 0.990905668322376 -8.78559205900681 0.990905668322377 -8.78559205900685 0.0275291754554229 62.6682838507678 
! Gamma         0                0                0                0                
! Port Impedance         50               0                50               0                
3.5                            0.0282302999424872 62.6038502927419 0.990764873973454 -9.04011600582894 0.990764873973454 -9.04011600582897 0.0282272348232207 62.6379406025614 
! Gamma         0                0                0                0                
! Port Impedance         50               0                50               0                
3.6                            0.0289258106402469 62.557655779962  0.990622387254159 -9.29444768988224 0.99062238725416 -9.29444768988227 0.0289226930684957 62.5923202544434 
! Gamma         0                0                0                0                
! Port Impedance         50               0                50               0                
3.7                            0.0296186030242195 62.497477540161  0.990478324284277 -9.54858594007975 0.990478324284277 -9.54858594007978 0.0296154259443353 62.532735971257  
! Gamma         0                0                0                0                
! Port Impedance         50               0                50               0                
3.8                            0.0303085666945151 62.4245071099857 0.990332799684732 -9.80253002621116 0.990332799684732 -9.80253002621119 0.0303053235917528 62.460378982267  
! Gamma         0                0                0                0                
! Port Impedance         50               0                50               0                
3.9                            0.0309956044019586 62.339827022087  0.990185926190472 -10.0562796241867 0.990185926190472 -10.0562796241867 0.0309922892989113 62.376331442445  
! Gamma         0                0                0                0                
! Port Impedance         50               0                50               0                
4                              0.0316796309368273 62.2444221099439 0.990037814321178 -10.3098347838644 0.990037814321178 -10.3098347838645 0.0316762383886228 62.2815777520232 
! Gamma         0                0                0                0                
! Port Impedance         50               0                50               0                
4.1                            0.03236057212843 62.1391894759069 0.989888572102373 -10.5631958991202 0.989888572102374 -10.5631958991202 0.0323570972167578 62.1770145364385 
! Gamma         0                0                0                0                
! Port Impedance         50               0                50               0                
4.2                            0.0330383639408094 62.0249472964593 0.989738304830794 -10.8163636798877 0.989738304830794 -10.8163636798878 0.0330348022668338 62.0634594612546 
! Gamma         0                0                0                0                
! Port Impedance         50               0                50               0                
4.3                            0.0337129516520825 61.902442614919  0.98958711487888 -11.0693391259522 0.989587114878881 -11.0693391259522 0.0337092993282956 61.9416590327478 
! Gamma         0                0                0                0                
! Port Impedance         50               0                50               0                
4.4                            0.0343842891068316 61.7723582512427 0.989435101534068 -11.3221235023217 0.989435101534068 -11.3221235023217 0.0343805427478938 61.8122955141796 
! Gamma         0                0                0                0                
! Port Impedance         50               0                50               0                
4.5                            0.0350523380325555 61.6353189408656 0.989282360869134 -11.5747183160362 0.989282360869134 -11.5747183160362 0.0350484947451761 61.6759930699724 
! Gamma         0                0                0                0                
! Port Impedance         50               0                50               0                
4.6                            0.035717067412545 61.4918967992543 0.989128985640369 -11.8271252943011 0.989128985640369 -11.8271252943011 0.0357131247844549 61.5333232346903 
! Gamma         0                0                0                0                
! Port Impedance         50               0                50               0                
4.7                            0.0363784529086852 61.3426161957444 0.988975065210722 -12.0793463638493 0.988975065210722 -12.0793463638493 0.0363744089967589 61.3848097905696 
! Gamma         0                0                0                0                
! Port Impedance         50               0                50               0                
4.8                            0.0370364763286473 61.1879581089723 0.988820685495379 -12.3313836314573 0.988820685495379 -12.3313836314573 0.0370323296462331 61.2309331260506 
! Gamma         0                0                0                0                
! Port Impedance         50               0                50               0                
4.9                            0.0376911251327421 61.0283640265442 0.988665928927521 -12.583239365549 0.988665928927521 -12.5832393655491 0.0376868746362642 61.0721341380606 
! Gamma         0                0                0                0                
! Port Impedance         50               0                50               0                
5                              0.0383423919763886 60.8642394432815 0.988510874442172 -12.8349159788332 0.988510874442172 -12.8349159788332 0.0383380370512855 60.9088177324766 
! Gamma         0                0                0                0                
! Port Impedance         50               0                50               0                
5.1                            0.0389902742847233 60.6959570052433 0.988355597476302 -13.0864160119257 0.988355597476302 -13.0864160119257 0.0389858147307903 60.7413559700352 
! Gamma         0                0                0                0                
! Port Impedance         50               0                50               0                
5.2                            0.0396347738563596 60.5238593405893 0.988200169983442 -13.3377421179157 0.988200169983442 -13.3377421179157 0.039630209872565 60.570090898811  
! Gamma         0                0                0                0                
! Port Impedance         50               0                50               0                
5.3                            0.040275896493712 60.3482616130639 0.988044660461254 -13.5888970478373 0.988044660461253 -13.5888970478373 0.0402712286625576 60.3953371090865 
! Gamma         0                0                0                0                
! Port Impedance         50               0                50               0                
5.4                            0.0409136516576453 60.1694538293259 0.987889133990589 -13.8398836370112 0.987889133990589 -13.8398836370112 0.04090888092914 60.2173840418735 
! Gamma         0                0                0                0                
! Port Impedance         50               0                50               0                
5.5                            0.0415480521444915 59.9877029274225 0.987733652284709 -14.0907047922251 0.987733652284709 -14.0907047922251 0.0415431798198108 60.0364980784139 
! Gamma         0                0                0                0                
! Port Impedance         50               0                50               0                
5.6                            0.0421791137837283 59.8032546703088 0.987578273747416 -14.3413634797197 0.987578273747416 -14.3413634797197 0.0421741414986265 59.8529244345834 
! Gamma         0                0                0                0                
! Port Impedance         50               0                50               0                
5.7                            0.0428068551548097 59.6163353653803 0.987423053538957 -14.5918627139527 0.987423053538957 -14.5918627139526 0.042801784862855 59.6668888811851 
! Gamma         0                0                0                0                
! Port Impedance         50               0                50               0                
5.8                            0.0434312973218204 59.4271534284399 0.987268043648625 -14.8422055471095 0.987268043648625 -14.8422055471095 0.0434261312775178 59.478599308569  
! Gamma         0                0                0                0                
! Port Impedance         50               0                50               0                
5.9                            0.0440524635847657 59.2359008083161 0.987113292973099 -15.0923950593339 0.987113292973099 -15.0923950593338 0.0440472043266322 59.2882471518074 
! Gamma         0                0                0                0                
! Port Impedance         50               0                50               0                
6                              0.0446703792464366 59.0427542864292 0.986958847399605 -15.3424343496482 0.986958847399605 -15.3424343496482 0.0446650295800905 59.0960086907327 
! Gamma         0                0                0                0                
! Port Impedance         50               0                50               0                
6.1                            0.0452850713938938 58.8478766639356 0.986804749893064 -15.5923265275379 0.986804749893064 -15.5923265275378 0.0452796343752154 58.9020462374778 
! Gamma         0                0                0                0                
! Port Impedance         50               0                50               0                
6.2                            0.0458965686937024 58.6514178476255 0.986651040586473 -15.8420747051695 0.986651040586473 -15.8420747051695 0.0458910476121224 58.7065092227006 
! Gamma         0                0                0                0                
! Port Impedance         50               0                50               0                
6.3                            0.0465049012001275 58.4535158444797 0.986497756873811 -16.0916819902179 0.986497756873811 -16.0916819902179 0.0464992995620955 58.5095351904054 
! Gamma         0                0                0                0                
! Port Impedance         50               0                50               0                
6.4                            0.0471101001755645 58.2542976736823 0.986344933504832 -16.3411514792727 0.986344933504832 -16.3411514792727 0.047104421688245 58.3112507101629 
! Gamma         0                0                0                0                
! Port Impedance         50               0                50               0                
6.5                            0.0477121979225346 58.0538802039136 0.986192602681157 -16.5904862517984 0.986192602681157 -16.5904862517984 0.0477064464777764 58.1117722145595 
! Gamma         0                0                0                0                
! Port Impedance         50               0                50               0                
6.6                            0.0483112276266234 57.8523709228967 0.986040794153145 -16.8396893646216 0.986040794153145 -16.8396893646216 0.0483054072852437 57.9112067688511 
! Gamma         0                0                0                0                
! Port Impedance         50               0                50               0                
6.7                            0.0489072232097846 57.6498686454216 0.985889535317063 -17.0887638469181 0.985889535317063 -17.0887638469181 0.0489013381862052 57.7096527790526 
! Gamma         0                0                0                0                
! Port Impedance         50               0                50               0                
6.8                            0.0495002191934645 57.4464641654139 0.985738851312107 -17.337712695675 0.985738851312107 -17.337712695675 0.049494273840735 57.50720064403   
! Gamma         0                0                0                0                
! Port Impedance         50               0                50               0                
6.9                            0.0500902505710373 57.2422408570327 0.985588765116924 -17.5865388716017 0.985588765116924 -17.5865388716016 0.0500842493662751 57.3039333565858 
! Gamma         0                0                0                0                
! Port Impedance         50               0                50               0                
7                              0.0506773526890699 57.037275229273  0.985439297645251 -17.8352452954651 0.985439297645251 -17.8352452954651 0.0506713002193448 57.0999270580149 
! Gamma         0                0                0                0                
! Port Impedance         50               0                50               0                
7.1                            0.0512615611369582 56.8316374380932 0.985290467840406 -18.0838348448256 0.985290467840406 -18.0838348448256 0.0512554620856447 56.895251550154  
! Gamma         0                0                0                0                
! Port Impedance         50               0                50               0                
7.2                            0.0518429116445026 56.6253917596883 0.985142292768328 -18.3323103511486 0.985142292768329 -18.3323103511486 0.0518367707781211 56.6899707685485 
! Gamma         0                0                0                0                
! Port Impedance         50               0                50               0                
7.3                            0.0524214399870099 56.4185970281746 0.984994787708969 -18.58067459727  0.98499478770897 -18.58067459727  0.0524152621425735 56.4841432200052 
! Gamma         0                0                0                0                
! Port Impedance         50               0                50               0                
7.4                            0.052997181897528 56.2113070406351 0.984847966245804 -18.8289303151929 0.984847966245805 -18.8289303151929 0.052990971970409 56.2778223874811 
! Gamma         0                0                0                0                
! Port Impedance         50               0                50               0                
7.5                            0.0535701729858377 56.0035709321942 0.984701840353314 -19.0770801841943 0.984701840353315 -19.0770801841943 0.0535639359181658 56.0710571049806 
! Gamma         0                0                0                0                
! Port Impedance         50               0                50               0                
7.6                            0.0541404486638429 55.7954335235406 0.984556420482282 -19.3251268292205 0.984556420482282 -19.3251268292204 0.0541341894334428 55.8638919048817 
! Gamma         0                0                0                0                
! Port Impedance         50               0                50               0                
7.7                            0.054708044077015 55.5869356430932 0.984411715642786 -19.5730728195519 0.984411715642787 -19.5730728195518 0.0547017676868905 55.6563673398867 
! Gamma         0                0                0                0                
! Port Impedance         50               0                50               0                
7.8                            0.055272994041563 55.3781144258051 0.984267733484798 -19.8209206677181 0.984267733484799 -19.8209206677181 0.0552667055099302 55.4485202815964 
! Gamma         0                0                0                0                
! Port Impedance         50               0                50               0                
7.9                            0.0558353329870146 55.1690035904228 0.984124480376304 -20.0686728286449 0.984124480376304 -20.0686728286449 0.0558290373378864 55.2403841975257 
! Gamma         0                0                0                0                
! Port Impedance         50               0                50               0                
8                              0.0563950949039055 54.9596336968563 0.983981961478892 -20.316331699015 0.983981961478893 -20.3163316990149 0.0563887971582261 55.031989408217  
! Gamma         0                0                0                0                
! Port Impedance         50               0                50               0                
8.1                            0.0569523132962893 54.7500323851724 0.983840180820774 -20.5638996168272 0.983840180820775 -20.5638996168271 0.0569460184636163 54.8233633259672 
! Gamma         0                0                0                0                
! Port Impedance         50               0                50               0                
8.2                            0.0575070211387907 54.5402245975934 0.983699141367203 -20.8113788611373 0.983699141367203 -20.8113788611372 0.0575007342095202 54.6145306765504 
! Gamma         0                0                0                0                
! Port Impedance         50               0                50               0                
8.3                            0.0580592508379369 54.3302327847664 0.983558845088286 -21.058771651966 0.983558845088286 -21.0587716519659 0.0580529767760663 54.4055137052049 
! Gamma         0                0                0                0                
! Port Impedance         50               0                50               0                
8.4                            0.0586090341975151 54.1200770974648 0.983419293024195 -21.3060801503592 0.983419293024195 -21.3060801503591 0.0586027779339351 54.1963323680434 
! Gamma         0                0                0                0                
! Port Impedance         50               0                50               0                
8.5                            0.0591564023877124 53.9097755647844 0.983280485347777 -21.553306458588 0.983280485347778 -21.5533064585879 0.0591501688140199 53.9870045099561 
! Gamma         0                0                0                0                
! Port Impedance         50               0                50               0                
8.6                            0.0597013859178085 53.6993442598149 0.983142421424599 -21.8004526204749 0.9831424214246  -21.8004526204749 0.0596951798806302 53.7775460299824 
! Gamma         0                0                0                0                
! Port Impedance         50               0                50               0                
8.7                            0.0602440146121981 53.4887974536849 0.983005099870448 -22.0475206218351 0.983005099870449 -22.0475206218351 0.0602378409080144 53.5679710350552 
! Gamma         0                0                0                0                
! Port Impedance         50               0                50               0                
8.8                            0.0607843175895337 53.2781477588117 0.98286851860633 -22.2945123910206 0.982868518606331 -22.2945123910206 0.0607781809599902 53.3582919829471 
! Gamma         0                0                0                0                
! Port Impedance         50               0                50               0                
8.9                            0.0613223232447882 53.0674062621178 0.98273267491101 -22.5414297995577 0.982732674911011 -22.5414297995577 0.0613162283724821 53.1485198151832 
! Gamma         0                0                0                0                
! Port Impedance         50               0                50               0                
9                              0.0618580592340437 52.8565826489219 0.982597565471146 -22.7882746628674 0.982597565471147 -22.7882746628674 0.0618520107387719 52.9386640806276 
! Gamma         0                0                0                0                
! Port Impedance         50               0                50               0                
9.1                            0.0623915524618264 52.6456853181548 0.982463186429066 -23.0350487410596 0.982463186429067 -23.0350487410596 0.0623855548972817 52.7287330503966 
! Gamma         0                0                0                0                
! Port Impedance         50               0                50               0                
9.2                            0.0629228290708137 52.4347214895039 0.982329533428253 -23.2817537397924 0.982329533428254 -23.2817537397924 0.0629168869217131 52.5187338247005 
! Gamma         0                0                0                0                
! Port Impedance         50               0                50               0                
9.3                            0.0634519144337476 52.2236973030432 0.982196601656593 -23.5283913111888 0.982196601656594 -23.5283913111888 0.0634460321133798 52.3086724321749 
! Gamma         0                0                0                0                
! Port Impedance         50               0                50               0                
9.4                            0.0639788331474005 52.0126179118666 0.982064385887457 -23.7749630548028 0.982064385887458 -23.7749630548028 0.0639730149955757 52.0985539222169 
! Gamma         0                0                0                0                
! Port Impedance         50               0                50               0                
9.5                            0.0645036090284433 51.8014875682028 0.981932880518677 -24.021470518629 0.981932880518678 -24.021470518629 0.0644978593098305 51.8883824508067 
! Gamma         0                0                0                0                
! Port Impedance         50               0                50               0                
9.6                            0.0650262651110758 51.5903097034574 0.981802079609488 -24.2679152001482 0.981802079609489 -24.2679152001481 0.0650205880139127 51.6781613602593 
! Gamma         0                0                0                0                
! Port Impedance         50               0                50               0                
9.7                            0.0655468236462876 51.3790870025931 0.981671976915499 -24.5142985474033 0.9816719769155  -24.5142985474033 0.0655412232814456 51.4678932533208 
! Gamma         0                0                0                0                
! Port Impedance         50               0                50               0                
9.8                            0.0660653061026227 51.1678214732341 0.98154256592177 -24.7606219601012 0.981542565921771 -24.7606219601012 0.0660597865030134 51.2575800619904 
! Gamma         0                0                0                0                
! Port Impedance         50               0                50               0                
9.9                            0.0665817331683291 50.9565145098476 0.981413839874051 -25.0068867907338 0.981413839874052 -25.0068867907338 0.0665762982886354 51.0472231114278 
! Gamma         0                0                0                0                
! Port Impedance         50               0                50               0                
10                             0.0670961247547832 50.7451669533379 0.981285791808275 -25.2530943457153 0.981285791808276 -25.2530943457152 0.0670907784714992 50.8368231792759 
! Gamma         0                0                0                0                
! Port Impedance         50               0                50               0                
10.1                           0.0676085000010805 50.5337791463588 0.981158414578341 -25.4992458865299 0.981158414578342 -25.4992458865299 0.0676032461128461 50.6263805507085 
! Gamma         0                0                0                0                
! Port Impedance         50               0                50               0                
10.2                           0.0681188772796965 50.3223509846325 0.981031700882283 -25.7453426308883 0.981031700882284 -25.7453426308882 0.0681137195079099 50.415895069491  
! Gamma         0                0                0                0                
! Port Impedance         50               0                50               0                
10.3                           0.0686272742031215 50.1108819645436 0.980905643286881 -25.9913857538863 0.980905643286882 -25.9913857538863 0.0686222161928152 50.2053661853204 
! Gamma         0                0                0                0                
! Port Impedance         50               0                50               0                
10.4                           0.0691337076313832 49.8993712272565 0.980780234250775 -26.2373763891658 0.980780234250776 -26.2373763891657 0.0691287529523492 49.9947929976963 
! Gamma         0                0                0                0                
! Port Impedance         50               0                50               0                
10.5                           0.0696381936803739 49.6878175995894 0.980655466146155 -26.4833156300724 0.980655466146156 -26.4833156300724 0.0696333458285224 49.7841742965541 
! Gamma         0                0                0                0                
! Port Impedance         50               0                50               0                
10.6                           0.0701407477309046 49.4762196318623 0.980531331279085 -26.7292045308092 0.980531331279086 -26.7292045308091 0.0701360101298428 49.5735085998789 
! Gamma         0                0                0                0                
! Port Impedance         50               0                50               0                
10.7                           0.070641384438415 49.2645756329206 0.980407821908523 -26.9750441075823 0.980407821908523 -26.9750441075823 0.0706367604412318 49.3627941885013 
! Gamma         0                0                0                0                
! Port Impedance         50               0                50               0                
10.8                           0.0711401177432693 49.0528837025246 0.980284930264096 -27.2208353397383 0.980284930264097 -27.2208353397382 0.071135610634512 49.1520291382648 
! Gamma         0                0                0                0                
! Port Impedance         50               0                50               0                
10.9                           0.0716369608815762 48.8411417612799 0.9801626485627  -27.4665791708895 0.980162648562701 -27.4665791708895 0.0716325738794068 48.9412113497423 
! Gamma         0                0                0                0                
! Port Impedance         50               0                50               0                
11                             0.0721319263964739 48.6293475782748 0.980040969023952 -27.7122765100275 0.980040969023953 -27.7122765100275 0.0721276626549905 48.7303385756642 
! Gamma         0                0                0                0                
! Port Impedance         50               0                50               0                
11.1                           0.0726250261498229 48.4174987965782 0.97991988388459 -27.957928232621 0.979919883884591 -27.957928232621 0.0726208887615359 48.5194084462147 
! Gamma         0                0                0                0                
! Port Impedance         50               0                50               0                
11.2                           0.0731162713342583 48.2055929567415 0.979799385411833 -28.2035351816993 0.979799385411834 -28.2035351816993 0.0731122633327065 48.3084184923381 
! Gamma         0                0                0                0                
! Port Impedance         50               0                50               0                
11.3                           0.0736056724855507 47.9936275184395 0.979679465915782 -28.4490981689186 0.979679465915783 -28.4490981689186 0.0736017968480485 48.0973661671906 
! Gamma         0                0                0                0                
! Port Impedance         50               0                50               0                
11.4                           0.0740932394952334 47.781599880376  0.9795601177609  -28.6946179756102 0.979560117760901 -28.6946179756102 0.0740894991457351 47.8862488658629 
! Gamma         0                0                0                0                
! Port Impedance         50               0                50               0                
11.5                           0.0745789816234538 47.5695073985708 0.979441333376608 -28.9400953538106 0.979441333376609 -28.9400953538106 0.0745753794355255 47.6750639434905 
! Gamma         0                0                0                0                
! Port Impedance         50               0                50               0                
11.6                           0.0750629075120107 47.3573474031389 0.979323105267069 -29.1855310272723 0.97932310526707 -29.1855310272723 0.075059446311899 47.4638087318624 
! Gamma         0                0                0                0                
! Port Impedance         50               0                50               0                
11.7                           0.0755450251975423 47.1451172136633 0.979205426020172 -29.4309256924544 0.979205426020173 -29.4309256924544 0.075541707767329 47.2524805546303 
! Gamma         0                0                0                0                
! Port Impedance         50               0                50               0                
11.8                           0.0760253421248325 46.9328141532596 0.979088288315786 -29.6762800194933 0.979088288315787 -29.6762800194933 0.0760221712056663 47.0410767412135 
! Gamma         0                0                0                0                
! Port Impedance         50               0                50               0                
11.9                           0.0765038651602051 46.7204355614192 0.978971684933307 -29.9215946531519 0.978971684933308 -29.9215946531519 0.0765008434555998 46.8295946394903 
! Gamma         0                0                0                0                
! Port Impedance         50               0                50               0                
12                             0.076980600604978 46.5079788057175 0.978855608758539 -30.1668702137488 0.978855608758539 -30.1668702137488 0.0769777307841692 46.6180316273596 
! Gamma         0                0                0                0                
! Port Impedance         50               0                50               0                
12.1                           0.0774555542089521 46.2954412924649 0.978740052789955 -30.4121072980653 0.978740052789956 -30.4121072980653 0.0774528389103029 46.4063851232496 
! Gamma         0                0                0                0                
! Port Impedance         50               0                50               0                
12.2                           0.0779287311839115 46.0828204763729 0.978625010144366 -30.6573064802317 0.978625010144366 -30.6573064802317 0.0779261730183596 46.1946525956494 
! Gamma         0                0                0                0                
! Port Impedance         50               0                50               0                
12.3                           0.0784001362171137 45.8701138693059 0.978510474062023 -30.9024683125916 0.978510474062023 -30.9024683125916 0.078397737771651 45.9828315717296 
! Gamma         0                0                0                0                
! Port Impedance         50               0                50               0                
12.4                           0.07886977348475 45.6573190481811 0.978396437911209 -31.147593326545 0.97839643791121 -31.147593326545 0.0788675373259277 45.7709196451174 
! Gamma         0                0                0                0                
! Port Impedance         50               0                50               0                
12.5                           0.0793376466653578 45.4444336620779 0.978282895192327 -31.3926820333703 0.978282895192328 -31.3926820333703 0.0793355753428098 45.5589144828859 
! Gamma         0                0                0                0                
! Port Impedance         50               0                50               0                
12.6                           0.0798037589531697 45.2314554386119 0.978169839541523 -31.6377349250244 0.978169839541523 -31.6377349250244 0.0798018550031473 45.3468138318129 
! Gamma         0                0                0                0                
! Port Impedance         50               0                50               0                
12.7                           0.0802681130713835 45.0183821896266 0.978057264733874 -31.8827524749219 0.978057264733875 -31.8827524749219 0.0802663790202941 45.1346155239623 
! Gamma         0                0                0                0                
! Port Impedance         50               0                50               0                
12.8                           0.0807307112853409 44.8052118162514 0.977945164686167 -32.1277351386932 0.977945164686167 -32.1277351386932 0.0807291496532854 44.9223174816372 
! Gamma         0                0                0                0                
! Port Impedance         50               0                50               0                
12.9                           0.0811915554156013 44.5919423133727 0.977833533459285 -32.3726833549226 0.977833533459285 -32.3726833549226 0.0811901687199039 44.7099177217488 
! Gamma         0                0                0                0                
! Port Impedance         50               0                50               0                
13                             0.0816506468509023 44.378571773559  0.977722365260241 -32.6175975458642 0.977722365260241 -32.6175975458642 0.0816494376096263 44.4974143596463 
! Gamma         0                0                0                0                
! Port Impedance         50               0                50               0                
13.1                           0.0821079865609943 44.1650983904827 0.977611654443864 -32.8624781181394 0.977611654443865 -32.8624781181394 0.0821069572964399 44.2848056124452 
! Gamma         0                0                0                0                
! Port Impedance         50               0                50               0                
13.2                           0.0825635751093435 43.9515204618737 0.977501395514174 -33.1073254634134 0.977501395514175 -33.1073254634134 0.0825627283515211 44.0720898018934 
! Gamma         0                0                0                0                
! Port Impedance         50               0                50               0                
13.3                           0.0830174126656932 43.7378363920406 0.977391583125457 -33.3521399590521 0.977391583125457 -33.3521399590521 0.0830167509557689 43.8592653568085 
! Gamma         0                0                0                0                
! Port Impedance         50               0                50               0                
13.4                           0.0834694990184795 43.5240446939927 0.977282212083058 -33.5969219687603 0.977282212083058 -33.5969219687603 0.083469024912186 43.6463308151192 
! Gamma         0                0                0                0                
! Port Impedance         50               0                50               0                
13.5                           0.083919833587092 43.3101439911926 0.977173277343926 -33.8416718432003 0.977173277343926 -33.8416718432003 0.0839195496581031 43.4332848255413 
! Gamma         0                0                0                0                
! Port Impedance         50               0                50               0                
13.6                           0.0843684154339776 43.0961330189677 0.977064774016907 -34.0863899205923 0.977064774016908 -34.0863899205923 0.0843683242772411 43.2201261489172 
! Gamma         0                0                0                0                
! Port Impedance         50               0                50               0                
13.7                           0.0848152432765818 42.882010625608  0.976956697362815 -34.3310765272968 0.976956697362816 -34.3310765272968 0.0848153475116061 43.0068536592434 
! Gamma         0                0                0                0                
! Port Impedance         50               0                50               0                
13.8                           0.0852603154991232 42.6677757731737 0.976849042794294 -34.5757319783785 0.976849042794294 -34.5757319783785 0.085260617773216 42.7934663444131 
! Gamma         0                0                0                0                
! Port Impedance         50               0                50               0                
13.9                           0.0857036301641991 42.4534275380372 0.976741805875482 -34.8203565781537 0.976741805875483 -34.8203565781537 0.0857041331556529 42.5799633066956 
! Gamma         0                0                0                0                
! Port Impedance         50               0                50               0                
14                             0.0861451850242196 42.2389651111803 0.976634982321499 -35.0649506207199 0.976634982321499 -35.0649506207199 0.0861458914454423 42.3663437629732 
! Gamma         0                0                0                0                
! Port Impedance         50               0                50               0                
14.1                           0.0865849775326669 42.0243877982659 0.976528567997759 -35.309514390469 0.97652856799776 -35.309514390469 0.086585890133254 42.1526070447577 
! Gamma         0                0                0                0                
! Port Impedance         50               0                50               0                
14.2                           0.0870230048551808 41.8096950195046 0.976422558919138 -35.5540481625847 0.976422558919138 -35.5540481625848 0.0870241264249261 41.938752598003  
! Gamma         0                0                0                0                
! Port Impedance         50               0                50               0                
14.3                           0.0874592638804665 41.5948863093329 0.976316951248982 -35.7985522035236 0.976316951248982 -35.7985522035236 0.087460597252309 41.7247799827326 
! Gamma         0                0                0                0                
! Port Impedance         50               0                50               0                
14.4                           0.0878937512310256 41.3799613159181 0.976211741297997 -36.0430267714806 0.976211741297997 -36.0430267714806 0.0878952992839309 41.5106888724971 
! Gamma         0                0                0                0                
! Port Impedance         50               0                50               0                
14.5                           0.0883264632737098 41.1649198005071 0.976106925523012 -36.2874721168405 0.976106925523012 -36.2874721168405 0.0883282289354832 41.2964790536781 
! Gamma         0                0                0                0                
! Port Impedance         50               0                50               0                
14.6                           0.0887573961300972 40.9497616366321 0.976002500525619 -36.5318884826133 0.976002500525619 -36.5318884826133 0.0887593823801257 41.0821504246502 
! Gamma         0                0                0                0                
! Port Impedance         50               0                50               0                
14.7                           0.0891865456866906 40.7344868091858 0.975898463050728 -36.7762761048568 0.975898463050728 -36.7762761048568 0.0891887555586137 40.867702994817  
! Gamma         0                0                0                0                
! Port Impedance         50               0                50               0                
14.8                           0.0896139076049398 40.5190954133791 0.975794809985009 -37.0206352130841 0.975794809985009 -37.0206352130841 0.089616344189246 40.6531368835307 
! Gamma         0                0                0                0                
! Port Impedance         50               0                50               0                
14.9                           0.0900394773310877 40.3035876535927 0.97569153835526 -37.2649660306585 0.97569153835526 -37.2649660306585 0.0900421437776354 40.4384523189082 
! Gamma         0                0                0                0                
! Port Impedance         50               0                50               0                
15                             0.0904632501058408 40.0879638421325 0.975588645326691 -37.5092687751751 0.975588645326691 -37.5092687751751 0.090466149626303 40.2236496365527 
! Gamma         0                0                0                0                
! Port Impedance         50               0                50               0                
15.1                           0.090885220973867 39.8722243978984 0.975486128201131 -37.753543658829 0.975486128201131 -37.753543658829 0.0908883568440972 40.0087292781918 
! Gamma         0                0                0                0                
! Port Impedance         50               0                50               0                
15.2                           0.0913053847931197 39.6563698449768 0.975383984415184 -37.9977908887726 0.975383984415184 -37.9977908887726 0.0913087603554387 39.7936917902408 
! Gamma         0                0                0                0                
! Port Impedance         50               0                50               0                
15.3                           0.0917237362439913 39.4404008111641 0.975282211538309 -38.2420106674591 0.975282211538309 -38.2420106674591 0.0917273549093939 39.5785378222979 
! Gamma         0                0                0                0                
! Port Impedance         50               0                50               0                
15.4                           0.0921402698382975 39.2243180264287 0.975180807270859 -38.4862031929759 0.975180807270859 -38.4862031929759 0.0921441350885779 39.363268125582  
! Gamma         0                0                0                0                
! Port Impedance         50               0                50               0                
15.5                           0.0925549799280934 39.00812232132   0.97507976944207 -38.730368659366 0.97507976944207 -38.730368659366 0.0925590953178883 39.1478835513172 
! Gamma         0                0                0                0                
! Port Impedance         50               0                50               0                
15.6                           0.0929678607143242 38.7918146253301 0.974979096008005 -38.974507256938 0.974979096008004 -38.974507256938 0.0929722298730733 38.932385049073  
! Gamma         0                0                0                0                
! Port Impedance         50               0                50               0                
15.7                           0.0933789062553111 38.5753959652142 0.974878785049462 -39.2186191725669 0.974878785049462 -39.2186191725669 0.0933835328891347 38.7167736650641 
! Gamma         0                0                0                0                
! Port Impedance         50               0                50               0                
15.8                           0.0937881104750763 38.3588674632764 0.974778834769855 -39.4627045899829 0.974778834769854 -39.4627045899829 0.093792998368568 38.5010505404178 
! Gamma         0                0                0                0                
! Port Impedance         50               0                50               0                
15.9                           0.0941954671715065 38.1422303356251 0.974679243493055 -39.7067636900514 0.974679243493054 -39.7067636900514 0.0942006201894432 38.2852169094118 
! Gamma         0                0                0                0                
! Port Impedance         50               0                50               0                
16                             0.09460097002436 37.9254858904035 0.974580009661217 -39.9507966510428 0.974580009661217 -39.9507966510428 0.094606392113326 38.0692740976894 
! Gamma         0                0                0                0                
! Port Impedance         50               0                50               0                
16.1                           0.0950046126031167 37.7086355259993 0.974481131832586 -40.1948036488931 0.974481131832586 -40.1948036488931 0.0950103077930441 37.8532235204548 
! Gamma         0                0                0                0                
! Port Impedance         50               0                50               0                
16.2                           0.0954063883746755 37.4916807292378 0.974382608679274 -40.4387848574554 0.974382608679274 -40.4387848574554 0.0954123607802986 37.6370666806534 
! Gamma         0                0                0                0                
! Port Impedance         50               0                50               0                
16.3                           0.095806290710899 37.2746230735629 0.974284438985038 -40.6827404487425 0.974284438985038 -40.6827404487425 0.0958125445331252 37.4208051671403 
! Gamma         0                0                0                0                
! Port Impedance         50               0                50               0                
16.4                           0.0962043128960097 37.0574642172074 0.974186621643041 -40.9266705931612 0.97418662164304 -40.9266705931611 0.0962108524232042 37.2044406528415 
! Gamma         0                0                0                0                
! Port Impedance         50               0                50               0                
16.5                           0.0966004481338388 36.8402059013591 0.974089155653597 -41.1705754597379 0.974089155653596 -41.1705754597379 0.0966072777430251 36.9879748929098 
! Gamma         0                0                0                0                
! Port Impedance         50               0                50               0                
16.6                           0.0969946895549298 36.6228499483218 0.973992040121926 -41.4144552163369 0.973992040121926 -41.4144552163369 0.0970018137129055 36.7714097228782 
! Gamma         0                0                0                0                
! Port Impedance         50               0                50               0                
16.7                           0.0973870302234991 36.4053982596771 0.973895274255894 -41.6583100298706 0.973895274255894 -41.6583100298706 0.0973944534878672 36.5547470568144 
! Gamma         0                0                0                0                
! Port Impedance         50               0                50               0                
16.8                           0.0977774631442566 36.1878528144477 0.973798857363754 -41.9021400665017 0.973798857363754 -41.9021400665017 0.0977851901643724 36.3379888854783 
! Gamma         0                0                0                0                
! Port Impedance         50               0                50               0                
16.9                           0.0981659812690868 35.9702156672642 0.973702788851892 -42.1459454918394 0.973702788851892 -42.1459454918394 0.0981740167869212 36.1211372744846 
! Gamma         0                0                0                0                
! Port Impedance         50               0                50               0                
17                             0.098552577503594 35.7524889465395 0.973607068222573 -42.3897264711274 0.973607068222573 -42.3897264711274 0.0985609263545135 35.9041943624716 
! Gamma         0                0                0                0                
! Port Impedance         50               0                50               0                
17.1                           0.0989372447135129 35.5346748526494 0.973511695071692 -42.6334831694258 0.973511695071691 -42.6334831694258 0.0989459118269762 35.6871623592807 
! Gamma         0                0                0                0                
! Port Impedance         50               0                50               0                
17.2                           0.0993199757309867 35.3167756561239 0.97341666908653 -42.8772157517862 0.97341666908653 -42.8772157517862 0.0993289661311596 35.4700435441443 
! Gamma         0                0                0                0                
! Port Impedance         50               0                50               0                
17.3                           0.0997007633607157 35.0987936958499 0.973321990043524 -43.1209243834205 0.973321990043524 -43.1209243834205 0.0997100821670032 35.2528402638876 
! Gamma         0                0                0                0                
! Port Impedance         50               0                50               0                
17.4                           0.100079600385976 34.8807313772849 0.973227657806038 -43.3646092298639 0.973227657806038 -43.3646092298639 0.100089252813474 35.0355549311421 
! Gamma         0                0                0                0                
! Port Impedance         50               0                50               0                
17.5                           0.100456479574514 34.6625911706859 0.973133672322151 -43.608270457131 0.973133672322151 -43.608270457131 0.100466470934379 34.8181900225747 
! Gamma         0                0                0                0                
! Port Impedance         50               0                50               0                
17.6                           0.100831393684314 34.4443756093526 0.973040033622451 -43.8519082318677 0.973040033622451 -43.8519082318677 0.100841729384055 34.6007480771314 
! Gamma         0                0                0                0                
! Port Impedance         50               0                50               0                
17.7                           0.101204335469246 34.2260872878854 0.972946741817849 -44.0955227214959 0.972946741817849 -44.0955227214959 0.101215021012935 34.3832316942984 
! Gamma         0                0                0                0                
! Port Impedance         50               0                50               0                
17.8                           0.10157529768459 34.0077288604613 0.972853797097399 -44.3391140943541 0.972853797097399 -44.3391140943541 0.101586338672994 34.1656435323792 
! Gamma         0                0                0                0                
! Port Impedance         50               0                50               0                
17.9                           0.101944273092441 33.7893030391262 0.972761199726137 -44.5826825198321 0.972761199726137 -44.5826825198321 0.101955675223082 33.947986306791  
! Gamma         0                0                0                0                
! Port Impedance         50               0                50               0                
18                             0.102311254467005 33.5708125921059 0.972668950042935 -44.8262281685012 0.972668950042934 -44.8262281685011 0.102323023534133 33.7302627883788 
! Gamma         0                0                0                0                
! Port Impedance         50               0                50               0                
18.1                           0.102676234599764 33.3522603421345 0.972577048458369 -45.0697512122388 0.972577048458368 -45.0697512122387 0.102688376494263 33.5124758017488 
! Gamma         0                0                0                0                
! Port Impedance         50               0                50               0                
18.2                           0.103039206304545 33.1336491648031 0.972485495452607 -45.3132518243493 0.972485495452606 -45.3132518243493 0.10305172701376 33.2946282236215 
! Gamma         0                0                0                0                
! Port Impedance         50               0                50               0                
18.3                           0.10340016242246 32.9149819869273 0.972394291573309 -45.5567301796798 0.972394291573309 -45.5567301796798 0.103413068029951 33.0767229812052 
! Gamma         0                0                0                0                
! Port Impedance         50               0                50               0                
18.4                           0.103759095826752 32.6962617849346 0.972303437433553 -45.8001864547313 0.972303437433553 -45.8001864547313 0.103772392511973 32.8587630505891 
! Gamma         0                0                0                0                
! Port Impedance         50               0                50               0                
18.5                           0.104115999427516 32.4774915832718 0.972212933709769 -46.0436208277665 0.972212933709769 -46.0436208277665 0.104129693465429 32.6407514551576 
! Gamma         0                0                0                0                
! Port Impedance         50               0                50               0                
18.6                           0.104470866176326 32.2586744528331 0.972122781139698 -46.2870334789122 0.972122781139698 -46.2870334789122 0.104484963936931 32.4226912640251 
! Gamma         0                0                0                0                
! Port Impedance         50               0                50               0                
18.7                           0.104823689070746 32.0398135094083 0.97203298052037 -46.5304245902591 0.97203298052037 -46.5304245902591 0.104838197018556 32.2045855904917 
! Gamma         0                0                0                0                
! Port Impedance         50               0                50               0                
18.8                           0.105174461158743 31.820911912152  0.9719435327061  -46.773794345957 0.971943532706099 -46.773794345957 0.10518938585218 31.9864375905209 
! Gamma         0                0                0                0                
! Port Impedance         50               0                50               0                
18.9                           0.105523175542995 31.6019728620734 0.971854438606498 -47.0171429323064 0.971854438606497 -47.0171429323064 0.105538523633721 31.7682504612368 
! Gamma         0                0                0                0                
! Port Impedance         50               0                50               0                
19                             0.105869825385095 31.3829996005471 0.971765699184511 -47.2604705378465 0.971765699184511 -47.2604705378465 0.105885603617276 31.5500274394443 
! Gamma         0                0                0                0                
! Port Impedance         50               0                50               0                
19.1                           0.106214403909654 31.1639954078444 0.971677315454472 -47.5037773534399 0.971677315454472 -47.5037773534399 0.106230619119164 31.3317718001694 
! Gamma         0                0                0                0                
! Port Impedance         50               0                50               0                
19.2                           0.106556904408314 30.9449636016859 0.971589288480178 -47.7470635723538 0.971589288480178 -47.7470635723538 0.106573563521864 31.1134868552212 
! Gamma         0                0                0                0                
! Port Impedance         50               0                50               0                
19.3                           0.106897320243648 30.7259075358145 0.971501619372981 -47.9903293903381 0.97150161937298 -47.9903293903381 0.106914430277862 30.8951759517746 
! Gamma         0                0                0                0                
! Port Impedance         50               0                50               0                
19.4                           0.107235644852976 30.5068305985894 0.971414309289903 -48.2335750057004 0.971414309289903 -48.2335750057004 0.1072532129134  30.6768424709746 
! Gamma         0                0                0                0                
! Port Impedance         50               0                50               0                
19.5                           0.107571871752078 30.2877362116005 0.971327359431774 -48.4768006193776 0.971327359431774 -48.4768006193776 0.10758990503213 30.4584898265613 
! Gamma         0                0                0                0                
! Port Impedance         50               0                50               0                
19.6                           0.107905994538816 30.068627828304  0.971240771041381 -48.7200064350048 0.971240771041381 -48.7200064350049 0.107924500318677 30.2401214635156 
! Gamma         0                0                0                0                
! Port Impedance         50               0                50               0                
19.7                           0.108238006896663 29.8495089326773 0.971154545401646 -48.963192658982 0.971154545401646 -48.9631926589821 0.108256992542106 30.0217408567256 
! Gamma         0                0                0                0                
! Port Impedance         50               0                50               0                
19.8                           0.108567902598134 29.6303830378952 0.971068683833821 -49.2063595005368 0.971068683833821 -49.2063595005368 0.108587375559305 29.8033515096742 
! Gamma         0                0                0                0                
! Port Impedance         50               0                50               0                
19.9                           0.108895675508136 29.4112536850258 0.970983187695701 -49.4495071717852 0.970983187695701 -49.4495071717852 0.10891564331827 29.5849569531458 
! Gamma         0                0                0                0                
! Port Impedance         50               0                50               0                
20                             0.109221319587217 29.1921244417462 0.970898058379857 -49.6926358877901 0.970898058379857 -49.6926358877901 0.109241789861304 29.3665607439546 
! Gamma         0                0                -0               -0               
! Port Impedance         50               0                50               0                
