! Touchstone file exported from HFSS 2026.1.0
!        File:           C:/ffzhzh/LocalFiles/Ansys_Project_Files/temp_train_BSMRDL_327_1783010943_55676.aedt
!        Generated:      12:50:25 AM Jul  3, 2026
!        Design:         BSMRDL
!        Project:        temp_train_BSMRDL_327_1783010943_55676
!
! Variables:
!        h_bsmrdl = 5.48um
!        h_ox = 20um
!        h_rdl = 5um
!        h_sub = 80um
!        h_tmrdl = 5um
!        h_tsv = 80um
!        h_via = 3um
!        l_bsmrdl = 803.99um
!        l_sub = 1203.99um
!        l_tmrdl = 200um
!        m_sub = 200um
!        pitch = 25.64um
!        r_tsv = 6um
!        s_tmrdl = 10um
!        w_bsmrdl = 18.4um
!        w_sub = 500um
!        w_tmrdl = 12um
!        x_tsv_center1 = 206um
!        x_tsv_center2 = 1028.39um
!        x_tsv_center3 = 1240.39um
!        x_tsv_center4 = 2062.78um
!        x_tsv_center5 = 2274.78um
!        x_tsv_center6 = 3097.17um
!
# GHz S MA R 50.000000
! Terminal data exported
! Port[1] = BSM_RDL1_1_T1
! Port[2] = BSM_RDL1_1_T2
0.1                            0.00330605986875564 22.0314533638851 0.996940276293169 -0.262936025215925 0.996940276293169 -0.262936025215914 0.00330607510099117 22.0312080011545 
! Gamma         0                0                0                0                
! Port Impedance         50               0                50               0                
0.2                            0.00406909410019083 32.6377694044281 0.996590487832346 -0.509581818040123 0.996590487832346 -0.509581818040118 0.00406920755761341 32.6380407561574 
! Gamma         0                0                0                0                
! Port Impedance         50               0                50               0                
0.3                            0.00475819667547749 38.5537016751872 0.996313777317733 -0.745823565447436 0.996313777317733 -0.745823565447438 0.00475848641726799 38.5528211741695 
! Gamma         0                0                0                0                
! Port Impedance         50               0                50               0                
0.4                            0.00538637122537015 43.0981219479991 0.996124295204027 -0.978911986165022 0.996124295204027 -0.978911986165027 0.0053868194914484 43.0953103726269 
! Gamma         0                0                0                0                
! Port Impedance         50               0                50               0                
0.5                            0.00600278359541456 46.9588551024211 0.995987753028662 -1.21160394037746 0.995987753028662 -1.21160394037747 0.00600336295739333 46.9539766373555 
! Gamma         0                0                0                0                
! Port Impedance         50               0                50               0                
0.6                            0.00663060549239826 50.2628356653143 0.995878671555685 -1.44460202072383 0.995878671555685 -1.44460202072383 0.00663130004207824 50.2559536858043 
! Gamma         0                0                0                0                
! Port Impedance         50               0                50               0                
0.7                            0.00727672906526446 53.0638489145033 0.995782541665635 -1.67798007498164 0.995782541665635 -1.67798007498164 0.00727753338108216 53.0550585686341 
! Gamma         0                0                0                0                
! Port Impedance         50               0                50               0                
0.8                            0.00794112229570179 55.4186664684858 0.995691412058428 -1.91165238354866 0.995691412058428 -1.91165238354866 0.00794203784574 55.4080476759326 
! Gamma         0                0                0                0                
! Port Impedance         50               0                50               0                
0.9                            0.00862131212214924 57.3881748871411 0.995600880877502 -2.14550886465947 0.995600880877502 -2.14550886465947 0.00862234462501208 57.3757842852274 
! Gamma         0                0                0                0                
! Port Impedance         50               0                50               0                
1                              0.00931424528160514 59.0308376250762 0.995508476583239 -2.37945022352885 0.995508476583239 -2.37945022352885 0.0093154030768037 59.0167112501775 
! Gamma         0                0                0                0                
! Port Impedance         50               0                50               0                
1.1                            0.0100169943927699 60.3988514922528 0.995412812115301 -2.61339435349448 0.995412812115301 -2.61339435349449 0.0100182874587287 60.3830094139675 
! Gamma         0                0                0                0                
! Port Impedance         50               0                50               0                
1.2                            0.010726985565848 61.5369434468312 0.995313133835314 -2.84727505854442 0.995313133835314 -2.84727505854442 0.0107284249123449 61.5193939309297 
! Gamma         0                0                0                0                
! Port Impedance         50               0                50               0                
1.3                            0.0114420367706993 62.4826043943057 0.995209072248833 -3.08103925006293 0.995209072248833 -3.08103925006293 0.0114436340433726 62.4633471389069 
! Gamma         0                0                0                0                
! Port Impedance         50               0                50               0                
1.4                            0.0121603275388753 63.2669196861821 0.995100498640307 -3.31464430619729 0.995100498640307 -3.31464430619729 0.0121620947454795 63.2459482221782 
! Gamma         0                0                0                0                
! Port Impedance         50               0                50               0                
1.5                            0.0128803490641407 63.9155533767399 0.994987439239097 -3.54805594947051 0.994987439239097 -3.54805594947051 0.0128822983733392 63.8928568280428 
! Gamma         0                0                0                0                
! Port Impedance         50               0                50               0                
1.6                            0.0136008536930324 64.4496863649192 0.994870021777917 -3.78124662267292 0.994870021777917 -3.78124662267292 0.0136029972790521 64.4252507450275 
! Gamma         0                0                0                0                
! Port Impedance         50               0                50               0                
1.7                            0.0143208102911244 64.8868343730369 0.994748440949495 -4.01419425982748 0.994748440949495 -4.01419425982748 0.0143231602098056 64.8606435513823 
! Gamma         0                0                0                0                
! Port Impedance         50               0                50               0                
1.8                            0.0150393669211325 65.241530648878  0.994622935279137 -4.24688135031009 0.994622935279137 -4.24688135031009 0.0150419350094793 65.2135670814973 
! Gamma         0                0                0                0                
! Port Impedance         50               0                50               0                
1.9                            0.0157558203745125 65.5258829922581 0.994493771133768 -4.47929421514671 0.994493771133768 -4.47929421514671 0.0157586181693578 65.4961282820492 
! Gamma         0                0                0                0                
! Port Impedance         50               0                50               0                
2                              0.016469591516765 65.7500230689706 0.994361231346944 -4.71142243589405 0.994361231346944 -4.71142243589405 0.0164726301899995 65.718458400247  
! Gamma         0                0                0                0                
! Port Impedance         50               0                50               0                
2.1                            0.0171802053476854 65.9224670500597 0.994225606933112 -4.94325839367132 0.994225606933112 -4.94325839367132 0.0171834956564133 65.8890735281464 
! Gamma         0                0                0                0                
! Port Impedance         50               0                50               0                
2.2                            0.0178872748047218 66.0504047868365 0.994087190940653 -5.17479688857911 0.994087190940653 -5.17479688857911 0.0178908270551256 66.015163704084  
! Gamma         0                0                0                0                
! Port Impedance         50               0                50               0                
2.3                            0.018590487511042 66.1399320250664 0.993946273835545 -5.40603481876108 0.993946273835544 -5.40603481876109 0.0185943115348886 66.1028250684136 
! Gamma         0                0                0                0                
! Port Impedance         50               0                50               0                
2.4                            0.0192895948358882 66.1962374477819 0.993803140015202 -5.63697090467729 0.993803140015202 -5.6369709046773 0.0192936999786269 66.15724685884   
! Gamma         0                0                0                0                
! Port Impedance         50               0                50               0                
2.5                            0.019984402775752 66.2237539449933 0.993658065180915 -5.86760544853692 0.993658065180915 -5.86760544853692 0.0199887978951148 66.1828626408413 
! Gamma         0                0                0                0                
! Port Impedance         50               0                50               0                
2.6                            0.0206747642781423 66.2262815248257 0.993511314378645 -6.09794012186085 0.993511314378645 -6.09794012186085 0.0206794577521025 66.183473185841  
! Gamma         0                0                0                0                
! Port Impedance         50               0                50               0                
2.7                            0.0213605727180601 66.207087686464  0.993363140570535 -6.32797777622112 0.993363140570535 -6.32797777622112 0.0213655724609553 66.162346816241  
! Gamma         0                0                0                0                
! Port Impedance         50               0                50               0                
2.8                            0.0220417563050804 66.1689898165505 0.993213783634116 -6.55772227362477 0.993213783634116 -6.55772227362478 0.0220470697906793 66.1223017780831 
! Gamma         0                0                0                0                
! Port Impedance         50               0                50               0                
2.9                            0.0227182732504608 66.1144231862893 0.993063469709654 -6.78717833397586 0.993063469709654 -6.78717833397586 0.0227239075407479 66.0657742179718 
! Gamma         0                0                0                0                
! Port Impedance         50               0                50               0                
3                              0.0233901075626428 66.0454973603129 0.992912410832341 -7.01635139770136 0.992912410832341 -7.01635139770137 0.0233960693411185 65.9948745748566 
! Gamma         0                0                0                0                
! Port Impedance         50               0                50               0                
3.1                            0.0240572653688737 65.9640432330111 0.992760804797776 -7.24524750206357 0.992760804797776 -7.24524750206358 0.0240635609772095 65.9114346020237 
! Gamma         0                0                0                0                
! Port Impedance         50               0                50               0                
3.2                            0.0247197716827869 65.8716524452577 0.992608835217864 -7.47387316997077 0.992608835217864 -7.47387316997078 0.0247264071597429 65.817046771949  
! Gamma         0                0                0                0                
! Port Impedance         50               0                50               0                
3.3                            0.0253776675544401 65.7697105741771 0.992456671730989 -7.70223531028853 0.992456671730989 -7.70223531028854 0.0253846486760303 65.7130974564134 
! Gamma         0                0                0                0                
! Port Impedance         50               0                50               0                
3.4                            0.0260310075518772 65.6594252073379 0.992304470335713 -7.93034112877842 0.992304470335713 -7.93034112877843 0.0260383398718654 65.6007949930519 
! Gamma         0                0                0                0                
! Port Impedance         50               0                50               0                
3.5                            0.0266798575328011 65.541849792511  0.992152373821653 -8.15819804887283 0.992152373821653 -8.15819804887283 0.0266875464227078 65.4811935292783 
! Gamma         0                0                0                0                
! Port Impedance         50               0                50               0                
3.6                            0.0273242926721741 65.4179039810075 0.992000512274977 -8.38581364155006 0.992000512274977 -8.38581364155007 0.0273323433600841 65.3552133614134 
! Gamma         0                0                0                0                
! Port Impedance         50               0                50               0                
3.7                            0.0279643957171003 65.288391046001  0.991849003639191 -8.61319556361359 0.991849003639191 -8.61319556361359 0.0279728133246671 65.2236583502464 
! Gamma         0                0                0                0                
! Port Impedance         50               0                50               0                
3.8                            0.0286002554446152 65.1540128489784 0.99169795431473 -8.84035150370999 0.99169795431473 -8.84035150370999 0.0286090450217643 65.0872308860016 
! Gamma         0                0                0                0                
! Port Impedance         50               0                50               0                
3.9                            0.0292319653013411 65.015382741299  0.991547459783365 -9.06728913544767 0.991547459783364 -9.06728913544768 0.0292411318582752 64.946544789533  
! Gamma         0                0                0                0                
! Port Impedance         50               0                50               0                
4                              0.0298596222065996 64.8730367189591 0.991397605245676 -9.29401607700406 0.991397605245676 -9.29401607700406 0.029869170742808 64.8021364676868 
! Gamma         0                0                0                0                
! Port Impedance         50               0                50               0                
4.1                            0.0304833255026926 64.7274430933338 0.991248466261783 -9.5205398566356 0.991248466261783 -9.52053985663561 0.0304932610327537 64.6544745854603 
! Gamma         0                0                0                0                
! Port Impedance         50               0                50               0                
4.2                            0.0311031760377955 64.5790108960313 0.991100109387266 -9.74686788353268 0.991100109387266 -9.74686788353268 0.0311135036138433 64.5039684729578 
! Gamma         0                0                0                0                
! Port Impedance         50               0                50               0                
4.3                            0.031719275368351 64.4280971998144 0.990952592797742 -9.97300742349056 0.990952592797741 -9.97300742349056 0.0317300000991507 64.3509754489692 
! Gamma         0                0                0                0                
! Port Impedance         50               0                50               0                
4.4                            0.0323317250690848 64.2750135080716 0.990805966896899 -10.1989655788983 0.990805966896899 -10.1989655788983 0.0323428521357247 64.1958072135411 
! Gamma         0                0                0                0                
! Port Impedance         50               0                50               0                
4.5                            0.0329406261398308 64.1200313412107 0.990660274903946 -10.4247492725792 0.990660274903946 -10.4247492725792 0.032952160808095 64.038735437806  
! Gamma         0                0                0                0                
! Port Impedance         50               0                50               0                
4.6                            0.0335460784992977 63.9633871285223 0.99051555341744 -10.6503652350476 0.99051555341744 -10.6503652350476 0.0335580261288292 63.8799966595213 
! Gamma         0                0                0                0                
! Port Impedance         50               0                50               0                
4.7                            0.0341481805567551 63.8052864976853 0.990371832953304 -10.8758199947814 0.990371832953304 -10.8758199947814 0.0341605466071582 63.7197965764072 
! Gamma         0                0                0                0                
! Port Impedance         50               0                50               0                
4.8                            0.0347470288533821 63.6459080404978 0.990229138455608 -11.1011198711389 0.990229138455608 -11.1011198711389 0.0347598188874444 63.558313815791  
! Gamma         0                0                0                0                
! Port Impedance         50               0                50               0                
4.9                            0.035342717765727 63.4854066220904 0.990087489779251 -11.3262709695827 0.990087489779251 -11.3262709695827 0.0353559374499647 63.3957032477496 
! Gamma         0                0                0                0                
! Port Impedance         50               0                50               0                
5                              0.0359353392643751 63.3239162913877 0.989946902144212 -11.551279178901 0.989946902144212 -11.551279178901 0.0359489943671221 63.2320988994613 
! Gamma         0                0                0                0                
! Port Impedance         50               0                50               0                
5.1                            0.03652498272152 63.161552842606  0.989807386561467 -11.7761501701503 0.989807386561467 -11.7761501701503 0.0365390791087948 63.0676165205065 
! Gamma         0                0                0                0                
! Port Impedance         50               0                50               0                
5.2                            0.0371117347616969 62.9984160708333 0.989668950230969 -12.000889397064 0.989668950230969 -12.000889397064 0.0371262783910861 62.9023558421242 
! Gamma         0                0                0                0                
! Port Impedance         50               0                50               0                
5.3                            0.0376956791504516 62.8345917590137 0.989531596912378 -12.2255020977064 0.989531596912378 -12.2255020977064 0.0377106760632526 62.7364025677161 
! Gamma         0                0                0                0                
! Port Impedance         50               0                50               0                
5.4                            0.038276896716206 62.6701534287932 0.989395327269427 -12.4499932971679 0.989395327269427 -12.4499932971679 0.0382923530280676 62.5698301270278 
! Gamma         0                0                0                0                
! Port Impedance         50               0                50               0                
5.5                            0.0388554653010266 62.505163883512  0.989260139188954 -12.6743678111249 0.989260139188954 -12.6743678111249 0.0388713871913252 62.4027012222747 
! Gamma         0                0                0                0                
! Port Impedance         50               0                50               0                
5.6                            0.0394314597364241 62.3396765680568 0.989126028075741 -12.8986302501063 0.989126028075741 -12.8986302501062 0.0394478534366012 62.2350691909126 
! Gamma         0                0                0                0                
! Port Impedance         50               0                50               0                
5.7                            0.0400049518406923 62.1737367672083 0.988992987124389 -13.1227850243291 0.988992987124389 -13.1227850243291 0.0400218236217733 62.0669792066765 
! Gamma         0                0                0                0                
! Port Impedance         50               0                50               0                
5.8                            0.040576010434658 62.0073826614576 0.98886100756947 -13.3468363489814 0.98886100756947 -13.3468363489814 0.0405933665941585 61.8984693378602 
! Gamma         0                0                0                0                
! Port Impedance         50               0                50               0                
5.9                            0.0411447013730354 61.840646256962  0.988730078915246 -13.5707882498475 0.988730078915246 -13.5707882498475 0.0411625482214503 61.7295714795026 
! Gamma         0                0                0                0                
! Port Impedance         50               0                50               0                
6                              0.0417110875888868 61.6735542043082 0.988600189146212 -13.7946445691848 0.988600189146212 -13.7946445691848 0.0417294314359427 61.560312174151  
! Gamma         0                0                0                0                
! Port Impedance         50               0                50               0                
6.1                            0.0422752291489639 61.5061285190032 0.988471324919727 -14.0184089717732 0.988471324919727 -14.0184089717732 0.0422940762898017 61.3907133341284 
! Gamma         0                0                0                0                
! Port Impedance         50               0                50               0                
6.2                            0.042837183317958 61.3383872150937 0.988343471741951 -14.2420849510708 0.988343471741951 -14.2420849510708 0.0428565400193996 61.2207928767071 
! Gamma         0                0                0                0                
! Port Impedance         50               0                50               0                
6.3                            0.0433970046299201 61.1703448619752 0.988216614128256 -14.4656758354182 0.988216614128257 -14.4656758354182 0.0434168771169555 61.0505652822628 
! Gamma         0                0                0                0                
! Port Impedance         50               0                50               0                
6.4                            0.0439547449653175 61.0020130732871 0.988090735749267 -14.6891847942438 0.988090735749267 -14.6891847942438 0.0439751394079376 60.8800420843104 
! Gamma         0                0                0                0                
! Port Impedance         50               0                50               0                
6.5                            0.0445104536323865 60.8334009357585 0.987965819563577 -14.9126148442295 0.987965819563577 -14.9126148442295 0.0445313761328707 60.7092322992999 
! Gamma         0                0                0                0                
! Port Impedance         50               0                50               0                
6.6                            0.04506417745161 60.6645153849663 0.987841847938197 -15.1359688554045 0.987841847938196 -15.1359688554045 0.0450856340323643 60.5381428031434 
! Gamma         0                0                0                0                
! Port Impedance         50               0                50               0                
6.7                            0.0456159608423045 60.4953615341692 0.987718802757672 -15.3592495571383 0.987718802757672 -15.3592495571383 0.0456379574343332 60.3667786606481 
! Gamma         0                0                0                0                
! Port Impedance         50               0                50               0                
6.8                            0.0461658459104391 60.3259429616782 0.987596665522793 -15.5824595440126 0.987596665522793 -15.5824595440125 0.0461883883425202 60.1951434133288 
! Gamma         0                0                0                0                
! Port Impedance         50               0                50               0                
6.9                            0.0467138725369326 60.1562619616017 0.987475417439741 -15.8056012815532 0.987475417439741 -15.8056012815532 0.0467369665255547 60.0232393304492 
! Gamma         0                0                0                0                
! Port Impedance         50               0                50               0                
7                              0.0472600784657875 59.9863197622525 0.987355039500457 -16.0286771118098 0.987355039500457 -16.0286771118098 0.0472837296058957 59.8510676275919 
! Gamma         0                0                0                0                
! Port Impedance         50               0                50               0                
7.1                            0.0478044993915157 59.8161167160205 0.987235512554982 -16.2516892587715 0.987235512554982 -16.2516892587715 0.0478287131481022 59.6786286565718 
! Gamma         0                0                0                0                
! Port Impedance         50               0                50               0                
7.2                            0.0483471690454018 59.6456524640794 0.987116817376443 -16.4746398336133 0.987116817376444 -16.4746398336133 0.0483719507459679 59.5059220700732 
! Gamma         0                0                0                0                
! Port Impedance         50               0                50               0                
7.3                            0.0488881192802235 59.474926078916  0.986998934719321 -16.6975308397663 0.986998934719321 -16.6975308397663 0.0489134741081307 59.3329469640109 
! Gamma         0                0                0                0                
! Port Impedance         50               0                50               0                
7.4                            0.0494273801531208 59.3039361873321 0.986881845371583 -16.9203641778104 0.986881845371584 -16.9203641778104 0.04945331314184 59.1597020002751 
! Gamma         0                0                0                0                
! Port Impedance         50               0                50               0                
7.5                            0.0499649800063628 59.1326810762655 0.986765530201229 -17.1431416501874 0.986765530201229 -17.1431416501874 0.0499914960346224 58.9861855122171 
! Gamma         0                0                0                0                
! Port Impedance         50               0                50               0                
7.6                            0.050500945545815 58.961158783512  0.986649970197732 -17.3658649657362 0.986649970197733 -17.3658649657362 0.0505280493336442 58.8123955949676 
! Gamma         0                0                0                0                
! Port Impedance         50               0                50               0                
7.7                            0.0510353019169573 58.7893671751909 0.986535146508846 -17.5885357440496 0.986535146508847 -17.5885357440496 0.0510629980226108 58.6383301824406 
! Gamma         0                0                0                0                
! Port Impedance         50               0                50               0                
7.8                            0.0515680727783384 58.6173040115895 0.986421040473188 -17.8111555196573 0.986421040473188 -17.8111555196573 0.0515963655960871 58.4639871126635 
! Gamma         0                0                0                0                
! Port Impedance         50               0                50               0                
7.9                            0.0520992803723923 58.4449670028285 0.986307633648983 -18.0337257460374 0.986307633648983 -18.0337257460374 0.0521281741311574 58.2893641828885 
! Gamma         0                0                0                0                
! Port Impedance         50               0                50               0                
8                              0.0526289455935689 58.2723538556319 0.986194907839332 -18.2562477994602 0.986194907839332 -18.2562477994602 0.0526584443563727 58.1144591957714 
! Gamma         0                0                0                0                
! Port Impedance         50               0                50               0                
8.1                            0.0531570880537566 58.0994623123294 0.986082845114306 -18.4787229826687 0.986082845114306 -18.4787229826687 0.05318719571796 57.9392699977571 
! Gamma         0                0                0                0                
! Port Impedance         50               0                50               0                
8.2                            0.053683726144998 57.9262901830951 0.985971427830179 -18.7011525284018 0.985971427830179 -18.7011525284018 0.0537144464432915 57.7637945106786 
! Gamma         0                0                0                0                
! Port Impedance         50               0                50               0                
8.3                            0.0542088770995151 57.7528353723035 0.98586063864606 -18.9235376027628 0.98586063864606 -18.9235376027628 0.0542402136016271 57.5880307574596 
! Gamma         0                0                0                0                
! Port Impedance         50               0                50               0                
8.4                            0.0547325570470803 57.5790958997846 0.985750460538169 -19.1458793084409 0.985750460538169 -19.1458793084409 0.0547645131621643 57.411976882705  
! Gamma         0                0                0                0                
! Port Impedance         50               0                50               0                
8.5                            0.0552547810697767 57.4050699176662 0.985640876811985 -19.3681786877897 0.985640876811985 -19.3681786877897 0.0552873600494367 57.2356311688746 
! Gamma         0                0                0                0                
! Port Impedance         50               0                50               0                
8.6                            0.0557755632542063 57.2307557234091 0.985531871112463 -19.5904367257677 0.985531871112463 -19.5904367257677 0.0558087681961202 57.0589920486492 
! Gamma         0                0                0                0                
! Port Impedance         50               0                50               0                
8.7                            0.0562949167412107 57.0561517695699 0.985423427432517 -19.8126543527477 0.985423427432517 -19.8126543527477 0.0563287505933066 56.8820581140283 
! Gamma         0                0                0                0                
! Port Impedance         50               0                50               0                
8.8                            0.0568128537731747 56.8812566707611 0.985315530119928 -20.0348324471983 0.985315530119928 -20.0348324471983 0.0568473193383196 56.704828122631  
! Gamma         0                0                0                0                
! Port Impedance         50               0                50               0                
8.9                            0.0573293857389923 56.70606920822   0.98520816388283 -20.2569718382448 0.985208163882831 -20.2569718382448 0.057364485680146 56.5273010016185 
! Gamma         0                0                0                0                
! Port Impedance         50               0                50               0                
9                              0.0578445232167722 56.5305883323497 0.98510131379393 -20.4790733081132 0.98510131379393 -20.4790733081132 0.0578802600625656 56.3494758496    
! Gamma         0                0                0                0                
! Port Impedance         50               0                50               0                
9.1                            0.0583582760143693 56.3548131635481 0.984994965293564 -20.701137594463 0.984994965293564 -20.701137594463 0.0583946521650606 56.1713519368437 
! Gamma         0                0                0                0                
! Port Impedance         50               0                50               0                
9.2                            0.0588706532078241 56.1787429916026 0.984889104191734 -20.9231653926135 0.984889104191734 -20.9231653926135 0.0589076709415909 55.992928704071  
! Gamma         0                0                0                0                
! Port Impedance         50               0                50               0                
9.3                            0.059381663177798 56.0023772738926 0.984783716669205 -21.1451573576679 0.984783716669205 -21.1451573576679 0.059419324657321 55.814205760079  
! Gamma         0                0                0                0                
! Port Impedance         50               0                50               0                
9.4                            0.0598913136440879 55.8257156326111 0.984678789277774 -21.3671141065411 0.984678789277774 -21.3671141065411 0.0599296209233852 55.635182878402  
! Gamma         0                0                0                0                
! Port Impedance         50               0                50               0                
9.5                            0.0603996116983078 55.6487578511874 0.984574308939795 -21.5890362198937 0.984574308939795 -21.5890362198937 0.0604385667297771 55.4558599931992 
! Gamma         0                0                0                0                
! Port Impedance         50               0                50               0                
9.6                            0.060906563834819 55.4715038700727 0.984470262947033 -21.8109242439781 0.984470262947033 -21.8109242439781 0.0609461684764479 55.2762371945265 
! Gamma         0                0                0                0                
! Port Impedance         50               0                50               0                
9.7                            0.061412175979994 55.2939537820222 0.98436663895893 -22.0327786924003 0.98436663895893 -22.0327786924003 0.061452432002699 55.0963147231322 
! Gamma         0                0                0                0                
! Port Impedance         50               0                50               0                
9.8                            0.0619164535198931 55.1161078269976 0.98426342500033 -22.2546000478002 0.98426342500033 -22.2546000478002 0.0619573626149485 54.9160929648955 
! Gamma         0                0                0                0                
! Port Impedance         50               0                50               0                
9.9                            0.0624194013264341 54.9379663867866 0.984160609458749 -22.4763887634564 0.984160609458749 -22.4763887634564 0.0624609651129554 54.7355724450105 
! Gamma         0                0                0                0                
! Port Impedance         50               0                50               0                
10                             0.062921023782131 54.7595299794308 0.984058181081216 -22.6981452648169 0.984058181081216 -22.6981452648169 0.0629632438145764 54.5547538220027 
! Gamma         0                0                0                0                
! Port Impedance         50               0                50               0                
10.1                           0.0634213248034766 54.5807992535348 0.983956128970749 -22.9198699509604 0.983956128970749 -22.9198699509604 0.0634642025791327 54.3736378816536 
! Gamma         0                0                0                0                
! Port Impedance         50               0                50               0                
10.2                           0.0639203078630401 54.4017749825193 0.983854442582515 -23.1415631959912 0.983854442582515 -23.1415631959912 0.0639638448294601 54.1922255308954 
! Gamma         0                0                0                0                
! Port Impedance         50               0                50               0                
10.3                           0.0644179760103489 54.2224580588727 0.983753111719693 -23.3632253503705 0.983753111719693 -23.3632253503705 0.0644621735727123 54.0105177917302 
! Gamma         0                0                0                0                
! Port Impedance         50               0                50               0                
10.4                           0.0649143318916222 54.0428494884438 0.983652126529102 -23.5848567421878 0.983652126529102 -23.5848567421878 0.064959191419986 53.8285157952163 
! Gamma         0                0                0                0                
! Port Impedance         50               0                50               0                
10.5                           0.0654093777684184 53.8629503848146 0.98355147749661 -23.806457678374 0.983551477496609 -23.806457678374 0.0654549006048331 53.6462207755597 
! Gamma         0                0                0                0                
! Port Impedance         50               0                50               0                
10.6                           0.0659031155352582 53.6827619637822 0.983451155442355 -24.0280284458609 0.983451155442355 -24.0280284458609 0.0659493030007226 53.4636340643399 
! Gamma         0                0                0                0                
! Port Impedance         50               0                50               0                
10.7                           0.0663955467362822 53.5022855379743 0.983351151515818 -24.2495693126874 0.983351151515818 -24.2495693126874 0.0664424001375118 53.2807570848943 
! Gamma         0                0                0                0                
! Port Impedance         50               0                50               0                
10.8                           0.0668866725809974 53.3215225116191 0.983251457190756 -24.4710805290565 0.983251457190756 -24.4710805290565 0.0669341932169841 53.0975913468796 
! Gamma         0                0                0                0                
! Port Impedance         50               0                50               0                
10.9                           0.0673764939591672 53.1404743754826 0.983152064260022 -24.6925623283448 0.983152064260022 -24.6925623283448 0.0674246831275091 52.9141384410261 
! Gamma         0                0                0                0                
! Port Impedance         50               0                50               0                
11                             0.0678650114548934 52.9591427019878 0.983052964830307 -24.9140149280669 0.983052964830307 -24.9140149280669 0.067913870457875 52.7304000340943 
! Gamma         0                0                0                0                
! Port Impedance         50               0                50               0                
11.1                           0.0683522253599403 52.7775291405209 0.982954151316794 -25.1354385307965 0.982954151316794 -25.1354385307965 0.0684017555103448 52.5463778640424 
! Gamma         0                0                0                0                
! Port Impedance         50               0                50               0                
11.2                           0.0688381356863444 52.5956354129325 0.982855616437769 -25.3568333250469 0.982855616437769 -25.3568333250469 0.0688883383129822 52.3620737354088 
! Gamma         0                0                0                0                
! Port Impedance         50               0                50               0                
11.3                           0.0693227421783547 52.4134633092356 0.98275735320918 -25.5781994861119 0.98275735320918 -25.5781994861118 0.0693736186312916 52.1774895149127 
! Gamma         0                0                0                0                
! Port Impedance         50               0                50               0                
11.4                           0.0698060443237424 52.2310146835026 0.982659354939179 -25.7995371768695 0.982659354939179 -25.7995371768695 0.0698575959792159 51.9926271272725 
! Gamma         0                0                0                0                
! Port Impedance         50               0                50               0                
11.5                           0.0702880413645212 52.0482914499597 0.982561615222637 -26.0208465485506 0.982561615222637 -26.0208465485506 0.0703402696295302 51.8074885512414 
! Gamma         0                0                0                0                
! Port Impedance         50               0                50               0                
11.6                           0.0707687323071119 51.8652955792779 0.982464127935663 -26.242127741473 0.982464127935663 -26.242127741473 0.0708216386236718 51.6220758158572 
! Gamma         0                0                0                0                
! Port Impedance         50               0                50               0                
11.7                           0.071248115931988 51.6820290950568 0.982366887230118 -26.4633808857435 0.982366887230118 -26.4633808857435 0.0713017017810393 51.4363909969023 
! Gamma         0                0                0                0                
! Port Impedance         50               0                50               0                
11.8                           0.0717261908028344 51.4984940704978 0.982269887528154 -26.6846061019288 0.982269887528154 -26.6846061019288 0.0717804577077975 51.2504362135693 
! Gamma         0                0                0                0                
! Port Impedance         50               0                50               0                
11.9                           0.0722029552752488 51.3146926252616 0.982173123516761 -26.9058035016978 0.982173123516761 -26.9058035016978 0.0722579048052186 51.0642136253268 
! Gamma         0                0                0                0                
! Port Impedance         50               0                50               0                
12                             0.0726784075050162 51.1306269225047 0.982076590142352 -27.1269731884348 0.982076590142352 -27.1269731884348 0.0727340412775897 50.8777254289791 
! Gamma         0                0                0                0                
! Port Impedance         50               0                50               0                
12.1                           0.0731525454559827 50.9462991660889 0.981980282605375 -27.3481152578263 0.981980282605375 -27.3481152578263 0.0732088651397157 50.6909738559123 
! Gamma         0                0                0                0                
! Port Impedance         50               0                50               0                
12.2                           0.073625366907555 50.761711597958  0.98188419635497 -27.5692297984227 0.981884196354969 -27.5692297984227 0.073682374224044 50.5039611695216 
! Gamma         0                0                0                0                
! Port Impedance         50               0                50               0                
12.3                           0.0740968694618487 50.5768664956753 0.981788327083662 -27.7903168921747 0.981788327083661 -27.7903168921747 0.0741545661874363 50.3166896628111 
! Gamma         0                0                0                0                
! Port Impedance         50               0                50               0                
12.4                           0.0745670505505095 50.3917661701137 0.981692670722114 -28.0113766149471 0.981692670722113 -28.0113766149471 0.0746254385176103 50.1291616561585 
! Gamma         0                0                0                0                
! Port Impedance         50               0                50               0                
12.5                           0.0750359074412268 50.2064129632948 0.981597223433921 -28.2324090370102 0.98159722343392 -28.2324090370102 0.0750949885392753 49.9413794952387 
! Gamma         0                0                0                0                
! Port Impedance         50               0                50               0                
12.6                           0.0755034372439613 50.0208092463664 0.981501981610465 -28.4534142235095 0.981501981610465 -28.4534142235095 0.0755632134199805 49.7533455490976 
! Gamma         0                0                0                0                
! Port Impedance         50               0                50               0                
12.7                           0.0759696369169038 49.8349574177151 0.981406941865832 -28.674392234916 0.981406941865832 -28.674392234916 0.0760301101756973 49.5650622083685 
! Gamma         0                0                0                0                
! Port Impedance         50               0                50               0                
12.8                           0.0764345032721843 49.6488599012052 0.981312101031779 -28.8953431274563 0.981312101031778 -28.8953431274563 0.0764956756761525 49.3765318836247 
! Gamma         0                0                0                0                
! Port Impedance         50               0                50               0                
12.9                           0.0768980329813463 49.4625191445377 0.981217456152771 -29.1162669535243 0.981217456152771 -29.1162669535243 0.0769599066499311 49.1877570038605 
! Gamma         0                0                0                0                
! Port Impedance         50               0                50               0                
13                             0.077360222580603 49.2759376177235 0.981123004481087 -29.3371637620759 0.981123004481087 -29.3371637620759 0.0774227996893634 48.9987400150927 
! Gamma         0                0                0                0                
! Port Impedance         50               0                50               0                
13.1                           0.0778210684758882 49.0891178116641 0.981028743471982 -29.5580335990057 0.981028743471982 -29.5580335990056 0.0778843512552122 48.8094833790776 
! Gamma         0                0                0                0                
! Port Impedance         50               0                50               0                
13.2                           0.0782805669477178 48.9020622368339 0.980934670778921 -29.7788765075085 0.980934670778921 -29.7788765075085 0.0783445576811744 48.6199895721343 
! Gamma         0                0                0                0                
! Port Impedance         50               0                50               0                
13.3                           0.0787387141558717 48.7147734220576 0.980840784248884 -29.9996925284251 0.980840784248883 -29.9996925284251 0.0788034151782096 48.4302610840704 
! Gamma         0                0                0                0                
! Port Impedance         50               0                50               0                
13.4                           0.0791955061439096 48.5272539133776 0.980747081917733 -30.2204817005728 0.980747081917732 -30.2204817005728 0.0792609198387082 48.2403004172013 
! Gamma         0                0                0                0                
! Port Impedance         50               0                50               0                
13.5                           0.0796509388435315 48.339506273006  0.980653562005657 -30.4412440610625 0.980653562005657 -30.4412440610625 0.0797170676405109 48.0501100854591 
! Gamma         0                0                0                0                
! Port Impedance         50               0                50               0                
13.6                           0.0801050080787923 48.1515330783551 0.980560222912682 -30.6619796456018 0.980560222912681 -30.6619796456018 0.0801718544507898 47.8596926135839 
! Gamma         0                0                0                0                
! Port Impedance         50               0                50               0                
13.7                           0.0805577095701813 47.9633369211419 0.980467063214246 -30.8826884887859 0.980467063214245 -30.8826884887858 0.0806252760298011 47.6690505363928 
! Gamma         0                0                0                0                
! Port Impedance         50               0                50               0                
13.8                           0.0810090389385743 47.7749204065617 0.980374081656856 -31.1033706243747 0.980374081656856 -31.1033706243746 0.0810773280345192 47.4781863981202 
! Gamma         0                0                0                0                
! Port Impedance         50               0                50               0                
13.9                           0.0814589917090671 47.5862861525262 0.980281277153808 -31.32402608556  0.980281277153807 -31.32402608556  0.0815280060221607 47.2871027518258 
! Gamma         0                0                0                0                
! Port Impedance         50               0                50               0                
14                             0.0819075633146988 47.3974367889618 0.980188648780971 -31.54465490522  0.98018864878097 -31.5446549052199 0.0819773054536057 47.0958021588643 
! Gamma         0                0                0                0                
! Port Impedance         50               0                50               0                
14.1                           0.0823547491000701 47.2083749571625 0.980096195772653 -31.7652571161632 0.980096195772653 -31.7652571161632 0.0824252216967247 46.9042871884126 
! Gamma         0                0                0                0                
! Port Impedance         50               0                50               0                
14.2                           0.0828005443248665 47.0191033091967 0.98000391751753 -31.9858327513627 0.980003917517529 -31.9858327513627 0.082871750029618 46.7125604170497 
! Gamma         0                0                0                0                
! Port Impedance         50               0                50               0                
14.3                           0.0832449441672888 46.8296245073596 0.979911813554638 -32.2063818441796 0.979911813554638 -32.2063818441796 0.0833168856437738 46.5206244283861 
! Gamma         0                0                0                0                
! Port Impedance         50               0                50               0                
14.4                           0.0836879437274  46.6399412236722 0.979819883569445 -32.4269044285776 0.979819883569444 -32.4269044285775 0.0837606236471508 46.3284818127377 
! Gamma         0                0                0                0                
! Port Impedance         50               0                50               0                
14.5                           0.0841295380303919 46.45005613942   0.979728127389975 -32.6474005393281 0.979728127389974 -32.647400539328 0.0842029590671911 46.1361351668416 
! Gamma         0                0                0                0                
! Port Impedance         50               0                50               0                
14.6                           0.0845697220297772 46.2599719447303 0.979636544983016 -32.867870212207 0.979636544983016 -32.867870212207 0.084643886853769 45.9435870936086 
! Gamma         0                0                0                0                
! Port Impedance         50               0                50               0                
14.7                           0.0850084906105117 46.0696913381836 0.979545136450382 -33.0883134841832 0.979545136450382 -33.0883134841832 0.0850834018820797 45.7508402019112 
! Gamma         0                0                0                0                
! Port Impedance         50               0                50               0                
14.8                           0.0854458385920506 45.8792170264581 0.979453902025239 -33.3087303935982 0.979453902025238 -33.3087303935982 0.0855214989554726 45.5578971064026 
! Gamma         0                0                0                0                
! Port Impedance         50               0                50               0                
14.9                           0.0858817607313429 45.6885517240027 0.979362842068503 -33.5291209803395 0.979362842068502 -33.5291209803395 0.085958172808233 45.3647604273639 
! Gamma         0                0                0                0                
! Port Impedance         50               0                50               0                
15                             0.0863162517257679 45.4976981527374 0.979271957065299 -33.7494852860055 0.979271957065298 -33.7494852860055 0.0863934181083172 45.1714327905773 
! Gamma         0                0                0                0                
! Port Impedance         50               0                50               0                
15.1                           0.0867493062160171 45.3066590417778 0.979181247621476 -33.969823354064 0.979181247621476 -33.969823354064 0.0868272294600423 44.9779168272224 
! Gamma         0                0                0                0                
! Port Impedance         50               0                50               0                
15.2                           0.087180918788924 45.1154371271825 0.979090714460194 -34.1901352300039 0.979090714460193 -34.1901352300038 0.0872596014067354 44.7842151737929 
! Gamma         0                0                0                0                
! Port Impedance         50               0                50               0                
15.3                           0.0876110839802454 44.9240351517203 0.979000358418559 -34.4104209614801 0.979000358418558 -34.4104209614801 0.0876905284333451 44.5903304720324 
! Gamma         0                0                0                0                
! Port Impedance         50               0                50               0                
15.4                           0.0880397962773972 44.7324558646557 0.978910180444331 -34.6306805984531 0.97891018044433 -34.630680598453 0.0881200049690174 44.3962653688856 
! Gamma         0                0                0                0                
! Port Impedance         50               0                50               0                
15.5                           0.0884670501221456 44.540702021552  0.97882018159268 -34.8509141933212 0.978820181592679 -34.8509141933212 0.088548025389638 44.2020225164651 
! Gamma         0                0                0                0                
! Port Impedance         50               0                50               0                
15.6                           0.0888928399132578 44.3487763840876 0.978730363023003 -35.071121801049 0.978730363023002 -35.0711218010489 0.088974584020345 44.0076045720296 
! Gamma         0                0                0                0                
! Port Impedance         50               0                50               0                
15.7                           0.0893171600091133 44.1566817198871 0.978640725995799 -35.2913034792883 0.978640725995798 -35.2913034792883 0.089399675138012 43.813014197974  
! Gamma         0                0                0                0                
! Port Impedance         50               0                50               0                
15.8                           0.0897400047302776 43.9644208023636 0.9785512718696  -35.5114592884959 0.978551271869599 -35.5114592884959 0.0898232929737049 43.6182540618277 
! Gamma         0                0                0                0                
! Port Impedance         50               0                50               0                
15.9                           0.0901613683620403 43.771996410572  0.978462002097949 -35.7315892920446 0.978462002097949 -35.7315892920446 0.0902454317151131 43.4233268362621 
! Gamma         0                0                0                0                
! Port Impedance         50               0                50               0                
16                             0.0905812451569203 43.5794113290707 0.978372918226444 -35.9516935563306 0.978372918226443 -35.9516935563305 0.0906660855089573 43.2282351991031 
! Gamma         0                0                0                0                
! Port Impedance         50               0                50               0                
16.1                           0.0909996293371364 43.3866683477928 0.978284021889821 -36.1717721508755 0.97828402188982 -36.1717721508754 0.0910852484633752 43.03298183335   
! Gamma         0                0                0                0                
! Port Impedance         50               0                50               0                
16.2                           0.0914165150970493 43.1937702619231 0.978195314809099 -36.3918251484248 0.978195314809099 -36.3918251484248 0.0915029146502859 42.8375694271978 
! Gamma         0                0                0                0                
! Port Impedance         50               0                50               0                
16.3                           0.0918318966055713 43.000719871782  0.978106798788771 -36.6118526250411 0.978106798788771 -36.6118526250411 0.0919190781077344 42.6420006740628 
! Gamma         0                0                0                0                
! Port Impedance         50               0                50               0                
16.4                           0.0922457680085493 42.8075199827141 0.978018475714042 -36.8318546601941 0.978018475714041 -36.8318546601941 0.0923337328422174 42.4462782726099 
! Gamma         0                0                0                0                
! Port Impedance         50               0                50               0                
16.5                           0.0926581234311183 42.6141734049816 0.977930347548119 -37.0518313368461 0.977930347548119 -37.051831336846 0.092746872830991 42.2504049267814 
! Gamma         0                0                0                0                
! Port Impedance         50               0                50               0                
16.6                           0.0930689569800289 42.4206829536606 0.977842416329549 -37.2717827415339 0.977842416329548 -37.2717827415339 0.0931584920243608 42.054383345826  
! Gamma         0                0                0                0                
! Port Impedance         50               0                50               0                
16.7                           0.0934782627459492 42.2270514485412 0.977754684169598 -37.4917089644477 0.977754684169597 -37.4917089644477 0.0935685843479561 41.858216244327  
! Gamma         0                0                0                0                
! Port Impedance         50               0                50               0                
16.8                           0.0938860348057399 42.0332817140286 0.977667153249681 -37.7116100995055 0.977667153249681 -37.7116100995054 0.0939771437049875 41.6619063422295 
! Gamma         0                0                0                0                
! Port Impedance         50               0                50               0                
16.9                           0.0942922672247067 41.8393765790469 0.977579825818837 -37.9314862444248 0.977579825818837 -37.9314862444248 0.0943841639784894 41.4654563648664 
! Gamma         0                0                0                0                
! Port Impedance         50               0                50               0                
17                             0.0946969540588271 41.6453388769434 0.977492704191239 -38.1513375007913 0.977492704191239 -38.1513375007913 0.0947896390335476 41.2688690429809 
! Gamma         0                0                0                0                
! Port Impedance         50               0                50               0                
17.1                           0.0951000893569546 41.4511714453935 0.977405790743757 -38.371163974124 0.977405790743757 -38.3711639741239 0.0951935627195112 41.0721471127473 
! Gamma         0                0                0                0                
! Port Impedance         50               0                50               0                
17.2                           0.0955016671629999 41.2568771263057 0.977319087913555 -38.5909657739375 0.977319087913555 -38.5909657739374 0.0955959288721925 40.8752933157878 
! Gamma         0                0                0                0                
! Port Impedance         50               0                50               0                
17.3                           0.0959016815180888 41.0624587657266 0.977232598195735 -38.8107430138018 0.977232598195734 -38.8107430138018 0.0959967313160497 40.6783103991855 
! Gamma         0                0                0                0                
! Port Impedance         50               0                50               0                
17.4                           0.0963001264626992 40.867919213745  0.977146324141013 -39.0304958113993 0.977146324141013 -39.0304958113992 0.0963959638663587 40.4812011154939 
! Gamma         0                0                0                0                
! Port Impedance         50               0                50               0                
17.5                           0.0966969960387748 40.6732613243948 0.977060268353443 -39.2502242885783 0.977060268353443 -39.2502242885782 0.096793620331369 40.2839682227413 
! Gamma         0                0                0                0                
! Port Impedance         50               0                50               0                
17.6                           0.0970922842918186 40.4784879555572 0.976974433488171 -39.4699285714056 0.97697443348817 -39.4699285714055 0.0971896945144468 40.0866144844312 
! Gamma         0                0                0                0                
! Port Impedance         50               0                50               0                
17.7                           0.0974859852729636 40.283601968861  0.97688882224923 -39.6896087902151 0.976888822249229 -39.689608790215 0.0975841802162049 39.8891426695366 
! Gamma         0                0                0                0                
! Port Impedance         50               0                50               0                
17.8                           0.097878093041024 40.0886062295807 0.976803437387373 -39.9092650796552 0.976803437387373 -39.9092650796551 0.0979770712366179 39.6915555524905 
! Gamma         0                0                0                0                
! Port Impedance         50               0                50               0                
17.9                           0.0982686016645239 39.8935036065337 0.976718281697937 -40.1288975787331 0.976718281697937 -40.1288975787331 0.0983683613771249 39.4938559131699 
! Gamma         0                0                0                0                
! Port Impedance         50               0                50               0                
18                             0.0986575052237062 39.6982969719741 0.976633358018746 -40.3485064308579 0.976633358018746 -40.3485064308578 0.098758044442718 39.2960465368749 
! Gamma         0                0                0                0                
! Port Impedance         50               0                50               0                
18.1                           0.0990447978125204 39.5029892014851 0.976548669228043 -40.5680917838804 0.976548669228043 -40.5680917838803 0.0991461142440167 39.0981302143019 
! Gamma         0                0                0                0                
! Port Impedance         50               0                50               0                
18.2                           0.0994304735405897 39.3075831738685 0.976464218242461 -40.7876537901321 0.976464218242461 -40.7876537901321 0.0995325645993294 38.9001097415109 
! Gamma         0                0                0                0                
! Port Impedance         50               0                50               0                
18.3                           0.0998145265351578 39.1120817710317 0.976380008015023 -41.0071926064616 0.976380008015022 -41.0071926064616 0.0999173893366998 38.7019879198871 
! Gamma         0                0                0                0                
! Port Impedance         50               0                50               0                
18.4                           0.100196950943015 38.916487877872  0.976296041533171 -41.2267083942692 0.976296041533171 -41.2267083942691 0.10030058229594 38.5037675560967 
! Gamma         0                0                0                0                
! Port Impedance         50               0                50               0                
18.5                           0.100577740932403 38.7208043821582 0.976212321816834 -41.4462013195397 0.976212321816833 -41.4462013195397 0.100682137330649 38.3054514620366 
! Gamma         0                0                0                0                
! Port Impedance         50               0                50               0                
18.6                           0.100956890694901 38.5250341744093 0.976128851916515 -41.665671552874 0.976128851916515 -41.665671552874 0.101062048310216 38.1070424547776 
! Gamma         0                0                0                0                
! Port Impedance         50               0                50               0                
18.7                           0.101334394447289 38.3291801477704 0.976045634911418 -41.8851192695182 0.976045634911418 -41.8851192695182 0.10144030912181 37.9085433565027 
! Gamma         0                0                0                0                
! Port Impedance         50               0                50               0                
18.8                           0.101710246433395 38.1332451978859 0.975962673907598 -42.1045446493917 0.975962673907598 -42.1045446493917 0.101816913672354 37.7099569944381 
! Gamma         0                0                0                0                
! Port Impedance         50               0                50               0                
18.9                           0.102084440925911 37.9372322227691 0.975879972036139 -42.3239478771136 0.975879972036138 -42.3239478771135 0.102191855890482 37.5112862007795 
! Gamma         0                0                0                0                
! Port Impedance         50               0                50               0                
19                             0.102456972228204 37.7411441226696 0.975797532451359 -42.5433291420274 0.975797532451358 -42.5433291420273 0.102565129728486 37.3125338126113 
! Gamma         0                0                0                0                
! Port Impedance         50               0                50               0                
19.1                           0.102827834676092 37.5449837999375 0.975715358329047 -42.7626886382247 0.975715358329047 -42.7626886382246 0.10293672916424 37.1137026718205 
! Gamma         0                0                0                0                
! Port Impedance         50               0                50               0                
19.2                           0.103197022639606 37.3487541588842 0.975633452864721 -42.9820265645671 0.975633452864721 -42.982026564567 0.103306648203112 36.9147956250048 
! Gamma         0                0                0                0                
! Port Impedance         50               0                50               0                
19.3                           0.103564530524733 37.1524581056415 0.97555181927191 -43.2013431247069 0.97555181927191 -43.2013431247069 0.103674880879862 36.7158155233745 
! Gamma         0                0                0                0                
! Port Impedance         50               0                50               0                
19.4                           0.10393035277513 36.956098548016  0.975470460780469 -43.4206385271068 0.975470460780469 -43.4206385271068 0.104041421260517 36.5167652226491 
! Gamma         0                0                0                0                
! Port Impedance         50               0                50               0                
19.5                           0.104294483873824 36.7596783953424 0.975389380634907 -43.6399129850577 0.975389380634906 -43.6399129850577 0.104406263444234 36.3176475829477 
! Gamma         0                0                0                0                
! Port Impedance         50               0                50               0                
19.6                           0.104656918344891 36.5632005583329 0.975308582092747 -43.859166716696 0.975308582092746 -43.8591667166959 0.104769401565145 36.1184654686748 
! Gamma         0                0                0                0                
! Port Impedance         50               0                50               0                
19.7                           0.105017650755106 36.3666679489242 0.975228068422908 -44.078399945019 0.975228068422907 -44.0783999450189 0.105130829794182 35.9192217483992 
! Gamma         0                0                0                0                
! Port Impedance         50               0                50               0                
19.8                           0.105376675715579 36.1700834801215 0.975147842904107 -44.2976128979002 0.975147842904107 -44.2976128979001 0.105490542340889 35.7199192947291 
! Gamma         0                0                0                0                
! Port Impedance         50               0                50               0                
19.9                           0.105733987883367 35.9734500658402 0.975067908823285 -44.5168058081023 0.975067908823285 -44.5168058081022 0.105848533455208 35.5205609841807 
! Gamma         0                0                0                0                
! Port Impedance         50               0                50               0                
20                             0.106089581963064 35.7767706207449 0.97498826947405 -44.73597891329  0.97498826947405 -44.73597891329  0.106204797429256 35.3211496970424 
! Gamma         -0               -0               0                0                
! Port Impedance         50               0                50               0                
