! Touchstone file exported from HFSS 2026.1.0
!        File:           C:/ffzhzh/LocalFiles/Ansys_Project_Files/temp_train_BSMRDL_495_1783014088_53980.aedt
!        Generated:      01:42:51 AM Jul  3, 2026
!        Design:         BSMRDL
!        Project:        temp_train_BSMRDL_495_1783014088_53980
!
! Variables:
!        h_bsmrdl = 2.66um
!        h_ox = 20um
!        h_rdl = 5um
!        h_sub = 80um
!        h_tmrdl = 5um
!        h_tsv = 80um
!        h_via = 3um
!        l_bsmrdl = 494.59um
!        l_sub = 894.59um
!        l_tmrdl = 200um
!        m_sub = 200um
!        pitch = 42.67um
!        r_tsv = 6um
!        s_tmrdl = 10um
!        w_bsmrdl = 25.35um
!        w_sub = 500um
!        w_tmrdl = 12um
!        x_tsv_center1 = 206um
!        x_tsv_center2 = 725.94um
!        x_tsv_center3 = 937.94um
!        x_tsv_center4 = 1457.88um
!        x_tsv_center5 = 1669.88um
!        x_tsv_center6 = 2189.82um
!
# GHz S MA R 50.000000
! Terminal data exported
! Port[1] = BSM_RDL1_1_T1
! Port[2] = BSM_RDL1_1_T2
0.1                            0.00335407154496454 29.7918343487008 0.997093219308315 -0.18554115453892 0.997093219308316 -0.185541154538921 0.00335407343005518 29.7917628001502 
! Gamma         0                0                0                0                
! Port Impedance         50               0                50               0                
0.2                            0.00448371214985068 46.9410220131574 0.996953522997642 -0.367811659494722 0.996953522997644 -0.367811659494748 0.00448372177579091 46.9410212963998 
! Gamma         0                0                0                0                
! Port Impedance         50               0                50               0                
0.3                            0.00580568170588892 55.8948579712773 0.996777735777665 -0.54560519886183 0.996777735777666 -0.545605198861899 0.00580571860856851 55.8947737034021 
! Gamma         0                0                0                0                
! Port Impedance         50               0                50               0                
0.4                            0.00715921639663221 61.1579577231666 0.996604936482292 -0.719601976501907 0.996604936482294 -0.71960197650202 0.00715928766862583 61.1576315178589 
! Gamma         0                0                0                0                
! Port Impedance         50               0                50               0                
0.5                            0.00850715322657258 64.6854734201442 0.996453054525087 -0.891093170943734 0.996453054525088 -0.89109317094388 0.00850725453320534 64.6848383643198 
! Gamma         0                0                0                0                
! Port Impedance         50               0                50               0                
0.6                            0.00984787406828427 67.280016181434  0.996325377703403 -1.06117566381241 0.996325377703403 -1.06117566381258 0.00984799655941995 67.2790698117727 
! Gamma         0                0                0                0                
! Port Impedance         50               0                50               0                
0.7                            0.0111864904049894 69.2986904758385 0.996218830911049 -1.2305674278209 0.996218830911048 -1.23056742782107 0.0111866253150837 69.2974580448525 
! Gamma         0                0                0                0                
! Port Impedance         50               0                50               0                
0.8                            0.0125273384040232 70.9212972456269 0.996128725731847 -1.39968187936646 0.996128725731846 -1.39968187936664 0.0125274787802483 70.919810074856  
! Gamma         0                0                0                0                
! Port Impedance         50               0                50               0                
0.9                            0.0138728923003128 72.251114285627  0.996050678025463 -1.56873872814085 0.996050678025461 -1.56873872814103 0.0138730331951541 72.2494005968804 
! Gamma         0                0                0                0                
! Port Impedance         50               0                50               0                
1                              0.0152241946983634 73.3545252239164 0.99598113799546 -1.73784629633335 0.995981137995458 -1.73784629633352 0.0152243328188952 73.3526075290841 
! Gamma         0                0                0                0                
! Port Impedance         50               0                50               0                
1.1                            0.0165814196775925 74.2778216082106 0.995917391924412 -1.90705209404118 0.99591739192441 -1.90705209404134 0.0165815529475728 74.2757168235097 
! Gamma         0                0                0                0                
! Port Impedance         50               0                50               0                
1.2                            0.0179442791749587 75.0550686406545 0.99585741239245 -2.07637157108492 0.995857412392448 -2.07637157108507 0.0179444063637137 75.0527890630957 
! Gamma         0                0                0                0                
! Port Impedance         50               0                50               0                
1.3                            0.019312271007304 75.712220945064  0.995799694946147 -2.24580388862744 0.995799694946145 -2.24580388862758 0.019312391453795 75.7097753297274 
! Gamma         0                0                0                0                
! Port Impedance         50               0                50               0                
1.4                            0.0206848179625749 76.269518063773  0.995743121697833 -2.41534040743968 0.99574312169783 -2.41534040743981 0.0206849313820183 76.26691254674   
! Gamma         0                0                0                0                
! Port Impedance         50               0                50               0                
1.5                            0.0220613408178069 76.7430066906716 0.995686857477916 -2.58496918815167 0.995686857477913 -2.58496918815179 0.0220614471700784 76.7402455072332 
! Gamma         0                0                0                0                
! Port Impedance         50               0                50               0                
1.6                            0.0234412936576446 77.1455727809265 0.995630273746516 -2.75467732977991 0.995630273746513 -2.75467732978002 0.0234413930590772 77.1426587998843 
! Gamma         0                0                0                0                
! Port Impedance         50               0                50               0                
1.7                            0.0248241785370467 77.4876735690156 0.995572893681992 -2.92445214240856 0.995572893681989 -2.92445214240867 0.0248242712017895 77.4846086813958 
! Gamma         0                0                0                0                
! Port Impedance         50               0                50               0                
1.8                            0.0262095492615402 77.7778730181192 0.995514352696255 -3.09428169473757 0.995514352696252 -3.09428169473766 0.0262096354627603 77.7746584169502 
! Gamma         0                0                0                0                
! Port Impedance         50               0                50               0                
1.9                            0.0275970097370718 78.0232420793728 0.995454369971966 -3.264155030211  0.995454369971962 -3.26415503021109 0.0275970897813874 78.0198784601724 
! Gamma         0                0                0                0                
! Port Impedance         50               0                50               0                
2                              0.0289862098641435 78.229662737632  0.995392727824333 -3.43406221144864 0.995392727824329 -3.43406221144873 0.0289862840748583 78.2261504419527 
! Gamma         0                0                0                0                
! Port Impedance         50               0                50               0                
2.1                            0.0303768405582925 78.4020619034369 0.995329256620794 -3.60399427973743 0.995329256620791 -3.60399427973751 0.0303769092644798 78.3984010217521 
! Gamma         0                0                0                0                
! Port Impedance         50               0                50               0                
2.2                            0.0317686287065591 78.5445932341361 0.995263823665997 -3.77394317640812 0.995263823665994 -3.77394317640819 0.0317686922360347 78.5407836797303 
! Gamma         0                0                0                0                
! Port Impedance         50               0                50               0                
2.3                            0.0331613324467471 78.6607797709405 0.995196324934565 -3.94390165098351 0.995196324934562 -3.94390165098357 0.0331613911216246 78.6568213330973 
! Gamma         0                0                0                0                
! Port Impedance         50               0                50               0                
2.4                            0.0345547369288721 78.753626757     0.995126678865067 -4.11386316891503 0.995126678865063 -4.11386316891509 0.0345547910628296 78.7495191393667 
! Gamma         0                0                0                0                
! Port Impedance         50               0                50               0                
2.5                            0.0359486505993224 78.8257115448094 0.995054821658445 -4.28382182510695 0.995054821658442 -4.283821825107  0.0359487004959983 78.8214543931124 
! Gamma         0                0                0                0                
! Port Impedance         50               0                50               0                
2.6                            0.0373429019891926 78.8792557504578 0.994980703684075 -4.4537722658361 0.994980703684071 -4.45377226583614 0.0373429479413192 78.874848672539  
! Gamma         0                0                0                0                
! Port Impedance         50               0                50               0                
2.7                            0.0387373369617026 78.916183544181  0.994904286708356 -4.62370961976959 0.994904286708353 -4.62370961976964 0.0387373792507161 78.9116261244746 
! Gamma         0                0                0                0                
! Port Impedance         50               0                50               0                
2.8                            0.040131816364384 78.9381690363914 0.994825541739396 -4.79362943781329 0.994825541739393 -4.79362943781333 0.0401318552603358 78.9334608463631 
! Gamma         0                0                0                0                
! Port Impedance         50               0                50               0                
2.9                            0.0415262140313478 78.946675028578  0.994744447336966 -4.96352764107214 0.994744447336962 -4.96352764107218 0.0415262497929983 78.9418156342234 
! Gamma         0                0                0                0                
! Port Impedance         50               0                50               0                
3                              0.0429204150847959 78.9429848822991 0.994660988276723 -5.1334004760325 0.994660988276719 -5.13340047603252 0.0429204479598141 78.9379738494926 
! Gamma         0                0                0                0                
! Port Impedance         50               0                50               0                
3.1                            0.044314314490507 78.928228870055  0.994575154486249 -5.30324447605349 0.994575154486245 -5.30324447605352 0.0443143447157238 78.9230657683284 
! Gamma         0                0                0                0                
! Port Impedance         50               0                50               0                
3.2                            0.0457078158279805 78.903406075813  0.994486940191242 -5.47305642830559 0.994486940191238 -5.47305642830561 0.045707843629662 78.8980904809829 
! Gamma         0                0                0                0                
! Port Impedance         50               0                50               0                
3.3                            0.0471008302416221 78.8694026863691 0.99439634322534 -5.64283334537748 0.994396343225337 -5.64283334537749 0.0471008558357435 78.8639341823222 
! Gamma         0                0                0                0                
! Port Impedance         50               0                50               0                
3.4                            0.0484932755445046 78.8270073401501 0.994303364468261 -5.812572440866  0.994303364468258 -5.81257244086601 0.0484932991370104 78.8213855200137 
! Gamma         0                0                0                0                
! Port Impedance         50               0                50               0                
3.5                            0.049885075450737 78.7769240647069 0.994208007385222 -5.9822711083558 0.994208007385218 -5.98227110835581 0.0498850972377819 78.7711485315717 
! Gamma         0                0                0                0                
! Port Impedance         50               0                50               0                
3.6                            0.0512761589163374 78.7197832285796 0.994110277646823 -6.15192690328003 0.99411027764682 -6.15192690328004 0.0512761790845034 78.7138535958974 
! Gamma         0                0                0                0                
! Port Impedance         50               0                50               0                
3.7                            0.0526664595717714 78.6561508504058 0.994010182813263 -6.3215375272293 0.99401018281326 -6.3215375272293 0.0526664782982621 78.6500667421543 
! Gamma         0                0                0                0                
! Port Impedance         50               0                50               0                
3.8                            0.0540559152320635 78.5865365428284 0.993907732070276 -6.49110081434171 0.993907732070272 -6.49110081434171 0.0540559326848749 78.580297593511  
! Gamma         0                0                0                0                
! Port Impedance         50               0                50               0                
3.9                            0.0554444674726805 78.5114003169722 0.993802936006921 -6.66061471946351 0.993802936006917 -6.66061471946351 0.0554444838107513 78.5050061715017 
! Gamma         0                0                0                0                
! Port Impedance         50               0                50               0                
4                              0.0568320612612993 78.4311584319825 0.993695806427415 -6.83007730781796 0.993695806427411 -6.83007730781795 0.0568320766346426 78.4246087454866 
! Gamma         0                0                0                0                
! Port Impedance         50               0                50               0                
4.1                            0.0582186446371617 78.3461884410665 0.993586356190819 -6.99948674596066 0.993586356190816 -6.99948674596065 0.0582186591869806 78.3394828786418 
! Gamma         0                0                0                0                
! Port Impedance         50               0                50               0                
4.2                            0.0596041684310398 78.2568335588781 0.993474599073631 -7.16884129383426 0.993474599073627 -7.16884129383425 0.0596041822898314 78.2499717953127 
! Gamma         0                0                0                0                
! Port Impedance         50               0                50               0                
4.3                            0.0609885860199414 78.1634064535866 0.993360549651325 -7.33813929776392 0.993360549651321 -7.3381392977639 0.0609885993115895 78.1563881730654 
! Gamma         0                0                0                0                
! Port Impedance         50               0                50               0                
4.4                            0.0623718531115962 78.0661925495127 0.993244223195647 -7.50737918425961 0.993244223195644 -7.50737918425959 0.0623718659514578 78.0590174453164 
! Gamma         0                0                0                0                
! Port Impedance         50               0                50               0                
4.5                            0.0637539275545353 77.9654529119811 0.993125635585076 -7.67655945451151 0.993125635585073 -7.67655945451149 0.0637539400495219 77.9581206861849 
! Gamma         0                0                0                0                
! Port Impedance         50               0                50               0                
4.6                            0.0651347691702089 77.8614267743837 0.993004803226346 -7.84567867948206 0.993004803226343 -7.84567867948203 0.065134781418866 77.8539371375627 
! Gamma         0                0                0                0                
! Port Impedance         50               0                50               0                
4.7                            0.0665143396041288 77.7543337578714 0.992881742985319 -8.01473549551256 0.992881742985316 -8.01473549551254 0.0665143516967152 77.7466864288144 
! Gamma         0                0                0                0                
! Port Impedance         50               0                50               0                
4.8                            0.0678926021934664 77.6443758261849 0.992756472125798 -8.18372860037469 0.992756472125795 -8.18372860037467 0.0678926142120356 77.6365705316193 
! Gamma         0                0                0                0                
! Port Impedance         50               0                50               0                
4.9                            0.0692695218489164 77.5317390115911 0.992629008255108 -8.35265674970714 0.992629008255105 -8.35265674970711 0.0692695338674015 77.5237754859203 
! Gamma         0                0                0                0                
! Port Impedance         50               0                50               0                
5                              0.0706450649489541 77.4165949424499 0.992499369275505 -8.52151875378666 0.992499369275502 -8.52151875378663 0.0706450770332578 77.4084729275033 
! Gamma         0                0                0                0                
! Port Impedance         50               0                50               0                
5.1                            0.0720191992448807 77.2991021984    0.992367573340603 -8.69031347459005 0.9923675733406  -8.69031347459002 0.0720192114529726 77.2908214431955 
! Gamma         0                0                0                0                
! Port Impedance         50               0                50               0                
5.2                            0.0733918937752825 77.1794075153523 0.992233638816155 -8.85903982310965 0.992233638816152 -8.85903982310962 0.0733919061573035 77.1709677758719 
! Gamma         0                0                0                0                
! Port Impedance         50               0                50               0                
5.3                            0.0747631187887159 77.0576468592962 0.992097584244642 -9.02769675689058 0.992097584244639 -9.02769675689055 0.0747631313870918 77.0490478982732 
! Gamma         0                0                0                0                
! Port Impedance         50               0                50               0                
5.4                            0.0761328456736003 76.9339463852351 0.991959428313192 -9.19628327776212 0.991959428313189 -9.19628327776209 0.0761328585231645 76.925187971952  
! Gamma         0                0                0                0                
! Port Impedance         50               0                50               0                
5.5                            0.0775010468944357 76.8084232953026 0.991819189824449 -9.36479842973972 0.991819189824446 -9.36479842973969 0.0775010600225629 76.7995052054002 
! Gamma         0                0                0                0                
! Port Impedance         50               0                50               0                
5.6                            0.0788676959335841 76.68118660819   0.991676887670039 -9.53324129707727 0.991676887670036 -9.53324129707723 0.0788677093603337 76.6721086234853 
! Gamma         0                0                0                0                
! Port Impedance         50               0                50               0                
5.7                            0.0802327672379528 76.5523378503818 0.991532540806374 -9.7016110024521 0.991532540806371 -9.70161100245206 0.0802327809762242 76.5430997586951 
! Gamma         0                0                0                0                
! Port Impedance         50               0                50               0                
5.8                            0.0815962361700074 76.421971678308  0.991386168232534 -9.86990670526764 0.991386168232531 -9.8699067052676 0.0815962502257063 76.4125732732974 
! Gamma         0                0                0                0                
! Port Impedance         50               0                50               0                
5.9                            0.0829580789626161 76.2901764393327 0.991237788970025 -10.0381276000607 0.991237788970022 -10.0381276000606 0.0829580933348322 76.2806175203357 
! Gamma         0                0                0                0                
! Port Impedance         50               0                50               0                
6                              0.0843182726772912 76.1570346784832 0.991087422044242 -10.2062729150019 0.991087422044239 -10.2062729150019 0.0843182873584873 76.1473150503643 
! Gamma         0                0                0                0                
! Port Impedance         50               0                50               0                
6.1                            0.0856767951654509 76.0226235969489 0.990935086467468 -10.37434191048  0.990935086467465 -10.37434191048  0.0856768101416636 76.0127430699527 
! Gamma         0                0                0                0                
! Port Impedance         50               0                50               0                
6.2                            0.0870336250323701 75.8870154676295 0.99078080122329 -10.5423338777609 0.990780801223287 -10.5423338777608 0.0870336402834213 75.8769738572385 
! Gamma         0                0                0                0                
! Port Impedance         50               0                50               0                
6.3                            0.088388741603533 75.7502780123645 0.990624585252304 -10.7102481377147 0.990624585252301 -10.7102481377147 0.0883887571032528 75.7400751391608 
! Gamma         0                0                0                0                
! Port Impedance         50               0                50               0                
6.4                            0.089742124893135 75.6124747449125 0.990466457439012 -10.8780840396043 0.990466457439009 -10.8780840396042 0.0897421406095945 75.6021104344429 
! Gamma         0                0                0                0                
! Port Impedance         50               0                50               0                
6.5                            0.0910937555745132 75.4736652832677 0.990306436599814 -11.0458409599294 0.990306436599812 -11.0458409599293 0.0910937714702679 75.463139365912  
! Gamma         0                0                0                0                
! Port Impedance         50               0                50               0                
6.6                            0.0924436149523108 75.3339056344759 0.990144541472027 -11.2135183013225 0.990144541472025 -11.2135183013225 0.0924436309846533 75.3232179453171 
! Gamma         0                0                0                0                
! Port Impedance         50               0                50               0                
6.7                            0.0937916849362066 75.193248454747  0.989980790703838 -11.3811154914913 0.989980790703836 -11.3811154914913 0.0937917010574291 75.1823988334435 
! Gamma         0                0                0                0                
! Port Impedance         50               0                50               0                
6.8                            0.0951379480160606 75.0517432873411 0.989815202845151 -11.5486319822046 0.989815202845149 -11.5486319822045 0.0951379641737249 75.0407315780011 
! Gamma         0                0                0                0                
! Port Impedance         50               0                50               0                
6.9                            0.0964823872383419 74.9094367804259 0.989647796339248 -11.7160672483185 0.989647796339246 -11.7160672483185 0.0964824033755581 74.8982628314822 
! Gamma         0                0                0                0                
! Port Impedance         50               0                50               0                
7                              0.0978249861837267 74.7663728868572 0.989478589515227 -11.8834207868405 0.989478589515225 -11.8834207868404 0.0978250022394391 74.7550365509434 
! Gamma         0                0                0                0                
! Port Impedance         50               0                50               0                
7.1                            0.0991657289457621 74.6225930476223 0.989307600581158 -12.0506921160281 0.989307600581155 -12.050692116028 0.0991657448550412 74.6110941814494 
! Gamma         0                0                0                0                
! Port Impedance         50               0                50               0                
7.2                            0.100504600110507 74.4781363604946 0.989134847617918 -12.2178807745208 0.989134847617915 -12.2178807745207 0.100504615804848 74.4664748247283 
! Gamma         0                0                0                0                
! Port Impedance         50               0                50               0                
7.3                            0.101841584737069 74.3330397352851 0.988960348573666 -12.3849863205035 0.988960348573664 -12.3849863205035 0.101841600144695 74.3212153944231 
! Gamma         0                0                0                0                
! Port Impedance         50               0                50               0                
7.4                            0.103176668338976 74.1873380369266 0.988784121258912 -12.5520083308993 0.98878412125891 -12.5520083308992 0.103176683385143 74.1753507591764 
! Gamma         0                0                0                0                
! Port Impedance         50               0                50               0                
7.5                            0.104509836866299 74.0410642175013 0.988606183342157 -12.7189464005902 0.988606183342154 -12.7189464005902 0.104509851473613 74.0289138746574 
! Gamma         0                0                0                0                
! Port Impedance         50               0                50               0                
7.6                            0.105841076688506 73.8942494382048 0.988426552346052 -12.8858001416655 0.98842655234605 -12.8858001416655 0.10584109077723 73.8819359055264 
! Gamma         0                0                0                0                
! Port Impedance         50               0                50               0                
7.7                            0.107170374577961 73.7469231821396 0.988245245644075 -13.0525691826955 0.988245245644073 -13.0525691826955 0.107170388066335 73.7344463382278 
! Gamma         0                0                0                0                
! Port Impedance         50               0                50               0                
7.8                            0.10849771769405 73.5991133587433 0.988062280457664 -13.2192531680301 0.988062280457662 -13.2192531680301 0.108497730498608 73.5864730854182 
! Gamma         0                0                0                0                
! Port Impedance         50               0                50               0                
7.9                            0.109823093567893 73.4508464005729 0.987877673853801 -13.3858517571218 0.987877673853799 -13.3858517571217 0.109823105603778 73.4380425827506 
! Gamma         0                0                0                0                
! Port Impedance         50               0                50               0                
8                              0.111146490087594 73.3021473530994 0.987691442743009 -13.5523646238713 0.987691442743007 -13.5523646238712 0.111146501268877 73.2891798786686 
! Gamma         0                0                0                0                
! Port Impedance         50               0                50               0                
8.1                            0.112467895484018 73.1530399581015 0.987503603877752 -13.7187914559961 0.98750360387775 -13.718791455996 0.112467905724013 73.1399087178002 
! Gamma         0                0                0                0                
! Port Impedance         50               0                50               0                
8.2                            0.113787298317048 73.0035467311915 0.987314173851193 -13.8851319544209 0.987314173851191 -13.8851319544208 0.113787307528626 72.9902516184832 
! Gamma         0                0                0                0                
! Port Impedance         50               0                50               0                
8.3                            0.11510468746232 72.8536890339559 0.987123169096303 -14.0513858326887 0.987123169096301 -14.0513858326886 0.11510469555822 72.8402299449056 
! Gamma         0                0                0                0                
! Port Impedance         50               0                50               0                
8.4                            0.116420052098394 72.703487141147  0.986930605885305 -14.2175528163932 0.986930605885303 -14.2175528163932 0.116420058991532 72.6898639742979 
! Gamma         0                0                0                0                
! Port Impedance         50               0                50               0                
8.5                            0.117733381694353 72.5529603033243 0.986736500329405 -14.3836326426313 0.986736500329404 -14.3836326426312 0.117733387298124 72.5391729595737 
! Gamma         0                0                0                0                
! Port Impedance         50               0                50               0                
8.6                            0.119044665997811 72.4021268053044 0.986540868378829 -14.5496250594744 0.986540868378828 -14.5496250594744 0.119044670226389 72.3881751877801 
! Gamma         0                0                0                0                
! Port Impedance         50               0                50               0                
8.7                            0.120353895023312 72.2510040207478 0.986343725823113 -14.7155298254605 0.986343725823111 -14.7155298254605 0.120353897791941 72.2368880346845 
! Gamma         0                0                0                0                
! Port Impedance         50               0                50               0                
8.8                            0.121661059041106 72.0996084631819 0.986145088291647 -14.8813467091036 0.986145088291645 -14.8813467091035 0.12166106026639 72.0853280157981 
! Gamma         0                0                0                0                
! Port Impedance         50               0                50               0                
8.9                            0.122966148566293 71.9479558337314 0.985944971254453 -15.0470754884219 0.985944971254451 -15.0470754884219 0.122966148166472 71.9335108341063 
! Gamma         0                0                0                0                
! Port Impedance         50               0                50               0                
9                              0.124269154348312 71.7960610658049 0.985743390023177 -15.2127159504849 0.985743390023175 -15.2127159504848 0.12426915224354 71.7814514247562 
! Gamma         0                0                0                0                
! Port Impedance         50               0                50               0                
9.1                            0.125570067360785 71.6439383669647 0.985540359752279 -15.3782678909761 0.985540359752278 -15.378267890976 0.125570063473389 71.6291639969267 
! Gamma         0                0                0                0                
! Port Impedance         50               0                50               0                
9.2                            0.126868878791676 71.4916012581869 0.985335895440413 -15.5437311137749 0.985335895440411 -15.5437311137749 0.126868873046417 71.4766620730891 
! Gamma         0                0                0                0                
! Port Impedance         50               0                50               0                
9.3                            0.128165580033789 71.3390626107022 0.985130011931967 -15.7091054305539 0.985130011931966 -15.7091054305539 0.128165572358103 71.3239585258492 
! Gamma         0                0                0                0                
! Port Impedance         50               0                50               0                
9.4                            0.129460162675566 71.1863346805908 0.984922723918775 -15.8743906603933 0.984922723918773 -15.8743906603932 0.129460152999806 71.1710656125428 
! Gamma         0                0                0                0                
! Port Impedance         50               0                50               0                
9.5                            0.130752618492201 71.033429141292  0.984714045941955 -16.0395866294106 0.984714045941954 -16.0395866294106 0.13075260674986 71.0179950077459 
! Gamma         0                0                0                0                
! Port Impedance         50               0                50               0                
9.6                            0.132042939437044 70.8803571141734 0.984503992393891 -16.2046931704073 0.984503992393889 -16.2046931704073 0.132042925564974 70.8647578338457 
! Gamma         0                0                0                0                
! Port Impedance         50               0                50               0                
9.7                            0.133331117633299 70.7271291972966 0.984292577520324 -16.3697101225293 0.984292577520323 -16.3697101225293 0.133331101571914 70.7113646898071 
! Gamma         0                0                0                0                
! Port Impedance         50               0                50               0                
9.8                            0.134617145366007 70.5737554925008 0.984079815422557 -16.5346373309433 0.984079815422555 -16.5346373309432 0.134617127059479 70.5578256782578 
! Gamma         0                0                0                0                
! Port Impedance         50               0                50               0                
9.9                            0.135901015074303 70.420245630921  0.983865720059748 -16.6994746465273 0.983865720059747 -16.6994746465273 0.135900994470743 70.4041504310073 
! Gamma         0                0                0                0                
! Port Impedance         50               0                50               0                
10                             0.137182719343946 70.2666087970432 0.983650305251296 -16.8642219255758 0.983650305251294 -16.8642219255758 0.137182696395572 70.2503481331045 
! Gamma         0                0                0                0                
! Port Impedance         50               0                50               0                
10.1                           0.138462250900112 70.1128537513957 0.983433584679293 -17.0288790295182 0.983433584679291 -17.0288790295182 0.138462225563409 70.0964275455301 
! Gamma         0                0                0                0                
! Port Impedance         50               0                50               0                
10.2                           0.139739602600445 69.958988851965  0.98321557189105 -17.1934458246509 0.983215571891049 -17.1934458246509 0.139739574836309 69.942397026614  
! Gamma         0                0                0                0                
! Port Impedance         50               0                50               0                
10.3                           0.141014767428364 69.8050220744191 0.982996280301676 -17.357922181883 0.982996280301675 -17.3579221818829 0.141014737202233 69.788264552261  
! Gamma         0                0                0                0                
! Port Impedance         50               0                50               0                
10.4                           0.142287738486616 69.6509610312152 0.982775723196699 -17.522307976494 0.982775723196698 -17.522307976494 0.142287705768589 69.6340377350595 
! Gamma         0                0                0                0                
! Port Impedance         50               0                50               0                
10.5                           0.143558508991066 69.4968129896614 0.982553913734737 -17.6866030879047 0.982553913734736 -17.6866030879047 0.143558473756008 69.4797238423459 
! Gamma         0                0                0                0                
! Port Impedance         50               0                50               0                
10.6                           0.14482707226473 69.3425848889998 0.982330864950194 -17.8508073994595 0.982330864950193 -17.8508073994594 0.144827034492364 69.3253298132893 
! Gamma         0                0                0                0                
! Port Impedance         50               0                50               0                
10.7                           0.146093421732037 69.18828335657   0.98210658975598 -18.0149207982205 0.982106589755978 -18.0149207982204 0.146093381407024 69.1708622750572 
! Gamma         0                0                0                0                
! Port Impedance         50               0                50               0                
10.8                           0.147357550913314 69.0339147231112 0.981881100946251 -18.1789431747736 0.98188110094625 -18.1789431747736 0.147357508025313 69.0163275581194 
! Gamma         0                0                0                0                
! Port Impedance         50               0                50               0                
10.9                           0.148619453419496 68.879485037253  0.981654411199162 -18.342874423045 0.981654411199161 -18.342874423045 0.148619407963216 68.8617317107419 
! Gamma         0                0                0                0                
! Port Impedance         50               0                50               0                
11                             0.149879122947043 68.7250000792468 0.981426533079619 -18.5067144401281 0.981426533079618 -18.5067144401281 0.149879074922284 68.7070805127193 
! Gamma         0                0                0                0                
! Port Impedance         50               0                50               0                
11.1                           0.151136553273083 68.5704653739798 0.981197479042036 -18.6704631261217 0.981197479042035 -18.6704631261217 0.151136502684752 68.5523794883923 
! Gamma         0                0                0                0                
! Port Impedance         50               0                50               0                
11.2                           0.152391738250742 68.4158862033163 0.980967261433081 -18.8341203839772 0.98096726143308 -18.8341203839772 0.152391685108866 68.3976339189905 
! Gamma         0                0                0                0                
! Port Impedance         50               0                50               0                
11.3                           0.153644671804688 68.2612676178043 0.980735892494416 -18.997686119356 0.980735892494415 -18.997686119356 0.153644616124407 68.2428488543421 
! Gamma         0                0                0                0                
! Port Impedance         50               0                50               0                
11.4                           0.154895347926864 68.1066144477845 0.980503384365415 -19.1611602404961 0.980503384365414 -19.1611602404961 0.154895289728413 68.0880291239845 
! Gamma         0                0                0                0                
! Port Impedance         50               0                50               0                
11.5                           0.156143760672416 67.951931313936  0.980269749085867 -19.3245426580877 0.980269749085866 -19.3245426580877 0.15614369998109 67.9331793477134 
! Gamma         0                0                0                0                
! Port Impedance         50               0                50               0                
11.6                           0.157389904155799 67.7972226372901 0.980034998598652 -19.487833285157 0.980034998598652 -19.487833285157 0.157389841001909 67.7783039455984 
! Gamma         0                0                0                0                
! Port Impedance         50               0                50               0                
11.7                           0.158633772547076 67.6424926487428 0.979799144752391 -19.6510320369594 0.97979914475239 -19.6510320369594 0.158633706965885 67.6234071474982 
! Gamma         0                0                0                0                
! Port Impedance         50               0                50               0                
11.8                           0.15987536006838 67.4877453980931 0.97956219930406 -19.8141388308796 0.979562199304059 -19.8141388308796 0.159875292100033 67.468493002102  
! Gamma         0                0                0                0                
! Port Impedance         50               0                50               0                
11.9                           0.16111466099056 67.3329847626345 0.979324173921572 -19.97715358634  0.979324173921572 -19.97715358634  0.161114590679994 67.3135653855227 
! Gamma         0                0                0                0                
! Port Impedance         50               0                50               0                
12                             0.162351669629983 67.1782144553222 0.979085080186327 -20.1400762247166 0.979085080186326 -20.1400762247165 0.162351597026825 67.1586280094672 
! Gamma         0                0                0                0                
! Port Impedance         50               0                50               0                
12.1                           0.163586380345506 67.0234380325411 0.978844929595707 -20.3029066692616 0.978844929595707 -20.3029066692615 0.163586305503963 67.0036844290071 
! Gamma         0                0                0                0                
! Port Impedance         50               0                50               0                
12.2                           0.164818787535604 66.8686589014941 0.978603733565547 -20.4656448450332 0.978603733565547 -20.4656448450332 0.164818710514333 66.8487380499692 
! Gamma         0                0                0                0                
! Port Impedance         50               0                50               0                
12.3                           0.166048885635646 66.7138803272328 0.978361503432543 -20.628290678832 0.978361503432542 -20.6282906788319 0.166048806497615 66.6937921359692 
! Gamma         0                0                0                0                
! Port Impedance         50               0                50               0                
12.4                           0.167276669115329 66.5591054393478 0.978118250456626 -20.790844099143 0.978118250456625 -20.790844099143 0.167276587927665 66.5388498151042 
! Gamma         0                0                0                0                
! Port Impedance         50               0                50               0                
12.5                           0.168502132476245 66.4043372383377 0.977873985823279 -20.9533050360845 0.977873985823279 -20.9533050360845 0.168502049310071 66.3839140863246 
! Gamma         0                0                0                0                
! Port Impedance         50               0                50               0                
12.6                           0.169725270249602 66.2495786016723 0.977628720645813 -21.1156734213621 0.977628720645813 -21.1156734213621 0.169725185179857 66.2289878255    
! Gamma         0                0                0                0                
! Port Impedance         50               0                50               0                
12.7                           0.170946076994063 66.0948322895676 0.977382465967577 -21.2779491882285 0.977382465967577 -21.2779491882285 0.170945990099316 66.0740737911963 
! Gamma         0                0                0                0                
! Port Impedance         50               0                50               0                
12.8                           0.172164547293734 65.9401009504852 0.977135232764132 -21.440132271448 0.977135232764131 -21.440132271448 0.172164458655984 65.9191746301781 
! Gamma         0                0                0                0                
! Port Impedance         50               0                50               0                
12.9                           0.173380675756267 65.7853871263715 0.976887031945354 -21.6022226072667 0.976887031945354 -21.6022226072667 0.173380585460728 65.7642928826505 
! Gamma         0                0                0                0                
! Port Impedance         50               0                50               0                
13                             0.174594457011088 65.6306932576501 0.976637874357499 -21.764220133387 0.976637874357498 -21.764220133387 0.174594365145973 65.6094309872535 
! Gamma         0                0                0                0                
! Port Impedance         50               0                50               0                
13.1                           0.175805885707751 65.4760216879782 0.976387770785197 -21.9261247889462 0.976387770785197 -21.9261247889462 0.175805792364032 65.4545912858214 
! Gamma         0                0                0                0                
! Port Impedance         50               0                50               0                
13.2                           0.177014956514398 65.3213746687806 0.976136731953403 -22.0879365145003 0.976136731953402 -22.0879365145002 0.177014861785564 65.2997760279193 
! Gamma         0                0                0                0                
! Port Impedance         50               0                50               0                
13.3                           0.178221664116335 65.1667543635706 0.97588476852928 -22.2496552520109 0.975884768529279 -22.2496552520109 0.17822156809814 65.1449873751662 
! Gamma         0                0                0                0                
! Port Impedance         50               0                50               0                
13.4                           0.179426003214712 65.0121628520705 0.975631891124033 -22.4112809448366 0.975631891124033 -22.4112809448366 0.179425906004908 64.9902274053581 
! Gamma         0                0                0                0                
! Port Impedance         50               0                50               0                
13.5                           0.180627968525309 64.8576021341386 0.975378110294686 -22.5728135377276 0.975378110294686 -22.5728135377276 0.180627870223374 64.8354981163973 
! Gamma         0                0                0                0                
! Port Impedance         50               0                50               0                
13.6                           0.181827554777423 64.7030741335148 0.975123436545795 -22.7342529768236 0.975123436545795 -22.7342529768236 0.181827455484276 64.6808014300405 
! Gamma         0                0                0                0                
! Port Impedance         50               0                50               0                
13.7                           0.183024756712843 64.5485807013921 0.97486788033111 -22.8955992096556 0.97486788033111 -22.8955992096556 0.183024656530553 64.5261391954724 
! Gamma         0                0                0                0                
! Port Impedance         50               0                50               0                
13.8                           0.184219569084927 64.3941236198222 0.974611452055178 -23.0568521851498 0.974611452055178 -23.0568521851498 0.184219468116413 64.3715131927141 
! Gamma         0                0                0                0                
! Port Impedance         50               0                50               0                
13.9                           0.185411986657763 64.2397046049649 0.974354162074892 -23.2180118536351 0.974354162074891 -23.2180118536351 0.18541188500648 64.2169251358742 
! Gamma         0                0                0                0                
! Port Impedance         50               0                50               0                
14                             0.186602004205413 64.0853253101859 0.974096020700975 -23.3790781668528 0.974096020700974 -23.3790781668528 0.18660190197504 64.0623766762493 
! Gamma         0                0                0                0                
! Port Impedance         50               0                50               0                
14.1                           0.187789616511245 63.9309873290134 0.97383703819942 -23.540051077969 0.973837038199419 -23.540051077969 0.187789513805357 63.9078694052822 
! Gamma         0                0                0                0                
! Port Impedance         50               0                50               0                
14.2                           0.188974818367339 63.7766921979569 0.973577224792864 -23.7009305415892 0.973577224792864 -23.7009305415892 0.188974715289074 63.7534048573837 
! Gamma         0                0                0                0                
! Port Impedance         50               0                50               0                
14.3                           0.19015760457397 63.6224413991978 0.973316590661916 -23.861716513775 0.973316590661915 -23.861716513775 0.190157501225689 63.5989845126247 
! Gamma         0                0                0                0                
! Port Impedance         50               0                50               0                
14.4                           0.191337969939163 63.4682363631554 0.973055145946417 -24.0224089520633 0.973055145946417 -24.0224089520633 0.191337866422104 63.4446097993042 
! Gamma         0                0                0                0                
! Port Impedance         50               0                50               0                
14.5                           0.192515909278318 63.3140784709351 0.972792900746663 -24.1830078154868 0.972792900746663 -24.1830078154867 0.192515805692241 63.2902820964    
! Gamma         0                0                0                0                
! Port Impedance         50               0                50               0                
14.6                           0.193691417413901 63.1599690566644 0.972529865124563 -24.3435130645961 0.972529865124563 -24.3435130645961 0.193691313856732 63.1360027359065 
! Gamma         0                0                0                0                
! Port Impedance         50               0                50               0                
14.7                           0.194864489175199 63.0059094097216 0.972266049104747 -24.5039246614843 0.972266049104747 -24.5039246614843 0.194864385742659 62.9817730050649 
! Gamma         0                0                0                0                
! Port Impedance         50               0                50               0                
14.8                           0.196035119398132 62.851900776862  0.972001462675624 -24.6642425698121 0.972001462675624 -24.6642425698121 0.196035016183373 62.8275941484921 
! Gamma         0                0                0                0                
! Port Impedance         50               0                50               0                
14.9                           0.197203302925131 62.6979443642465 0.971736115790387 -24.8244667548347 0.971736115790387 -24.8244667548347 0.197203200018352 62.6734673702106 
! Gamma         0                0                0                0                
! Port Impedance         50               0                50               0                
15                             0.198369034605059 62.5440413393775 0.971470018367972 -24.9845971834295 0.971470018367971 -24.9845971834295 0.198368932093131 62.5193938355863 
! Gamma         0                0                0                0                
! Port Impedance         50               0                50               0                
15.1                           0.199532309293197 62.3901928329452 0.971203180293961 -25.1446338241257 0.971203180293961 -25.1446338241257 0.199532207259275 62.3653746731766 
! Gamma         0                0                0                0                
! Port Impedance         50               0                50               0                
15.2                           0.200693121851272 62.2363999405894 0.970935611421445 -25.3045766471341 0.970935611421445 -25.3045766471341 0.200693020374404 62.2114109764942 
! Gamma         0                0                0                0                
! Port Impedance         50               0                50               0                
15.3                           0.201851467147535 62.0826637245807 0.970667321571832 -25.4644256243781 0.970667321571832 -25.4644256243781 0.20185136630227 62.0575038056892 
! Gamma         0                0                0                0                
! Port Impedance         50               0                50               0                
15.4                           0.203007340056884 61.9289852154233 0.970398320535613 -25.6241807295252 0.970398320535613 -25.6241807295252 0.203007239912871 61.9036541891545 
! Gamma         0                0                0                0                
! Port Impedance         50               0                50               0                
15.5                           0.20416073546103 61.775365413385  0.970128618073082 -25.78384193802  0.970128618073082 -25.78384193802  0.20416063608262 61.7498631250567 
! Gamma         0                0                0                0                
! Port Impedance         50               0                50               0                
15.6                           0.205311648248706 61.621805289956  0.969858223915009 -25.9434092271165 0.969858223915009 -25.9434092271165 0.205311549694545 61.5961315827968 
! Gamma         0                0                0                0                
! Port Impedance         50               0                50               0                
15.7                           0.206460073315905 61.4683057892409 0.969587147763277 -26.1028825759121 0.969587147763277 -26.1028825759121 0.20645997563853 61.4424605044035 
! Gamma         0                0                0                0                
! Port Impedance         50               0                50               0                
15.8                           0.207606005566171 61.3148678292856 0.969315399291465 -26.2622619653814 0.969315399291465 -26.2622619653814 0.207605908811596 61.2888508058616 
! Gamma         0                0                0                0                
! Port Impedance         50               0                50               0                
15.9                           0.208749439910905 61.1614923033434 0.969042988145398 -26.4215473784102 0.969042988145398 -26.4215473784102 0.208749344118212 61.1353033783796 
! Gamma         0                0                0                0                
! Port Impedance         50               0                50               0                
16                             0.209890371269719 61.0081800810824 0.968769923943659 -26.5807387998306 0.968769923943659 -26.5807387998306 0.209890276470643 60.9818190895982 
! Gamma         0                0                0                0                
! Port Impedance         50               0                50               0                
16.1                           0.211028794570812 60.854932009736  0.96849621627805 -26.7398362164549 0.96849621627805 -26.7398362164549 0.211028700789327 60.8283987847424 
! Gamma         0                0                0                0                
! Port Impedance         50               0                50               0                
16.2                           0.212164704751378 60.701748915201  0.968221874714026 -26.8988396171112 0.968221874714026 -26.8988396171112 0.212164612003276 60.6750432877209 
! Gamma         0                0                0                0                
! Port Impedance         50               0                50               0                
16.3                           0.213298096758035 60.5486316030835 0.967946908791087 -27.0577489926778 0.967946908791087 -27.0577489926778 0.213298005050514 60.5217534021729 
! Gamma         0                0                0                0                
! Port Impedance         50               0                50               0                
16.4                           0.214428965547292 60.3955808596963 0.967671328023135 -27.2165643361183 0.967671328023136 -27.2165643361184 0.214428874878529 60.3685299124671 
! Gamma         0                0                0                0                
! Port Impedance         50               0                50               0                
16.5                           0.215557306086023 60.2425974530099 0.967395141898794 -27.3752856425165 0.967395141898794 -27.3752856425165 0.215557216444759 60.2153735846533 
! Gamma         0                0                0                0                
! Port Impedance         50               0                50               0                
16.6                           0.216683113351973 60.0896821335578 0.967118359881695 -27.5339129091107 0.967118359881695 -27.5339129091107 0.216683024717094 60.0622851673696 
! Gamma         0                0                0                0                
! Port Impedance         50               0                50               0                
16.7                           0.217806382334285 59.9368356353001 0.966840991410734 -27.6924461353286 0.966840991410734 -27.6924461353286 0.217806294674399 59.9092653927063 
! Gamma         0                0                0                0                
! Port Impedance         50               0                50               0                
16.8                           0.21892710803404 59.7840586764462 0.966563045900289 -27.8508853228215 0.966563045900289 -27.8508853228215 0.218927021307055 59.75631497703   
! Gamma         0                0                0                0                
! Port Impedance         50               0                50               0                
16.9                           0.220045285464816 59.6313519602378 0.966284532740413 -28.0092304754985 0.966284532740413 -28.0092304754985 0.220045199617525 59.6034346217674 
! Gamma         0                0                0                0                
! Port Impedance         50               0                50               0                
17                             0.221160909653267 59.4787161756951 0.966005461296994 -28.16748159956  0.966005461296994 -28.16748159956  0.221160824620924 59.4506250141531 
! Gamma         0                0                0                0                
! Port Impedance         50               0                50               0                
17.1                           0.222273975639713 59.326151998328  0.965725840911883 -28.325638703531 0.965725840911883 -28.325638703531 0.222273891345617 59.2978868279404 
! Gamma         0                0                0                0                
! Port Impedance         50               0                50               0                
17.2                           0.223384478478742 59.1736600908119 0.965445680902997 -28.4837017982946 0.965445680902997 -28.4837017982946 0.223384394833819 59.1452207240794 
! Gamma         0                0                0                0                
! Port Impedance         50               0                50               0                
17.3                           0.224492413239828 59.0212411036323 0.965164990564396 -28.6416708971241 0.965164990564396 -28.6416708971241 0.224492330142212 58.9926273513614 
! Gamma         0                0                0                0                
! Port Impedance         50               0                50               0                
17.4                           0.225597775007956 58.8688956756974 0.964883779166331 -28.7995460157154 0.964883779166331 -28.7995460157154 0.22559769234258 58.8401073470328 
! Gamma         0                0                0                0                
! Port Impedance         50               0                50               0                
17.5                           0.226700558884265 58.7166244349218 0.964602055955265 -28.9573271722184 0.964602055955265 -28.9573271722184 0.22670047652244 58.6876613373794 
! Gamma         0                0                0                0                
! Port Impedance         50               0                50               0                
17.6                           0.227800759986685 58.5644279987808 0.964319830153872 -29.1150143872685 0.964319830153872 -29.1150143872685 0.227800677785694 58.5352899382815 
! Gamma         0                0                0                0                
! Port Impedance         50               0                50               0                
17.7                           0.228898373450597 58.4123069748387 0.964037110961014 -29.2726076840167 0.964037110961014 -29.2726076840167 0.228898291253284 58.3829937557427 
! Gamma         0                0                0                0                
! Port Impedance         50               0                50               0                
17.8                           0.22999339442949 58.2602619612503 0.96375390755169 -29.4301070881601 0.96375390755169 -29.4301070881601 0.229993312063852 58.2307733863925 
! Gamma         0                0                0                0                
! Port Impedance         50               0                50               0                
17.9                           0.23108581809563 58.1082935472381 0.963470229076967 -29.5875126279708 0.963470229076967 -29.5875126279708 0.231085735374411 58.0786294179637 
! Gamma         0                0                0                0                
! Port Impedance         50               0                50               0                
18                             0.232175639640726 57.9564023135458 0.963186084663889 -29.7448243343253 0.96318608466389 -29.7448243343254 0.232175556361018 57.9265624297466 
! Gamma         0                0                0                0                
! Port Impedance         50               0                50               0                
18.1                           0.23326285427661 57.8045888328691 0.962901483415368 -29.9020422407322 0.962901483415368 -29.9020422407322 0.233262770219452 57.7745729930202 
! Gamma         0                0                0                0                
! Port Impedance         50               0                50               0                
18.2                           0.234347457235912 57.6528536702647 0.962616434410046 -30.0591663833599 0.962616434410046 -30.0591663833599 0.234347372165891 57.6226616714622 
! Gamma         0                0                0                0                
! Port Impedance         50               0                50               0                
18.3                           0.23542944377274 57.5011973835393 0.962330946702154 -30.2161968010634 0.962330946702154 -30.2161968010634 0.2354293574376  57.4708290215381 
! Gamma         0                0                0                0                
! Port Impedance         50               0                50               0                
18.4                           0.236508809163364 57.349620523618  0.962045029321338 -30.3731335354107 0.962045029321338 -30.3731335354107 0.236508721293616 57.31907559287   
! Gamma         0                0                0                0                
! Port Impedance         50               0                50               0                
18.5                           0.237585548706899 57.1981236348946 0.96175869127248 -30.529976630708 0.96175869127248 -30.529976630708 0.237585459015432 57.1674019285879 
! Gamma         0                0                0                0                
! Port Impedance         50               0                50               0                
18.6                           0.238659657725985 57.0467072555637 0.961471941535492 -30.6867261340246 0.961471941535492 -30.6867261340246 0.238659565907685 57.0158085656617 
! Gamma         0                0                0                0                
! Port Impedance         50               0                50               0                
18.7                           0.239731131567474 56.8953719179356 0.961184789065102 -30.843382095217 0.961184789065102 -30.843382095217 0.23973103729884 56.8642960352163 
! Gamma         0                0                0                0                
! Port Impedance         50               0                50               0                
18.8                           0.240799965603106 56.7441181487347 0.960897242790624 -30.9999445669523 0.960897242790624 -30.9999445669523 0.24079986854188 56.7128648628311 
! Gamma         0                0                0                0                
! Port Impedance         50               0                50               0                
18.9                           0.241866155230196 56.5929464693822 0.96060931161571 -31.1564136047306 0.96060931161571 -31.1564136047306 0.241866055014986 56.5615155688223 
! Gamma         0                0                0                0                
! Port Impedance         50               0                50               0                
19                             0.242929695872306 56.4418573962644 0.960321004418092 -31.3127892669069 0.960321004418092 -31.3127892669069 0.242929592122221 56.4102486685121 
! Gamma         0                0                0                0                
! Port Impedance         50               0                50               0                
19.1                           0.243990582979922 56.2908514409858 0.96003233004931 -31.4690716147124 0.96003233004931 -31.4690716147124 0.243990475294206 56.2590646724816 
! Gamma         0                0                0                0                
! Port Impedance         50               0                50               0                
19.2                           0.245048812031126 56.1399291106096 0.959743297334427 -31.6252607122747 0.959743297334427 -31.6252607122747 0.245048699988803 56.1079640868118 
! Gamma         0                0                0                0                
! Port Impedance         50               0                50               0                
19.3                           0.246104378532262 55.9890909078841 0.959453915071738 -31.7813566266375 0.959453915071737 -31.7813566266375 0.246104261691776 55.9569474133102 
! Gamma         0                0                0                0                
! Port Impedance         50               0                50               0                
19.4                           0.247157278018603 55.8383373314579 0.959164192032455 -31.9373594277792 0.959164192032455 -31.9373594277793 0.247157155917472 55.8060151497262 
! Gamma         0                0                0                0                
! Port Impedance         50               0                50               0                
19.5                           0.248207506055007 55.6876688760819 0.958874136960398 -32.0932691886315 0.958874136960398 -32.0932691886315 0.248207378209474 55.6551677899534 
! Gamma         0                0                0                0                
! Port Impedance         50               0                50               0                
19.6                           0.249255058236574 55.5370860328015 0.958583758571666 -32.2490859850961 0.958583758571666 -32.2490859850961 0.249254924141267 55.5044058242217 
! Gamma         0                0                0                0                
! Port Impedance         50               0                50               0                
19.7                           0.25029993018929 55.3865892891367 0.958293065554298 -32.4048098960617 0.958293065554298 -32.4048098960617 0.250299789316889 55.3537297392778 
! Gamma         0                0                0                0                
! Port Impedance         50               0                50               0                
19.8                           0.251342117570676 55.2361791292525 0.958002066567932 -32.5604410034196 0.958002066567933 -32.5604410034196 0.251341969371576 55.2031400185557 
! Gamma         0                0                0                0                
! Port Impedance         50               0                50               0                
19.9                           0.252381616070419 55.0858560341198 0.957710770243455 -32.7159793920788 0.957710770243455 -32.7159793920788 0.252381459972411 55.0526371423374 
! Gamma         0                0                0                0                
! Port Impedance         50               0                50               0                
20                             0.253418421411006 54.9356204816662 0.957419185182635 -32.8714251499802 0.957419185182635 -32.8714251499802 0.253418256818951 54.9022215879045 
! Gamma         0                0                -0               -0               
! Port Impedance         50               0                50               0                
