! Touchstone file exported from HFSS 2026.1.0
!        File:           C:/ffzhzh/LocalFiles/Ansys_Project_Files/temp_train_BSMRDL_588_1783015826_55676.aedt
!        Generated:      02:11:43 AM Jul  3, 2026
!        Design:         BSMRDL
!        Project:        temp_train_BSMRDL_588_1783015826_55676
!
! Variables:
!        h_bsmrdl = 2.95um
!        h_ox = 20um
!        h_rdl = 5um
!        h_sub = 80um
!        h_tmrdl = 5um
!        h_tsv = 80um
!        h_via = 3um
!        l_bsmrdl = 739.35um
!        l_sub = 1139.35um
!        l_tmrdl = 200um
!        m_sub = 200um
!        pitch = 21.8um
!        r_tsv = 6um
!        s_tmrdl = 10um
!        w_bsmrdl = 15.82um
!        w_sub = 500um
!        w_tmrdl = 12um
!        x_tsv_center1 = 206um
!        x_tsv_center2 = 961.17um
!        x_tsv_center3 = 1173.17um
!        x_tsv_center4 = 1928.34um
!        x_tsv_center5 = 2140.34um
!        x_tsv_center6 = 2895.51um
!
# GHz S MA R 50.000000
! Terminal data exported
! Port[1] = BSM_RDL1_1_T1
! Port[2] = BSM_RDL1_1_T2
0.1                            0.00594246869271026 14.1849076317304 0.994243945561316 -0.246835570491927 0.994243945561316 -0.246835570491928 0.00594246342735781 14.1851635883887 
! Gamma         0                0                0                0                
! Port Impedance         50               0                50               0                
0.2                            0.00664537001729143 25.2090665602699 0.994006517756434 -0.48900511344963 0.994006517756434 -0.489005113449623 0.00664537725181462 25.2088397042328 
! Gamma         0                0                0                0                
! Port Impedance         50               0                50               0                
0.3                            0.00755297613581157 32.6874215457595 0.993684554048223 -0.724053438891745 0.993684554048223 -0.724053438891721 0.00755288388870628 32.6866343946451 
! Gamma         0                0                0                0                
! Port Impedance         50               0                50               0                
0.4                            0.00850664789177783 37.7066486515256 0.993341398225837 -0.95205907217516 0.993341398225837 -0.952059072175116 0.00850634683582337 37.7058865407156 
! Gamma         0                0                0                0                
! Port Impedance         50               0                50               0                
0.5                            0.00943692927132315 41.2944071131108 0.993018017786641 -1.17451752731517 0.993018017786641 -1.17451752731511 0.00943636700931568 41.2943437670623 
! Gamma         0                0                0                0                
! Port Impedance         50               0                50               0                
0.6                            0.0103272304489162 44.0821250511316 0.99273248281881 -1.39319123404985 0.99273248281881 -1.39319123404977 0.0103264082710406 44.0832419312557 
! Gamma         0                0                0                0                
! Port Impedance         50               0                50               0                
0.7                            0.0111827999469589 46.405561181425  0.992488113447226 -1.609533752578  0.992488113447226 -1.60953375257791 0.0111817504235213 46.4081161187821 
! Gamma         0                0                0                0                
! Port Impedance         50               0                50               0                
0.8                            0.0120146991948097 48.4335433903935 0.99228115054416 -1.82456482710953 0.992281150544161 -1.82456482710944 0.0120134666825611 48.4376266199015 
! Gamma         0                0                0                0                
! Port Impedance         50               0                50               0                
0.9                            0.0128334108524321 50.2498646275323 0.992105448581806 -2.03893821194444 0.992105448581807 -2.03893821194435 0.0128320398677574 50.2554629801411 
! Gamma         0                0                0                0                
! Port Impedance         50               0                50               0                
1                              0.0136469990341315 51.8971934357695 0.991954745595522 -2.25304916576705 0.991954745595524 -2.25304916576695 0.0136455288660292 51.9042390694009 
! Gamma         0                0                0                0                
! Port Impedance         50               0                50               0                
1.1                            0.0144610462090862 53.399006148156  0.991823542248274 -2.46712531867979 0.991823542248275 -2.4671253186797 0.0144595092118974 53.4074080330004 
! Gamma         0                0                0                0                
! Port Impedance         50               0                50               0                
1.2                            0.0152791299675443 54.7700941192842 0.991707315976114 -2.68129054045724 0.991707315976115 -2.68129054045716 0.0152775516718853 54.7797564145316 
! Gamma         0                0                0                0                
! Port Impedance         50               0                50               0                
1.3                            0.0161033631645182 56.0214143802506 0.991602463217388 -2.89560630336864 0.991602463217389 -2.89560630336857 0.0161017631305933 56.0322461740363 
! Gamma         0                0                0                0                
! Port Impedance         50               0                50               0                
1.4                            0.016934846722521 57.1622263105212 0.991506154756767 -3.11009739505479 0.991506154756769 -3.11009739505473 0.016933239590547 57.174146110319  
! Gamma         0                0                0                0                
! Port Impedance         50               0                50               0                
1.5                            0.0177740090171529 58.2009660880477 0.99141618190636 -3.32476755810618 0.991416181906362 -3.32476755810611 0.0177724055098997 58.2139033135637 
! Gamma         0                0                0                0                
! Port Impedance         50               0                50               0                
1.6                            0.0186208464744238 59.1455589769727 0.99133082140883 -3.53960888109811 0.991330821408832 -3.53960888109805 0.0186192542607056 59.1594538523835 
! Gamma         0                0                0                0                
! Port Impedance         50               0                50               0                
1.7                            0.0194750886736219 60.0034989904197 0.991248725687391 -3.75460738266096 0.991248725687394 -3.75460738266091 0.0194735130740722 60.018301661839  
! Gamma         0                0                0                0                
! Port Impedance         50               0                50               0                
1.8                            0.0203363091669215 60.7818457551249 0.991168836937622 -3.96974629582684 0.991168836937624 -3.9697462958268 0.0203347537140342 60.7975151010686 
! Gamma         0                0                0                0                
! Port Impedance         50               0                50               0                
1.9                            0.0212039985323903 61.4872027855754 0.99109032108482 -4.18500796890149 0.991090321084822 -4.18500796890145 0.0212024654071965 61.5037051724258 
! Gamma         0                0                0                0                
! Port Impedance         50               0                50               0                
2                              0.0220776116638411 62.12570164746   0.991012517412196 -4.40037493646626 0.991012517412198 -4.40037493646623 0.0220761020328264 62.1430097560112 
! Gamma         0                0                0                0                
! Port Impedance         50               0                50               0                
2.1                            0.0229565977143425 62.7029988597541 0.990934900220638 -4.61583049455019 0.99093490022064 -4.61583049455016 0.0229551119877747 62.721090637746  
! Gamma         0                0                0                0                
! Port Impedance         50               0                50               0                
2.2                            0.023840418477597 63.2242851884557 0.990857049604558 -4.83135898167324 0.99085704960456 -4.83135898167321 0.0238389565068975 63.2431429453215 
! Gamma         0                0                0                0                
! Port Impedance         50               0                50               0                
2.3                            0.0247285591348509 63.6943045561478 0.990778629096812 -5.04694588767952 0.990778629096815 -5.0469458876795 0.0247271203631235 63.7139141963612 
! Gamma         0                0                0                0                
! Port Impedance         50               0                50               0                
2.4                            0.0256205340140728 64.1173794157094 0.990699368484584 -5.26257786405613 0.990699368484586 -5.26257786405611 0.0256191175908319 64.1377297979487 
! Gamma         0                0                0                0                
! Port Impedance         50               0                50               0                
2.5                            0.0265158891352426 64.4974398443209 0.990619050525025 -5.47824268018389 0.990619050525027 -5.47824268018388 0.0265144940038602 64.5185222503314 
! Gamma         0                0                0                0                
! Port Impedance         50               0                50               0                
2.6                            0.0274142027249749 64.8380542364228 0.99053750061249 -5.69392915216587 0.990537500612493 -5.69392915216587 0.0274128276893651 64.8598619331885 
! Gamma         0                0                0                0                
! Port Impedance         50               0                50               0                
2.7                            0.0283150844857128 65.1424600760581 0.990454578690136 -5.90962706002068 0.990454578690138 -5.90962706002068 0.0283137282612201 65.164987956087  
! Gamma         0                0                0                0                
! Port Impedance         50               0                50               0                
2.8                            0.0292181741372397 65.4135937686286 0.990370172877185 -6.12532706239864 0.990370172877188 -6.12532706239864 0.0292168353895042 65.4368380549583 
! Gamma         0                0                0                0                
! Port Impedance         50               0                50               0                
2.9                            0.0301231395688163 65.6541188954718 0.990284194415222 -6.34102061393996 0.990284194415224 -6.34102061393997 0.0301218169434795 65.6780768999353 
! Gamma         0                0                0                0                
! Port Impedance         50               0                50               0                
3                              0.031029674820114 65.8664525341446 0.990196573634531 -6.55669988794695 0.990196573634533 -6.55669988794696 0.0310283669655388 65.8911224592769 
! Gamma         0                0                0                0                
! Port Impedance         50               0                50               0                
3.1                            0.031937498028901 66.052789482972  0.990107256714007 -6.77235770557574 0.990107256714009 -6.77235770557575 0.0319362036135586 66.0781702595862 
! Gamma         0                0                0                0                
! Port Impedance         50               0                50               0                
3.2                            0.0328463494300936 66.2151243602901 0.990016203062117 -6.98798747189142 0.99001620306212 -6.98798747189143 0.0328450671558713 66.2412155141659 
! Gamma         0                0                0                0                
! Port Impedance         50               0                50               0                
3.3                            0.0337559894555157 66.3552716339    0.989923383186779 -7.20358311864076 0.989923383186781 -7.20358311864077 0.0337547180679025 66.3820731762256 
! Gamma         0                0                0                0                
! Port Impedance         50               0                50               0                
3.4                            0.0346661969606103 66.4748836880309 0.989828776952358 -7.41913905333457 0.98982877695236 -7.41913905333459 0.0346649352564874 66.5023960252286 
! Gamma         0                0                0                0                
! Port Impedance         50               0                50               0                
3.5                            0.0355767675894132 66.5754670637529 0.989732372144936 -7.63465011410781 0.989732372144938 -7.63465011410783 0.0355755144230058 66.6036909231352 
! Gamma         0                0                0                0                
! Port Impedance         50               0                50               0                
3.6                            0.036487512279645 66.6583970217469 0.989634163284424 -7.85011152978308 0.989634163284426 -7.8501115297831 0.0364862665670587 66.6873333901153 
! Gamma         0                0                0                0                
! Port Impedance         50               0                50               0                
3.7                            0.0373982559039818 66.7249305789994 0.989534150635398 -8.06551888456857 0.989534150635401 -8.0655188845686 0.0373970166266478 66.754580651839  
! Gamma         0                0                0                0                
! Port Impedance         50               0                50               0                
3.8                            0.0383088360401905 66.7762181671075 0.989432339378783 -8.28086808685216 0.989432339378785 -8.28086808685219 0.0383076022474668 66.8065833064696 
! Gamma         0                0                0                0                
! Port Impedance         50               0                50               0                
3.9                            0.0392191018610379 66.8133140520778 0.989328738914379 -8.49615534159717 0.989328738914381 -8.4961553415972 0.0392178726721555 66.8443957515998 
! Gamma         0                0                0                0                
! Port Impedance         50               0                50               0                
4                              0.0401289131341379 66.837185645568  0.98922336227039 -8.71137712589405 0.989223362270392 -8.71137712589408 0.0401276877396354 66.8689855013648 
! Gamma         0                0                0                0                
! Port Impedance         50               0                50               0                
4.1                            0.0410381393218061 66.8487218266232 0.989116225600875 -8.92653016727074 0.989116225600877 -8.92653016727077 0.0410369169845633 66.8812415130218 
! Gamma         0                0                0                0                
! Port Impedance         50               0                50               0                
4.2                            0.0419466587713067 66.8487403818999 0.989007347755793 -9.14161142441146 0.989007347755795 -9.14161142441149 0.0419454388272591 66.8819816311725 
! Gamma         0                0                0                0                
! Port Impedance         50               0                50               0                
4.3                            0.0428543579864116 66.8379946616008 0.988896749911305 -9.3566180699764 0.988896749911307 -9.35661806997643 0.0428531398450103 66.8719592470101 
! Gamma         0                0                0                0                
! Port Impedance         50               0                50               0                
4.4                            0.0437611309718614 66.8171795381837 0.98878445525029 -9.57154747525376 0.988784455250292 -9.57154747525379 0.0437599141163249 66.8518692597744 
! Gamma         0                0                0                0                
! Port Impedance         50               0                50               0                
4.5                            0.0446668786430256 66.7869367454803 0.988670488684938 -9.78639719641033 0.98867048868494 -9.78639719641037 0.0446656626304193 66.8223534181549 
! Gamma         0                0                0                0                
! Port Impedance         50               0                50               0                
4.6                            0.0455715082937781 66.7478596672584 0.988554876614754 -10.0011649621372 0.988554876614756 -10.0011649621372 0.0455702927549482 66.7840051107552 
! Gamma         0                0                0                0                
! Port Impedance         50               0                50               0                
4.7                            0.0464749331162943 66.7004976364749 0.988437646714493 -10.2158486625141 0.988437646714495 -10.2158486625142 0.046473717755676 66.737373666935  
! Gamma         0                0                0                0                
! Port Impedance         50               0                50               0                
4.8                            0.0473770717671271 66.6453597994772 0.988318827747541 -10.4304463389396 0.988318827747544 -10.4304463389396 0.0473758563624406 66.6829682223427 
! Gamma         0                0                0                0                
! Port Impedance         50               0                50               0                
4.9                            0.048277847974521 66.5829185931791 0.988198449401001 -10.6449561749935 0.988198449401003 -10.6449561749936 0.0482766323763663 66.6212611972062 
! Gamma         0                0                0                0                
! Port Impedance         50               0                50               0                
5                              0.0491771901824728 66.513612877687  0.98807654213939 -10.859376488118 0.988076542139393 -10.859376488118 0.0491759743138312 66.5526914298998 
! Gamma         0                0                0                0                
! Port Impedance         50               0                50               0                
5.1                            0.0500750312275452 66.4378507619442 0.987953137074388 -11.0737057220157 0.98795313707439 -11.0737057220157 0.0500738150831921 66.4776670033802 
! Gamma         0                0                0                0                
! Port Impedance         50               0                50               0                
5.2                            0.0509713080448864 66.3560121556173 0.987828265848465 -11.2879424396797 0.987828265848467 -11.2879424396798 0.0509700916907192 66.396567797744  
! Gamma         0                0                0                0                
! Port Impedance         50               0                50               0                
5.3                            0.0518659614003094 66.2684510766137 0.987701960530592 -11.5020853169799 0.987701960530594 -11.5020853169799 0.0518647449725939 66.3097477983144 
! Gamma         0                0                0                0                
! Port Impedance         50               0                50               0                
5.4                            0.0527589356456401 66.1754977402418 0.987574253522503 -11.7161331367396 0.987574253522505 -11.7161331367397 0.0527577193501765 66.2175371852858 
! Gamma         0                0                0                0                
! Port Impedance         50               0                50               0                
5.5                            0.0536501784948608 66.0774604530449 0.987445177474236 -11.9300847832481 0.987445177474238 -11.9300847832481 0.0536489626060713 66.1202442279725 
! Gamma         0                0                0                0                
! Port Impedance         50               0                50               0                
5.6                            0.0545396408188576 65.9746273317212 0.98731476520784 -12.1439392371566 0.987314765207842 -12.1439392371566 0.0545384256787973 66.018157004084  
! Gamma         0                0                0                0                
! Port Impedance         50               0                50               0                
5.7                            0.0554272764568272 65.8672678652278 0.98718304964834 -12.3576955707179 0.987183049648343 -12.3576955707179 0.0554260624741178 65.9115449621346 
! Gamma         0                0                0                0                
! Port Impedance         50               0                50               0                
5.8                            0.05631304204262 65.7556343361348 0.987050063761156 -12.5713529433308 0.987050063761158 -12.5713529433309 0.0563118296913104 65.8006603430628 
! Gamma         0                0                0                0                
! Port Impedance         50               0                50               0                
5.9                            0.0571968968444926 65.6399631155044 0.986915840495289 -12.7849105973575 0.986915840495291 -12.7849105973575 0.0571956866628442 65.6857394753399 
! Gamma         0                0                0                0                
! Port Impedance         50               0                50               0                
6                              0.0580788026169112 65.5204758439845 0.9867804127317  -12.9983678541848 0.986780412731702 -12.9983678541849 0.0580775952061126 65.5670039562645 
! Gamma         0                0                0                0                
! Port Impedance         50               0                50               0                
6.1                            0.0589587234632035 65.3973805104192 0.986643813236372 -13.2117241105067 0.986643813236374 -13.2117241105067 0.0589575194860142 65.4446617307489 
! Gamma         0                0                0                0                
! Port Impedance         50               0                50               0                
6.2                            0.0598366257079893 65.2708724380428 0.986506074617601 -13.424978834804 0.986506074617604 -13.424978834804 0.0598354258873157 65.3189080776681 
! Gamma         0                0                0                0                
! Port Impedance         50               0                50               0                
6.3                            0.0607124777784393 65.1411351872398 0.986367229287156 -13.6381315640048 0.986367229287157 -13.6381315640048 0.0607112828958446 65.1899265127573 
! Gamma         0                0                0                0                
! Port Impedance         50               0                50               0                
6.4                            0.0615862500935163 65.0083413828934 0.986227309424945 -13.851181900308 0.986227309424947 -13.8511819003081 0.0615850609876664 65.0578896160823 
! Gamma         0                0                0                0                
! Port Impedance         50               0                50               0                
6.5                            0.0624579149604471 64.8726534734915 0.98608634694692 -14.0641295081563 0.986086346946922 -14.0641295081564 0.0624567325254966 64.9229597912554 
! Gamma         0                0                0                0                
! Port Impedance         50               0                50               0                
6.6                            0.0633274464777547 64.7342244284102 0.985944373475935 -14.2769741113456 0.985944373475937 -14.2769741113456 0.0633262716616749 64.7852899628171 
! Gamma         0                0                0                0                
! Port Impedance         50               0                50               0                
6.7                            0.0641948204442547 64.5931983791252 0.985801420315339 -14.4897154902606 0.985801420315341 -14.4897154902606 0.0641936542471068 64.6450242175358 
! Gamma         0                0                0                0                
! Port Impedance         50               0                50               0                
6.8                            0.0650600142734813 64.4497112095073 0.985657518425091 -14.7023534792265 0.985657518425093 -14.7023534792265 0.0650588577456396 64.502298394785  
! Gamma         0                0                0                0                
! Port Impedance         50               0                50               0                
6.9                            0.0659230069130707 64.3038910998374 0.985512698400224 -14.914887963969 0.985512698400226 -14.914887963969 0.0659218611533975 64.3572406306305 
! Gamma         0                0                0                0                
! Port Impedance         50               0                50               0                
7                              0.0667837787686747 64.1558590287009 0.985366990451468 -15.1273188791742 0.98536699045147 -15.1273188791743 0.0667826449226529 64.2099718597927 
! Gamma         0                0                0                0                
! Port Impedance         50               0                50               0                
7.1                            0.067642311632027 64.0057292365111 0.985220424387903 -15.3396462061437 0.985220424387905 -15.3396462061437 0.0676411908898525 64.0606062792319 
! Gamma         0                0                0                0                
! Port Impedance         50               0                50               0                
7.2                            0.0684985886128217 63.8536096540375 0.985073029601499 -15.5518699705369 0.985073029601501 -15.5518699705369 0.0684974822074616 63.9092517767325 
! Gamma         0                0                0                0                
! Port Impedance         50               0                50               0                
7.3                            0.0693525940741009 63.6996022989817 0.984924835053407 -15.7639902401979 0.984924835053409 -15.7639902401979 0.06935150327932 63.7560103275318 
! Gamma         0                0                0                0                
! Port Impedance         50               0                50               0                
7.4                            0.0702043135708781 63.5438036433515 0.984775869261902 -15.9760071230611 0.984775869261904 -15.9760071230611 0.0702032396992397 63.6009783617426 
! Gamma         0                0                0                0                
! Port Impedance         50               0                50               0                
7.5                            0.0710537337917545 63.3863049541169 0.984626160291861 -16.1879207651314 0.984626160291863 -16.1879207651314 0.0710526781925988 63.4442471050536 
! Gamma         0                0                0                0                
! Port Impedance         50               0                50               0                
7.6                            0.071900842503307 63.2271926093955 0.984475735745682 -16.3997313485371 0.984475735745684 -16.3997313485371 0.0718998065607126 63.2859028949562 
! Gamma         0                0                0                0                
! Port Impedance         50               0                50               0                
7.7                            0.0727456284970527 63.0665483922031 0.984324622755555 -16.6114390896503 0.984324622755557 -16.6114390896503 0.0727446136277855 63.1260274745342 
! Gamma         0                0                0                0                
! Port Impedance         50               0                50               0                
7.8                            0.0735880815388119 62.9044497636152 0.984172847976992 -16.8230442372741 0.984172847976994 -16.8230442372742 0.0735870891902645 62.9646982656602 
! Gamma         0                0                0                0                
! Port Impedance         50               0                50               0                
7.9                            0.0744281923203079 62.7409701170139 0.984020437583554 -17.0345470708923 0.984020437583556 -17.0345470708923 0.0744272239684372 62.8019886232756 
! Gamma         0                0                0                0                
! Port Impedance         50               0                50               0                
8                              0.0752659524128633 62.5761790149419 0.983867417262677 -17.2459478989805 0.983867417262679 -17.2459478989805 0.0752650095601281 62.6379680722753 
! Gamma         0                0                0                0                
! Port Impedance         50               0                50               0                
8.1                            0.0761013542230591 62.4101424099475 0.983713812212548 -17.4572470573764 0.983713812212551 -17.4572470573764 0.0761004383963631 62.4727025283803 
! Gamma         0                0                0                0                
! Port Impedance         50               0                50               0                
8.2                            0.0769343909502408 62.2429228506783 0.983559647139955 -17.6684449077067 0.983559647139958 -17.6684449077067 0.0769335036988862 62.3062545042578 
! Gamma         0                0                0                0                
! Port Impedance         50               0                50               0                
8.3                            0.0777650565457642 62.0745796743738 0.983404946259049 -17.8795418358702 0.983404946259051 -17.8795418358702 0.0777641994394193 62.1386833020366 
! Gamma         0                0                0                0                
! Port Impedance         50               0                50               0                
8.4                            0.0785933456738845 61.9051691867998 0.983249733290961 -18.0905382505741 0.983249733290963 -18.0905382505741 0.0785925203005705 61.9700451932637 
! Gamma         0                0                0                0                
! Port Impedance         50               0                50               0                
8.5                            0.0794192536742009 61.7347448305825 0.98309403146422 -18.3014345819228 0.983094031464223 -18.3014345819229 0.0794184616383009 61.8003935872574 
! Gamma         0                0                0                0                
! Port Impedance         50               0                50               0                
8.6                            0.0802427765255755 61.5633573428132 0.982937863515916 -18.5122312800584 0.982937863515918 -18.5122312800584 0.080242019445872 61.6297791887298 
! Gamma         0                0                0                0                
! Port Impedance         50               0                50               0                
8.7                            0.0810639108114557 61.3910549027222 0.982781251693554 -18.7229288138493 0.982781251693556 -18.7229288138493 0.0810631903191978 61.4582501454763 
! Gamma         0                0                0                0                
! Port Impedance         50               0                50               0                
8.8                            0.0818826536865307 61.217883270153  0.982624217757561 -18.9335276696293 0.982624217757564 -18.9335276696293 0.0818819714235375 61.2858521868631 
! Gamma         0                0                0                0                
! Port Impedance         50               0                50               0                
8.9                            0.0826990028446629 61.0438859155043 0.982466782984395 -19.1440283499825 0.982466782984397 -19.1440283499825 0.0826983604614654 61.1126287537822 
! Gamma         0                0                0                0                
! Port Impedance         50               0                50               0                
9                              0.0835129564880376 60.8691041417554 0.982308968170202 -19.3544313725747 0.982308968170204 -19.3544313725748 0.0835123556420628 60.938621120686  
! Gamma         0                0                0                0                
! Port Impedance         50               0                50               0                
9.1                            0.0843245132974781 60.6935771991371 0.982150793635002 -19.5647372690303 0.982150793635004 -19.5647372690303 0.0843239556512793 60.7638685102672 
! Gamma         0                0                0                0                
! Port Impedance         50               0                50               0                
9.2                            0.0851336724038803 60.5173423929655 0.981992279227346 -19.7749465838525 0.981992279227348 -19.7749465838525 0.0851331596234167 60.5884082012997 
! Gamma         0                0                0                0                
! Port Impedance         50               0                50               0                
9.3                            0.0859404333607204 60.3404351851146 0.981833444329408 -19.985059873387 0.98183344432941 -19.985059873387 0.085939967113689 60.4122756301161 
! Gamma         0                0                0                0                
! Port Impedance         50               0                50               0                
9.4                            0.0867447961175972 60.1628892895656 0.981674307862487 -20.1950777048276 0.981674307862489 -20.1950777048276 0.0867443780718202 60.2355044861609 
! Gamma         0                0                0                0                
! Port Impedance         50               0                50               0                
9.5                            0.0875467609947686 59.9847367624353 0.981514888292874 -20.4050006552621 0.981514888292876 -20.4050006552621 0.0875463928166388 60.0581268020212 
! Gamma         0                0                0                0                
! Port Impedance         50               0                50               0                
9.6                            0.0883463286586473 59.8060080868557 0.981355203638053 -20.6148293107593 0.981355203638055 -20.6148293107593 0.0883460120116346 59.880173038307  
! Gamma         0                0                0                0                
! Port Impedance         50               0                50               0                
9.7                            0.0891435000982227 59.6267322530472 0.981195271473211 -20.8245642654936 0.981195271473214 -20.8245642654937 0.0891432366414442 59.7016721637235 
! Gamma         0                0                0                0                
! Port Impedance         50               0                50               0                
9.8                            0.0899382766023779 59.446936833902  0.98103510893802 -21.0342061209092 0.981035108938022 -21.0342061209092 0.089938067989233 59.522651730653  
! Gamma         0                0                0                0                
! Port Impedance         50               0                50               0                
9.9                            0.0907306597380703 59.2666480563703 0.980874732743662 -21.2437554849198 0.980874732743664 -21.2437554849198 0.0907305076149441 59.343137946537  
! Gamma         0                0                0                0                
! Port Impedance         50               0                50               0                
10                             0.0915206513293507 59.0858908689185 0.980714159180083 -21.4532129711458 0.980714159180085 -21.4532129711458 0.0915205573343872 59.1631557413303 
! Gamma         0                0                0                0                
! Port Impedance         50               0                50               0                
10.1                           0.0923082534371919 58.9046890053115 0.980553404123432 -21.6625791981856 0.980553404123434 -21.6625791981857 0.0923082191991383 58.9827288312771 
! Gamma         0                0                0                0                
! Port Impedance         50               0                50               0                
10.2                           0.0930934683401031 58.7230650449492 0.980392483043675 -21.8718547889225 0.980392483043678 -21.8718547889225 0.0930934954772278 58.8018797792404 
! Gamma         0                0                0                0                
! Port Impedance         50               0                50               0                
10.3                           0.093876298515506 58.5410404699726 0.980231411012354 -22.0810403698633 0.980231411012356 -22.0810403698633 0.0938763886345907 58.6206300518001 
! Gamma         0                0                0                0                
! Port Impedance         50               0                50               0                
10.4                           0.0946567466218484 58.3586357193391 0.980070202710468 -22.2901365705111 0.98007020271047 -22.2901365705111 0.0946569013172565 58.4390000733188 
! Gamma         0                0                0                0                
! Port Impedance         50               0                50               0                
10.5                           0.0954348154814357 58.1758702400518 0.979908872436467 -22.4991440227683 0.979908872436469 -22.4991440227683 0.0954350363342573 58.2570092771605 
! Gamma         0                0                0                0                
! Port Impedance         50               0                50               0                
10.6                           0.0962105080639569 57.9927625357143 0.97974743411432 -22.708063360371 0.979747434114322 -22.708063360371 0.0962107966412317 58.0746761542343 
! Gamma         0                0                0                0                
! Port Impedance         50               0                50               0                
10.7                           0.0969838274706859 57.8093302125714 0.97958590130166 -22.916895218353 0.979585901301662 -22.916895218353 0.0969841853247052 57.8920182990228 
! Gamma         0                0                0                0                
! Port Impedance         50               0                50               0                
10.8                           0.0977547769193389 57.6255900231843 0.979424287197967 -23.1256402325389 0.979424287197969 -23.1256402325389 0.0977552055870265 57.7090524532437 
! Gamma         0                0                0                0                
! Port Impedance         50               0                50               0                
10.9                           0.0985233597295682 57.4415579078782 0.979262604652796 -23.3342990390645 0.979262604652798 -23.3342990390645 0.0985238607319409 57.5257945472837 
! Gamma         0                0                0                0                
! Port Impedance         50               0                50               0                
11                             0.0992895793090744 57.2572490340925 0.979100866174009 -23.5428722739253 0.979100866174011 -23.5428722739253 0.0992901541507831 57.3422597395334 
! Gamma         0                0                0                0                
! Port Impedance         50               0                50               0                
11.1                           0.100053439140319 57.072677833753  0.978939083936022 -23.7513605725509 0.978939083936024 -23.7513605725509 0.10005408930927 57.1584624537442 
! Gamma         0                0                0                0                
! Port Impedance         50               0                50               0                
11.2                           0.100814942767822 56.8878580387785 0.978777269788033 -23.9597645694045 0.978777269788035 -23.9597645694045 0.100815669734878 56.9744164145185 
! Gamma         0                0                0                0                
! Port Impedance         50               0                50               0                
11.3                           0.101574093786024 56.7028027148275 0.978615435262231 -24.1680848976076 0.978615435262233 -24.1680848976076 0.101574899004784 56.7901346810389 
! Gamma         0                0                0                0                
! Port Impedance         50               0                50               0                
11.4                           0.1023308958277  56.5175242933821 0.978453591581968 -24.3763221885881 0.97845359158197 -24.3763221885881 0.102331780734363 56.6056296791349 
! Gamma         0                0                0                0                
! Port Impedance         50               0                50               0                
11.5                           0.103085352552907 56.3320346022612 0.978291749669885 -24.5844770717519 0.978291749669888 -24.5844770717519 0.103086318566214 56.4209132317777 
! Gamma         0                0                0                0                
! Port Impedance         50               0                50               0                
11.6                           0.103837467638452 56.1463448946492 0.978129920155985 -24.7925501741759 0.978129920155987 -24.7925501741759 0.103838516159702 56.2359965880902 
! Gamma         0                0                0                0                
! Port Impedance         50               0                50               0                
11.7                           0.104587244767864 55.9604658767196 0.977968113385632 -25.0005421203231 0.977968113385634 -25.0005421203231 0.104588377181015 56.0508904509512 
! Gamma         0                0                0                0                
! Port Impedance         50               0                50               0                
11.8                           0.105334687621851 55.7744077339303 0.977806339427485 -25.2084535317778 0.977806339427487 -25.2084535317778 0.105335905293697 55.8656050032708 
! Gamma         0                0                0                0                
! Port Impedance         50               0                50               0                
11.9                           0.106079799869239 55.5881801560592 0.977644608081341 -25.4162850270014 0.977644608081343 -25.4162850270014 0.106081104149658 55.6801499330065 
! Gamma         0                0                0                0                
! Port Impedance         50               0                50               0                
12                             0.106822585158364 55.4017923610488 0.977482928885896 -25.6240372211063 0.977482928885898 -25.6240372211063 0.106823977380653 55.4945344569867 
! Gamma         0                0                0                0                
! Port Impedance         50               0                50               0                
12.1                           0.107563047108914 55.21525311772   0.977321311126402 -25.8317107256492 0.977321311126404 -25.8317107256492 0.107564528590191 55.3087673436042 
! Gamma         0                0                0                0                
! Port Impedance         50               0                50               0                
12.2                           0.108301189304209 55.0285707674149 0.977159763842223 -26.039306148441 0.977159763842224 -26.039306148441 0.108302761345887 55.1228569344372 
! Gamma         0                0                0                0                
! Port Impedance         50               0                50               0                
12.3                           0.10903701528389 54.8417532446227 0.976998295834283 -26.2468240933751 0.976998295834285 -26.2468240933751 0.109038679172233 54.9368111648549 
! Gamma         0                0                0                0                
! Port Impedance         50               0                50               0                
12.4                           0.109770528537028 54.6548080966416 0.976836915672403 -26.4542651602703 0.976836915672405 -26.4542651602703 0.109772285543767 54.7506375836569 
! Gamma         0                0                0                0                
! Port Impedance         50               0                50               0                
12.5                           0.110501732495615 54.4677425023243 0.976675631702511 -26.6616299447308 0.976675631702513 -26.6616299447308 0.110503583878644 54.5643433717973 
! Gamma         0                0                0                0                
! Port Impedance         50               0                50               0                
12.6                           0.111230630528447 54.2805632899531 0.976514452053737 -26.8689190380198 0.976514452053739 -26.8689190380198 0.111232577532581 54.3779353602383 
! Gamma         0                0                0                0                
! Port Impedance         50               0                50               0                
12.7                           0.111957225935372 54.0932769542892 0.97635338464538 -27.0761330269488 0.976353384645382 -27.0761330269488 0.111959269793173 54.1914200469771 
! Gamma         0                0                0                0                
! Port Impedance         50               0                50               0                
12.8                           0.112681521941897 53.905889672835  0.976192437193742 -27.2832724937795 0.976192437193744 -27.2832724937795 0.112683663874566 54.0048036132861 
! Gamma         0                0                0                0                
! Port Impedance         50               0                50               0                
12.9                           0.11340352169414 53.7184073213497 0.976031617218837 -27.4903380161391 0.976031617218839 -27.4903380161391 0.113405762912475 53.8180919392067 
! Gamma         0                0                0                0                
! Port Impedance         50               0                50               0                
13                             0.114123228254118 53.5308354886535 0.975870932050955 -27.6973301669483 0.975870932050957 -27.6973301669483 0.114125569959531 53.6312906183313 
! Gamma         0                0                0                0                
! Port Impedance         50               0                50               0                
13.1                           0.114840644595362 53.3431794907548 0.9757103888371  -27.9042495143609 0.975710388837101 -27.9042495143609 0.114843087980959 53.4444049719083 
! Gamma         0                0                0                0                
! Port Impedance         50               0                50               0                
13.2                           0.115555773598842 53.1554443843336 0.97554999454728 -28.1110966217149 0.975549994547282 -28.1110966217149 0.115558319850556 53.2574400623034 
! Gamma         0                0                0                0                
! Port Impedance         50               0                50               0                
13.3                           0.11626861804919 52.9676349796112 0.975389755980667 -28.3178720474946 0.975389755980669 -28.3178720474946 0.116271268346978 53.0704007058475 
! Gamma         0                0                0                0                
! Port Impedance         50               0                50               0                
13.4                           0.116979180631226 52.7797558526353 0.975229679771609 -28.5245763453022 0.97522967977161 -28.5245763453022 0.116981936150318 52.8832914850997 
! Gamma         0                0                0                0                
! Port Impedance         50               0                50               0                
13.5                           0.117687463926754 52.5918113570082 0.975069772395499 -28.7312100638404 0.9750697723955  -28.7312100638404 0.117690325838954 52.6961167605537 
! Gamma         0                0                0                0                
! Port Impedance         50               0                50               0                
13.6                           0.118393470411642 52.4038056350841 0.974910040174512 -28.9377737469028 0.974910040174514 -28.9377737469028 0.118396439886678 52.5088806818136 
! Gamma         0                0                0                0                
! Port Impedance         50               0                50               0                
13.7                           0.11909720245315 52.2157426286603 0.974750489283191 -29.1442679333745 0.974750489283193 -29.1442679333745 0.11910028066008 52.3215871982633 
! Gamma         0                0                0                0                
! Port Impedance         50               0                50               0                
13.8                           0.119798662307525 52.0276260891855 0.974591125753893 -29.3506931572398 0.974591125753895 -29.3506931572398 0.119801850416184 52.1342400692536 
! Gamma         0                0                0                0                
! Port Impedance         50               0                50               0                
13.9                           0.120497852117829 51.8394595875073 0.974431955482093 -29.5570499475988 0.974431955482094 -29.5570499475988 0.120501151300323 51.9468428738288 
! Gamma         0                0                0                0                
! Port Impedance         50               0                50               0                
14                             0.121194773912011 51.6512465231812 0.974272984231549 -29.7633388286906 0.97427298423155 -29.7633388286906 0.121198185344254 51.7593990200142 
! Gamma         0                0                0                0                
! Port Impedance         50               0                50               0                
14.1                           0.121889429601191 51.4629901333588 0.974114217639324 -29.9695603199239 0.974114217639325 -29.9695603199239 0.121892954464486 51.5719117536838 
! Gamma         0                0                0                0                
! Port Impedance         50               0                50               0                
14.2                           0.122581820978179 51.2746935012766 0.973955661220668 -30.1757149359142 0.973955661220669 -30.1757149359141 0.122585460460832 51.384384167029  
! Gamma         0                0                0                0                
! Port Impedance         50               0                50               0                
14.3                           0.123271949716188 51.0863595643618 0.973797320373761 -30.381803186527 0.973797320373762 -30.3818031865269 0.123275705015167 51.1968192066437 
! Gamma         0                0                0                0                
! Port Impedance         50               0                50               0                
14.4                           0.123959817367755 50.8979911219737 0.973639200384321 -30.5878255769272 0.973639200384322 -30.5878255769272 0.123963689690376 51.0092196812457 
! Gamma         0                0                0                0                
! Port Impedance         50               0                50               0                
14.5                           0.124645425363853 50.7095908427951 0.973481306430071 -30.7937826076336 0.973481306430072 -30.7937826076336 0.124649415929506 50.821588269049  
! Gamma         0                0                0                0                
! Port Impedance         50               0                50               0                
14.6                           0.125328775013192 50.5211612718915 0.973323643585074 -30.9996747745787 0.973323643585075 -30.9996747745787 0.125332885055093 50.633927524803  
! Gamma         0                0                0                0                
! Port Impedance         50               0                50               0                
14.7                           0.126009867501687 50.3327048374512 0.973166216823934 -31.2055025691732 0.973166216823935 -31.2055025691732 0.126014098268662 50.4462398865138 
! Gamma         0                0                0                0                
! Port Impedance         50               0                50               0                
14.8                           0.126688703892112 50.1442238572213 0.973009031025862 -31.4112664783749 0.973009031025864 -31.4112664783749 0.126693056650407 50.2585276818613 
! Gamma         0                0                0                0                
! Port Impedance         50               0                50               0                
14.9                           0.127365285123903 49.955720544652  0.97285209097862 -31.6169669847621 0.972852090978621 -31.616966984762 0.127369761159018 50.0707931343253 
! Gamma         0                0                0                0                
! Port Impedance         50               0                50               0                
15                             0.128039612013125 49.7671970147636 0.972695401382323 -31.8226045666103 0.972695401382324 -31.8226045666102 0.128044212631675 49.8830383690343 
! Gamma         0                0                0                0                
! Port Impedance         50               0                50               0                
15.1                           0.128711685252588 49.5786552897472 0.97253896685313 -32.0281796979729 0.972538966853131 -32.0281796979728 0.128716411784178 49.695265418348  
! Gamma         0                0                0                0                
! Port Impedance         50               0                50               0                
15.2                           0.129381505412107 49.3900973043101 0.972382791926799 -32.233692848765 0.972382791926799 -32.2336928487649 0.129386359211232 49.507476227186  
! Gamma         0                0                0                0                
! Port Impedance         50               0                50               0                
15.3                           0.130049072938893 49.2015249107789 0.97222688106212 -32.4391444848502 0.972226881062121 -32.4391444848502 0.130054055386854 49.3196726581134 
! Gamma         0                0                0                0                
! Port Impedance         50               0                50               0                
15.4                           0.130714388158083 49.0129398839697 0.972071238644241 -32.6445350681304 0.972071238644241 -32.6445350681303 0.130719500664914 49.1318564961942 
! Gamma         0                0                0                0                
! Port Impedance         50               0                50               0                
15.5                           0.131377451273388 48.8243439258347 0.971915868987853 -32.8498650566375 0.971915868987853 -32.8498650566375 0.131382695279805 48.9440294536218 
! Gamma         0                0                0                0                
! Port Impedance         50               0                50               0                
15.6                           0.132038262367867 48.6357386698964 0.97176077634028 -33.0551349046284 0.971760776340281 -33.0551349046284 0.132043639347217 48.7561931741372 
! Gamma         0                0                0                0                
! Port Impedance         50               0                50               0                
15.7                           0.132696821404807 48.4471256854781 0.971605964884443 -33.2603450626811 0.971605964884444 -33.260345062681 0.132702332865037 48.5683492372434 
! Gamma         0                0                0                0                
! Port Impedance         50               0                50               0                
15.8                           0.133353128228716 48.2585064817384 0.971451438741716 -33.4654959777932 0.971451438741716 -33.4654959777931 0.133358775714342 48.3804991622254 
! Gamma         0                0                0                0                
! Port Impedance         50               0                50               0                
15.9                           0.134007182566421 48.0698825115196 0.971297201974669 -33.670588093482 0.97129720197467 -33.6705880934819 0.134012967660506 48.1926444119831 
! Gamma         0                0                0                0                
! Port Impedance         50               0                50               0                
16                             0.134658984028254 47.8812551750173 0.971143258589713 -33.8756218498861 0.971143258589713 -33.875621849886 0.134664908354392 48.0047863966867 
! Gamma         0                0                0                0                
! Port Impedance         50               0                50               0                
16.1                           0.135308532109344 47.6926258232783 0.970989612539625 -34.0805976838679 0.970989612539626 -34.0805976838678 0.13531459733364 47.8169264772602 
! Gamma         0                0                0                0                
! Port Impedance         50               0                50               0                
16.2                           0.135955826190985 47.5039957615352 0.970836267725986 -34.2855160291178 0.970836267725987 -34.2855160291177 0.135962034024044 47.6290659687028 
! Gamma         0                0                0                0                
! Port Impedance         50               0                50               0                
16.3                           0.136600865542097 47.3153662523844 0.970683228001508 -34.4903773162591 0.970683228001508 -34.490377316259 0.136607217741004 47.4412061432529 
! Gamma         0                0                0                0                
! Port Impedance         50               0                50               0                
16.4                           0.137243649320761 47.126738518813  0.970530497172264 -34.6951819729533 0.970530497172264 -34.6951819729532 0.137250147691062 47.2533482334022 
! Gamma         0                0                0                0                
! Port Impedance         50               0                50               0                
16.5                           0.137884176575829 46.9381137470828 0.970378078999828 -34.899930424007 0.970378078999828 -34.8999304240069 0.137890822973508 47.0654934347674 
! Gamma         0                0                0                0                
! Port Impedance         50               0                50               0                
16.6                           0.138522446248605 46.7494930894765 0.970225977203313 -35.1046230914781 0.970225977203314 -35.1046230914781 0.138529242582052 46.8776429088236 
! Gamma         0                0                0                0                
! Port Impedance         50               0                50               0                
16.7                           0.139158457174597 46.5608776669116 0.970074195461328 -35.3092603947836 0.970074195461329 -35.3092603947835 0.139165405406571 46.6897977855068 
! Gamma         0                0                0                0                
! Port Impedance         50               0                50               0                
16.8                           0.139792208085322 46.3722685714288 0.969922737413833 -35.5138427508064 0.969922737413833 -35.5138427508063 0.139799310234903 46.5019591656905 
! Gamma         0                0                0                0                
! Port Impedance         50               0                50               0                
16.9                           0.140423697610179 46.1836668685591 0.969771606663914 -35.7183705740033 0.969771606663914 -35.7183705740033 0.140430955754709 46.3141281235418 
! Gamma         0                0                0                0                
! Port Impedance         50               0                50               0                
17                             0.141052924278375 45.9950735995751 0.96962080677948 -35.9228442765126 0.96962080677948 -35.9228442765125 0.141060340555388 46.1263057087621 
! Gamma         0                0                0                0                
! Port Impedance         50               0                50               0                
17.1                           0.141679886520899 45.806489783632  0.969470341294861 -36.127264268261 0.969470341294862 -36.1272642682609 0.141687463130037 45.9384929487172 
! Gamma         0                0                0                0                
! Port Impedance         50               0                50               0                
17.2                           0.142304582672548 45.6179164198018 0.969320213712341 -36.3316309570715 0.969320213712341 -36.3316309570714 0.142312321877461 45.750690850462  
! Gamma         0                0                0                0                
! Port Impedance         50               0                50               0                
17.3                           0.142927010973998 45.4293544890063 0.969170427503603 -36.5359447487701 0.969170427503603 -36.53594474877  0.142934915104227 45.5629004026636 
! Gamma         0                0                0                0                
! Port Impedance         50               0                50               0                
17.4                           0.143547169573919 45.2408049558529 0.969020986111101 -36.7402060472921 0.969020986111101 -36.740206047292 0.14355524102676 45.3751225774277 
! Gamma         0                0                0                0                
! Port Impedance         50               0                50               0                
17.5                           0.14416505653112 45.0522687703767 0.968871892949361 -36.9444152547888 0.968871892949361 -36.9444152547887 0.144173297773476 45.1873583320319 
! Gamma         0                0                0                0                
! Port Impedance         50               0                50               0                
17.6                           0.144780669816745 44.8637468696938 0.968723151406204 -37.1485727717324 0.968723151406204 -37.1485727717323 0.144789083386944 44.9996086105705 
! Gamma         0                0                0                0                
! Port Impedance         50               0                50               0                
17.7                           0.145394007316484 44.6752401795692 0.968574764843901 -37.3526789970213 0.968574764843901 -37.3526789970212 0.14540259582609 44.8118743455136 
! Gamma         0                0                0                0                
! Port Impedance         50               0                50               0                
17.8                           0.146005066832836 44.4867496159022 0.968426736600263 -37.5567343280842 0.968426736600263 -37.5567343280841 0.146013832968425 44.6241564591853 
! Gamma         0                0                0                0                
! Port Impedance         50               0                50               0                
17.9                           0.146613846087377 44.2982760861344 0.96827906998966 -37.7607391609836 0.96827906998966 -37.7607391609835 0.146622792612297 44.4364558651634 
! Gamma         0                0                0                0                
! Port Impedance         50               0                50               0                
18                             0.147220342723076 44.1098204905819 0.96813176830398 -37.9646938905184 0.96813176830398 -37.9646938905183 0.147229472479173 44.2487734696051 
! Gamma         0                0                0                0                
! Port Impedance         50               0                50               0                
18.1                           0.147824554306614 43.9213837236961 0.967984834813522 -38.1685989103256 0.967984834813522 -38.1685989103255 0.147833870215943 44.0611101725002 
! Gamma         0                0                0                0                
! Port Impedance         50               0                50               0                
18.2                           0.148426478330737 43.7329666752557 0.967838272767831 -38.3724546129812 0.967838272767831 -38.3724546129811 0.148435983397235 43.8734668688569 
! Gamma         0                0                0                0                
! Port Impedance         50               0                50               0                
18.3                           0.149026112216624 43.5445702314926 0.967692085396471 -38.5762613900999 0.967692085396471 -38.5762613900999 0.149035809527759 43.6858444498212 
! Gamma         0                0                0                0                
! Port Impedance         50               0                50               0                
18.4                           0.149623453316269 43.3561952761548 0.967546275909749 -38.7800196324343 0.967546275909748 -38.7800196324342 0.149633346044659 43.4982438037342 
! Gamma         0                0                0                0                
! Port Impedance         50               0                50               0                
18.5                           0.150218498914879 43.1678426915094 0.967400847499368 -38.9837297299718 0.967400847499368 -38.9837297299717 0.150228590319881 43.3106658171291 
! Gamma         0                0                0                0                
! Port Impedance         50               0                50               0                
18.6                           0.150811246233287 42.9795133592875 0.967255803339051 -39.1873920720322 0.96725580333905 -39.1873920720321 0.150821539662551 43.1231113756707 
! Gamma         0                0                0                0                
! Port Impedance         50               0                50               0                
18.7                           0.151401692430368 42.7912081615737 0.967111146585083 -39.3910070473625 0.967111146585083 -39.3910070473624 0.151412191321363 42.9355813650401 
! Gamma         0                0                0                0                
! Port Impedance         50               0                50               0                
18.8                           0.151989834605473 42.6029279816427 0.96696688037683 -39.5945750442315 0.96696688037683 -39.5945750442315 0.152000542486976 42.748076671767  
! Gamma         0                0                0                0                
! Port Impedance         50               0                50               0                
18.9                           0.152575669800862 42.4146737047458 0.966823007837195 -39.7980964505229 0.966823007837195 -39.7980964505228 0.152586590294415 42.5605981840105 
! Gamma         0                0                0                0                
! Port Impedance         50               0                50               0                
19                             0.153159195004146 42.2264462188485 0.966679532073024 -40.0015716538269 0.966679532073024 -40.0015716538268 0.153170331825478 42.3731467922937 
! Gamma         0                0                0                0                
! Port Impedance         50               0                50               0                
19.1                           0.153740407150732 42.0382464153213 0.966536456175481 -40.205001041531 0.966536456175481 -40.205001041531 0.153751764111144 42.1857233901904 
! Gamma         0                0                0                0                
! Port Impedance         50               0                50               0                
19.2                           0.154319303126272 41.8500751895874 0.966393783220364 -40.4083850009095 0.966393783220364 -40.4083850009094 0.154330884133984 41.9983288749685 
! Gamma         0                0                0                0                
! Port Impedance         50               0                50               0                
19.3                           0.154895879769104 41.6619334417267 0.966251516268388 -40.6117239192109 0.966251516268387 -40.6117239192109 0.154907688830569 41.8109641481916 
! Gamma         0                0                0                0                
! Port Impedance         50               0                50               0                
19.4                           0.155470133872705 41.4738220770399 0.966109658365419 -40.8150181837454 0.966109658365419 -40.8150181837454 0.15548217509388 41.6236301162795 
! Gamma         0                0                0                0                
! Port Impedance         50               0                50               0                
19.5                           0.156042062188129 41.2857420065736 0.965968212542677 -41.0182681819697 0.965968212542678 -41.0182681819696 0.156054339775714 41.4363276910307 
! Gamma         0                0                0                0                
! Port Impedance         50               0                50               0                
19.6                           0.156611661426452 41.0976941476082 0.965827181816897 -41.2214743015711 0.965827181816897 -41.221474301571 0.15662417968908 41.2490577901078 
! Gamma         0                0                0                0                
! Port Impedance         50               0                50               0                
19.7                           0.157178928261202 40.9096794241109 0.965686569190444 -41.4246369305503 0.965686569190444 -41.4246369305502 0.1571916916106  41.0618213374878 
! Gamma         0                0                0                0                
! Port Impedance         50               0                50               0                
19.8                           0.157743859330793 40.7216987671533 0.965546377651409 -41.6277564573026 0.965546377651409 -41.6277564573026 0.157756872282894 40.8746192638784 
! Gamma         0                0                0                0                
! Port Impedance         50               0                50               0                
19.9                           0.158306451240942 40.5337531152988 0.965406610173657 -41.830833270698 0.965406610173657 -41.830833270698 0.158319718416963 40.6874525071027 
! Gamma         0                0                0                0                
! Port Impedance         50               0                50               0                
20                             0.158866700567087 40.3458434149564 0.965267269716845 -42.0338677601593 0.965267269716845 -42.0338677601593 0.158880226694557 40.5003220124527 
! Gamma         -0               -0               -0               -0               
! Port Impedance         50               0                50               0                
