! Touchstone file exported from HFSS 2026.1.0
!        File:           C:/ffzhzh/LocalFiles/Ansys_Project_Files/temp_train_BSMRDL_697_1783017804_53980.aedt
!        Generated:      02:44:44 AM Jul  3, 2026
!        Design:         BSMRDL
!        Project:        temp_train_BSMRDL_697_1783017804_53980
!
! Variables:
!        h_bsmrdl = 3.73um
!        h_ox = 20um
!        h_rdl = 5um
!        h_sub = 80um
!        h_tmrdl = 5um
!        h_tsv = 80um
!        h_via = 3um
!        l_bsmrdl = 719.98um
!        l_sub = 1119.98um
!        l_tmrdl = 200um
!        m_sub = 200um
!        pitch = 32.18um
!        r_tsv = 6um
!        s_tmrdl = 10um
!        w_bsmrdl = 20.34um
!        w_sub = 500um
!        w_tmrdl = 12um
!        x_tsv_center1 = 206um
!        x_tsv_center2 = 946.32um
!        x_tsv_center3 = 1158.32um
!        x_tsv_center4 = 1898.64um
!        x_tsv_center5 = 2110.64um
!        x_tsv_center6 = 2850.96um
!
# GHz S MA R 50.000000
! Terminal data exported
! Port[1] = BSM_RDL1_1_T1
! Port[2] = BSM_RDL1_1_T2
0.1                            0.00404581027078053 27.8786233587238 0.996430186896749 -0.249247752182222 0.996430186896749 -0.249247752182218 0.00404580923591222 27.8786084708926 
! Gamma         0                0                0                0                
! Port Impedance         50               0                50               0                
0.2                            0.00529817779484821 43.6665226678309 0.996186306042915 -0.49082342548765 0.996186306042915 -0.490823425487622 0.0052982145445795 43.66792089424   
! Gamma         0                0                0                0                
! Port Impedance         50               0                50               0                
0.3                            0.00670165027574948 52.0228081171038 0.995925982998576 -0.724167323433323 0.995925982998576 -0.724167323433265 0.00670186757034038 52.024415175653  
! Gamma         0                0                0                0                
! Port Impedance         50               0                50               0                
0.4                            0.00810520187336758 57.2130014522131 0.99570717402885 -0.952483160204019 0.99570717402885 -0.95248316020394 0.00810561105867511 57.2138349538913 
! Gamma         0                0                0                0                
! Port Impedance         50               0                50               0                
0.5                            0.00949729889275688 60.9100134906053 0.995535891042583 -1.1785229965576 0.995535891042584 -1.17852299655751 0.00949784197329843 60.9098383152429 
! Gamma         0                0                0                0                
! Port Impedance         50               0                50               0                
0.6                            0.010889660791587 63.7448613245602 0.995401185285119 -1.40377646350229 0.995401185285121 -1.4037764635022 0.0108902740495695 63.7438019996141 
! Gamma         0                0                0                0                
! Port Impedance         50               0                50               0                
0.7                            0.0122908844710331 65.9962718127282 0.995291116514623 -1.62890753798833 0.995291116514624 -1.62890753798825 0.0122915200185295 65.9945392371932 
! Gamma         0                0                0                0                
! Port Impedance         50               0                50               0                
0.8                            0.0137045083198644 67.8161747722259 0.995196595117323 -1.85417258716905 0.995196595117325 -1.85417258716898 0.0137051351450063 67.8139597419892 
! Gamma         0                0                0                0                
! Port Impedance         50               0                50               0                
0.9                            0.015130991625937 69.3024279337257 0.995111354192779 -2.0796474288552 0.995111354192781 -2.07964742885513 0.0151315913027971 69.2998757989267 
! Gamma         0                0                0                0                
! Port Impedance         50               0                50               0                
1                              0.0165693478863136 70.5245051103288 0.995031191127658 -2.3053330942958 0.99503119112766 -2.30533309429574 0.016569910301287 70.5217187989839 
! Gamma         0                0                0                0                
! Port Impedance         50               0                50               0                
1.1                            0.0180180584323176 71.534240533655  0.994953291496648 -2.53120240039813 0.99495329149665 -2.53120240039808 0.0180185786743574 71.5312902759726 
! Gamma         0                0                0                0                
! Port Impedance         50               0                50               0                
1.2                            0.0194755138451761 72.3713284831517 0.994875754055202 -2.75721983172132 0.994875754055204 -2.75721983172127 0.0194759901679588 72.3682611087638 
! Gamma         0                0                0                0                
! Port Impedance         50               0                50               0                
1.3                            0.0209402036733896 73.0666527830667 0.994797279353639 -2.98334968724362 0.994797279353641 -2.98334968724359 0.0209406362163069 73.0634989150364 
! Gamma         0                0                0                0                
! Port Impedance         50               0                50               0                
1.4                            0.0224107834646851 73.6445245622745 0.994716969311151 -3.20955912452546 0.994716969311153 -3.20955912452543 0.0224111734648444 73.6413037627942 
! Gamma         0                0                0                0                
! Port Impedance         50               0                50               0                
1.5                            0.0238860858464904 74.1242718019854 0.994634197945794 -3.43581902257257 0.994634197945796 -3.43581902257255 0.023886435157102 74.1209961307883 
! Gamma         0                0                0                0                
! Port Impedance         50               0                50               0                
1.6                            0.0253651082851814 74.5214010893797 0.994548527075425 -3.6621039508315 0.994548527075427 -3.66210395083148 0.0253654190824246 74.5180775300296 
! Gamma         0                0                0                0                
! Port Impedance         50               0                50               0                
1.7                            0.0268469928559333 74.8484605586821 0.99445965051408 -3.88839180956981 0.994459650514082 -3.8883918095698 0.0268472674612653 74.8450926655296 
! Gamma         0                0                0                0                
! Port Impedance         50               0                50               0                
1.8                            0.0283310048870652 75.1156879594092 0.994367356512172 -4.114663385217  0.994367356512174 -4.11466338521699 0.0283312456602231 75.112276975958  
! Gamma         0                0                0                0                
! Port Impedance         50               0                50               0                
1.9                            0.0298165132951811 75.331501718902  0.994271502040239 -4.34090192037117 0.994271502040241 -4.34090192037117 0.0298167225705096 75.3280473393015 
! Gamma         0                0                0                0                
! Port Impedance         50               0                50               0                
2                              0.0313029735445865 75.5028760768464 0.99417199487993 -4.56709273420266 0.994171994879932 -4.56709273420266 0.0313031535939115 75.4993769662567 
! Gamma         0                0                0                0                
! Port Impedance         50               0                50               0                
2.1                            0.0327899133275103 75.6356299111545 0.994068780942823 -4.7932229012339 0.994068780942825 -4.7932229012339 0.0327900663392303 75.632084062611  
! Gamma         0                0                0                0                
! Port Impedance         50               0                50               0                
2.2                            0.0342769207225258 75.7346508229507 0.993961835144433 -5.01928098517404 0.993961835144435 -5.01928098517405 0.0342770487905388 75.731055802815  
! Gamma         0                0                0                0                
! Port Impedance         50               0                50               0                
2.3                            0.0357636344805855 75.8040703044581 0.993851154732568 -5.24525682057984 0.99385115473257 -5.24525682057985 0.0357637395990998 75.800423421539  
! Gamma         0                0                0                0                
! Port Impedance         50               0                50               0                
2.4                            0.0372497360824232 75.8474016786588 0.993736754334659 -5.47114133442577 0.993736754334661 -5.47114133442578 0.0372498201442037 75.8437001007544 
! Gamma         0                0                0                0                
! Port Impedance         50               0                50               0                
2.5                            0.0387349432463235 75.8676495028069 0.993618662225861 -5.69692640027403 0.993618662225863 -5.69692640027404 0.0387350080428635 75.8638903368532 
! Gamma         0                0                0                0                
! Port Impedance         50               0                50               0                
2.6                            0.0402190046128673 75.8673969427678 0.993496917475683 -5.92260471877015 0.993496917475685 -5.92260471877017 0.0402190518355628 75.863577289687  
! Gamma         0                0                0                0                
! Port Impedance         50               0                50               0                
2.7                            0.0417016953806732 75.8488760223267 0.993371567735045 -6.14816971927253 0.993371567735046 -6.14816971927255 0.0417017266224458 75.8449930142302 
! Gamma         0                0                0                0                
! Port Impedance         50               0                50               0                
2.8                            0.0431828137094102 75.8140244686789 0.993242667496008 -6.37361547840548 0.99324266749601 -6.37361547840549 0.0431828304664571 75.8100752937354 
! Gamma         0                0                0                0                
! Port Impedance         50               0                50               0                
2.9                            0.0446621777420695 75.7645319967936 0.993110276704667 -6.5989366521587 0.993110276704669 -6.59893665215871 0.0446621814155641 75.7605139154687 
! Gamma         0                0                0                0                
! Port Impedance         50               0                50               0                
3                              0.0461396231278059 75.7018782187239 0.992974459641083 -6.82412841884038 0.992974459641084 -6.82412841884039 0.0461396150254632 75.6977885739872 
! Gamma         0                0                0                0                
! Port Impedance         50               0                50               0                
3.1                            0.0476150009503414 75.6273638699964 0.992835284003564 -7.04918643074277 0.992835284003566 -7.04918643074279 0.0476149822878174 75.6232000933227 
! Gamma         0                0                0                0                
! Port Impedance         50               0                50               0                
3.2                            0.0490881759858877 75.5421366712659 0.992692820151245 -7.27410677281932 0.992692820151247 -7.27410677281933 0.0490881478880158 75.537896285719  
! Gamma         0                0                0                0                
! Port Impedance         50               0                50               0                
3.3                            0.0505590252296472 75.4472128585005 0.992547140470745 -7.49888592702192 0.992547140470747 -7.49888592702194 0.050558988731533 75.4428934798105 
! Gamma         0                0                0                0                
! Port Impedance         50               0                50               0                
3.4                            0.0520274366419634 75.3434951965196 0.992398318841324 -7.72352074122361 0.992398318841325 -7.72352074122362 0.0520273926899681 75.3390945327957 
! Gamma         0                0                0                0                
! Port Impedance         50               0                50               0                
3.5                            0.0534933080747412 75.231788122189  0.992246430179193 -7.94800840187058 0.992246430179194 -7.9480084018706 0.0534932575273898 75.2273039727241 
! Gamma         0                0                0                0                
! Port Impedance         50               0                50               0                
3.6                            0.0549565463463584 75.112810532809  0.992091550046259 -8.17234640968157 0.992091550046261 -8.17234640968159 0.0549564899752062 75.108240786293  
! Gamma         0                0                0                0                
! Port Impedance         50               0                50               0                
3.7                            0.0564170664393476 74.9872066331442 0.991933754311971 -8.39653255784945 0.991933754311972 -8.39653255784946 0.0564170049298402 74.982549265512  
! Gamma         0                0                0                0                
! Port Impedance         50               0                50               0                
3.8                            0.0578747907999761 74.8555551744176 0.991773118859493 -8.62056491230978 0.991773118859495 -8.62056491230979 0.0578747247523322 74.8508082464856 
! Gamma         0                0                0                0                
! Port Impedance         50               0                50               0                
3.9                            0.059329648722732 74.7183773553376 0.991609719329351 -8.84444179372787 0.991609719329352 -8.84444179372788 0.0593295786528758 74.7135390103348 
! Gamma         0                0                0                0                
! Port Impedance         50               0                50               0                
4                              0.0607815758058474 74.5761436050377 0.991443630895106 -9.06816176092532 0.991443630895107 -9.06816176092532 0.0607815021464144 74.5712120661039 
! Gamma         0                0                0                0                
! Port Impedance         50               0                50               0                
4.1                            0.0622305134665084 74.4292794277843 0.991274928066752 -9.29172359552261 0.991274928066753 -9.29172359552262 0.0622304365679424 74.4242529954809 
! Gamma         0                0                0                0                
! Port Impedance         50               0                50               0                
4.2                            0.0636764085064372 74.2781704572192 0.991103684518333 -9.51512628761874 0.991103684518334 -9.51512628761874 0.0636763286381942 74.273047507082  
! Gamma         0                0                0                0                
! Port Impedance         50               0                50               0                
4.3                            0.0651192127201836 74.1231668420701 0.990929972936939 -9.73836902236429 0.99092997293694 -9.73836902236429 0.0651191300720545 74.1179458222218 
! Gamma         0                0                0                0                
! Port Impedance         50               0                50               0                
4.4                            0.0665588825398088 73.9645870643567 0.990753864890733 -9.96145116731328 0.990753864890734 -9.96145116731328 0.0665587972233688 73.9592664931865 
! Gamma         0                0                0                0                
! Port Impedance         50               0                50               0                
4.5                            0.0679953787107402 73.8027212741328 0.990575430714044 -10.1843722604615 0.990575430714045 -10.1843722604615 0.0679952907609299 73.7972997380461 
! Gamma         0                0                0                0                
! Port Impedance         50               0                50               0                
4.6                            0.0694286659944747 73.6378342109419 0.990394739407864 -10.4071319988981 0.990394739407865 -10.4071319988981 0.069428575371316 73.6323103621805 
! Gamma         0                0                0                0                
! Port Impedance         50               0                50               0                
4.7                            0.0708587128945402 73.4701677708054 0.990211858554325 -10.6297302280107 0.990211858554326 -10.6297302280107 0.0708586194849874 73.4645403253323 
! Gamma         0                0                0                0                
! Port Impedance         50               0                50               0                
4.8                            0.0722854914027356 73.2999432682122 0.990026854243906 -10.8521669311975 0.990026854243907 -10.8521669311975 0.0722853950226587 73.2942110036586 
! Gamma         0                0                0                0                
! Port Impedance         50               0                50               0                
4.9                            0.0737089767631605 73.1273634348642 0.989839791014298 -11.0744422200488 0.989839791014299 -11.0744422200488 0.073708877159458 73.1215251885321 
! Gamma         0                0                0                0                
! Port Impedance         50               0                50               0                
5                              0.0751291472519618 72.9526141905308 0.989650731799925 -11.2965563249655 0.989650731799926 -11.2965563249655 0.0751290441047968 72.9466688574462 
! Gamma         0                0                0                0                
! Port Impedance         50               0                50               0                
5.1                            0.076545983971059 72.7758662160443 0.989459737891279 -11.5185095861931 0.98945973789128 -11.518509586193 0.0765458768962126 72.7698127470552 
! Gamma         0                0                0                0                
! Port Impedance         50               0                50               0                
5.2                            0.0779594706543945 72.5972763540262 0.989266868903242 -11.7403024452478 0.989266868903243 -11.7403024452478 0.0779593592057282 72.5911137539408 
! Gamma         0                0                0                0                
! Port Impedance         50               0                50               0                
5.3                            0.079369593485483 72.4169888592123 0.989072182751682 -11.9619354367211 0.989072182751682 -11.9619354367211 0.079369477157501 72.4107161849724 
! Gamma         0                0                0                0                
! Port Impedance         50               0                50               0                
5.4                            0.0807763409252285 72.2351365171198 0.988875735637637 -12.1834091804469 0.988875735637638 -12.1834091804469 0.080776219155731 72.2287528760062 
! Gamma         0                0                0                0                
! Port Impedance         50               0                50               0                
5.5                            0.0821797035491355 72.0518416471659 0.988677582038475 -12.4047243740211 0.988677582038476 -12.4047243740211 0.0821795757219532 72.0453461950313 
! Gamma         0                0                0                0                
! Port Impedance         50               0                50               0                
5.6                            0.0835796738931738 71.8672170041185 0.988477774705417 -12.6258817856622 0.988477774705418 -12.6258817856622 0.0835795393409716 71.8606089436464 
! Gamma         0                0                0                0                
! Port Impedance         50               0                50               0                
5.7                            0.0849762463076619 71.6813665898752 0.988276364666897 -12.8468822474054 0.988276364666898 -12.8468822474053 0.0849761043148034 71.6746451688616 
! Gamma         0                0                0                0                
! Port Impedance         50               0                50               0                
5.8                            0.0863694168186297 71.4943863859611 0.988073401237234 -13.0677266486195 0.988073401237235 -13.0677266486195 0.0863692666240894 71.4875508956173 
! Gamma         0                0                0                0                
! Port Impedance         50               0                50               0                
5.9                            0.0877591829961902 71.3063650157676 0.987868932030117 -13.2884159298425 0.987868932030119 -13.2884159298425 0.087759023796504 71.2994147890439 
! Gamma         0                0                0                0                
! Port Impedance         50               0                50               0                
6                              0.0891455438295151 71.1173843443875 0.987663002976474 -13.5089510769242 0.987663002976475 -13.5089510769242 0.0891453747817578 71.1103187543162 
! Gamma         0                0                0                0                
! Port Impedance         50               0                50               0                
6.1                            0.0905284996080581 70.9275200229015 0.98745565834625 -13.7293331154724 0.987455658346251 -13.7293331154724 0.0905283198328375 70.9203384809583 
! Gamma         0                0                0                0                
! Port Impedance         50               0                50               0                
6.2                            0.091908051808713 70.7368419831073 0.987246940773726 -13.9495631055924 0.987246940773727 -13.9495631055924 0.0919078603931697 70.7295439375924 
! Gamma         0                0                0                0                
! Port Impedance         50               0                50               0                
6.3                            0.093284202988627 70.5454148879479 0.987036891285968 -14.1696421369149 0.987036891285968 -14.1696421369148 0.0932839989894311 70.5379998223862 
! Gamma         0                0                0                0                
! Port Impedance         50               0                50               0                
6.4                            0.0946569566834182 70.3532985422541 0.986825549334057 -14.3895713239029 0.986825549334058 -14.3895713239028 0.0946567391297512 70.345765973815  
! Gamma         0                0                0                0                
! Port Impedance         50               0                50               0                
6.5                            0.0960263173105695 70.1605482678642 0.986612952826752 -14.609351801432 0.986612952826753 -14.609351801432 0.0960260852070846 70.1528977458015 
! Gamma         0                0                0                0                
! Port Impedance         50               0                50               0                
6.6                            0.0973922900777906 69.9672152467061 0.986399138166268 -14.828984720635 0.986399138166269 -14.828984720635 0.0973920424075403 69.9594463508198 
! Gamma         0                0                0                0                
! Port Impedance         50               0                50               0                
6.7                            0.0987548808961538 69.7733468350117 0.986184140285876 -15.0484712450031 0.986184140285877 -15.0484712450031 0.0987546166234784 69.7654591741312 
! Gamma         0                0                0                0                
! Port Impedance         50               0                50               0                
6.8                            0.100114096297825 69.5789868514707 0.985967992689032 -15.267812546737 0.985967992689033 -15.2678125467369 0.100113814371193 69.5709800619615 
! Gamma         0                0                0                0                
! Port Impedance         50               0                50               0                
6.9                            0.101469943358216 69.3841758418167 0.98575072748979 -15.4870098033382 0.985750727489791 -15.4870098033382 0.10146964271301 69.3760495861115 
! Gamma         0                0                0                0                
! Port Impedance         50               0                50               0                
7                              0.102822429622405 69.1889513220616 0.985532375454237 -15.7060641944337 0.985532375454238 -15.7060641944337 0.102822109183644 69.1807052872166 
! Gamma         0                0                0                0                
! Port Impedance         50               0                50               0                
7.1                            0.104171563035655 68.9933480023548 0.985312966042742 -15.9249768988242 0.985312966042743 -15.9249768988242 0.104171221720653 68.9849818986322 
! Gamma         0                0                0                0                
! Port Impedance         50               0                50               0                
7.2                            0.105517351877904 68.7973979932296 0.985092527452802 -16.1437490917494 0.985092527452803 -16.1437490917494 0.105516988598848 68.7889115527083 
! Gamma         0                0                0                0                
! Port Impedance         50               0                50               0                
7.3                            0.106859804702058 68.6011309958153 0.984871086662289 -16.3623819423602 0.98487108666229 -16.3623819423601 0.106859418368516 68.5925239710299 
! Gamma         0                0                0                0                
! Port Impedance         50               0                50               0                
7.4                            0.10819893027597 68.404574477429  0.984648669472927 -16.5808766113902 0.984648669472928 -16.5808766113902 0.10819851979731 68.3958466400383 
! Gamma         0                0                0                0                
! Port Impedance         50               0                50               0                
7.5                            0.109534737527955 68.2077538338154 0.984425300553838 -16.7992342490186 0.984425300553839 -16.7992342490186 0.109534301815676 68.1989049733021 
! Gamma         0                0                0                0                
! Port Impedance         50               0                50               0                
7.6                            0.110867235495707 68.0106925391778 0.984201003484999 -17.0174559929148 0.984201003485   -17.0174559929147 0.110866773465686 68.001722461579  
! Gamma         0                0                0                0                
! Port Impedance         50               0                50               0                
7.7                            0.112196433278507 67.8134122850265 0.983975800800489 -17.2355429664574 0.98397580080049 -17.2355429664574 0.112195943853142 67.8043208116979 
! Gamma         0                0                0                0                
! Port Impedance         50               0                50               0                
7.8                            0.113522339992566 67.6159331087764 0.983749714031396 -17.4534962771197 0.983749714031397 -17.4534962771196 0.113521822102831 67.606720075188  
! Gamma         0                0                0                0                
! Port Impedance         50               0                50               0                
7.9                            0.1148449647294  67.418273512929  0.983522763748268 -17.6713170150119 0.983522763748269 -17.6713170150119 0.114844417316803 67.408938767496  
! Gamma         0                0                0                0                
! Port Impedance         50               0                50               0                
8                              0.116164316517114 67.2204505756018 0.983294969603031 -17.8890062515745 0.983294969603032 -17.8890062515744 0.116163738535543 67.2109939785492 
! Gamma         0                0                0                0                
! Port Impedance         50               0                50               0                
8.1                            0.117480404284456 67.022480053093  0.983066350370262 -18.1065650384126 0.983066350370264 -18.1065650384125 0.117479794701937 67.012901475355  
! Gamma         0                0                0                0                
! Port Impedance         50               0                50               0                
8.2                            0.118793236827552 66.8243764751076 0.982836923987758 -18.3239944062657 0.982836923987759 -18.3239944062657 0.118792594627895 66.8146757972628 
! Gamma         0                0                0                0                
! Port Impedance         50               0                50               0                
8.3                            0.120102822779174 66.6261532332155 0.982606707596322 -18.5412953641039 0.982606707596323 -18.5412953641039 0.120102146963525 66.6163303444567 
! Gamma         0                0                0                0                
! Port Impedance         50               0                50               0                
8.4                            0.121409170580464 66.4278226630587 0.982375717578711 -18.7584688983439 0.982375717578713 -18.7584688983438 0.121408460168745 66.4178774601998 
! Gamma         0                0                0                0                
! Port Impedance         50               0                50               0                
8.5                            0.122712288454974 66.2293961207843 0.982143969597707 -18.9755159721779 0.982143969597709 -18.9755159721778 0.122711542487227 66.2193285073017 
! Gamma         0                0                0                0                
! Port Impedance         50               0                50               0                
8.6                            0.124012184384927 66.0308840541328 0.981911478633241 -19.1924375250086 0.981911478633242 -19.1924375250085 0.124011401922556 66.0206939392437 
! Gamma         0                0                0                0                
! Port Impedance         50               0                50               0                
8.7                            0.1253088660896  65.8322960685806 0.981678259018561 -19.4092344719831 0.981678259018562 -19.409234471983 0.125308046216505 65.8219833663569 
! Gamma         0                0                0                0                
! Port Impedance         50               0                50               0                
8.8                            0.126602341005712 65.6336409888983 0.981444324475406 -19.6259077036202 0.981444324475407 -19.6259077036201 0.126601482829329 65.6232056174156 
! Gamma         0                0                0                0                
! Port Impedance         50               0                50               0                
8.9                            0.127892616269729 65.4349269164573 0.981209688148159 -19.8424580855241 0.98120968814816 -19.8424580855241 0.127891718921969 65.4243687969805 
! Gamma         0                0                0                0                
! Port Impedance         50               0                50               0                
9                              0.129179698701985 65.2361612825925 0.980974362636961 -20.0588864581797 0.980974362636962 -20.0588864581796 0.129178761340078 65.2254803387963 
! Gamma         0                0                0                0                
! Port Impedance         50               0                50               0                
9.1                            0.130463594792526 65.0373508983007 0.980738360029785 -20.2751936368222 0.980738360029786 -20.2751936368222 0.130462616599759 65.0265470555244 
! Gamma         0                0                0                0                
! Port Impedance         50               0                50               0                
9.2                            0.131744310688578 64.8385020005344 0.980501691933455 -20.4913804113781 0.980501691933456 -20.4913804113781 0.131743290874956 64.8275751850724 
! Gamma         0                0                0                0                
! Port Impedance         50               0                50               0                
9.3                            0.133021852183572 64.6396202953308 0.980264369503599 -20.7074475464692 0.9802643695036  -20.7074475464692 0.13302078998637 64.6285704337562 
! Gamma         0                0                0                0                
! Port Impedance         50               0                50               0                
9.4                            0.13429622470761 64.4407109979946 0.980026403473553 -20.923395781478 0.980026403473554 -20.923395781478 0.134295119391844 64.4295380165171 
! Gamma         0                0                0                0                
! Port Impedance         50               0                50               0                
9.5                            0.135567433319317 64.2417788705405 0.979787804182212 -21.1392258306669 0.979787804182213 -21.1392258306669 0.135566284178129 64.2304826943966 
! Gamma         0                0                0                0                
! Port Impedance         50               0                50               0                
9.6                            0.136835482698984 64.0428282565812 0.979548581600829 -21.3549383833491 0.979548581600831 -21.3549383833491 0.136834289053935 64.031408809458  
! Gamma         0                0                0                0                
! Port Impedance         50               0                50               0                
9.7                            0.138100377142929 63.8438631138379 0.979308745358785 -21.5705341041051 0.979308745358786 -21.570534104105 0.138099138344213 63.8323203173275 
! Gamma         0                0                0                0                
! Port Impedance         50               0                50               0                
9.8                            0.139362120559006 63.6448870444327 0.979068304768333 -21.786013633042 0.979068304768334 -21.786013633042 0.139360835985583 63.6332208175186 
! Gamma         0                0                0                0                
! Port Impedance         50               0                50               0                
9.9                            0.140620716463181 63.4459033231137 0.978827268848333 -22.0013775860913 0.978827268848334 -22.0013775860913 0.140619385522835 63.4341135816872 
! Gamma         0                0                0                0                
! Port Impedance         50               0                50               0                
10                             0.141876167977122 63.2469149235514 0.978585646347001 -22.2166265553414 0.978585646347002 -22.2166265553414 0.141874790106439 63.235001579958  
! Gamma         0                0                0                0                
! Port Impedance         50               0                50               0                
10.1                           0.143128477826726 63.0479245428356 0.978343445763676 -22.4317611094021 0.978343445763677 -22.431761109402 0.143127052491002 63.0358875054504 
! Gamma         0                0                0                0                
! Port Impedance         50               0                50               0                
10.2                           0.144377648341519 62.8489346242929 0.978100675369643 -22.6467817937968 0.978100675369644 -22.6467817937968 0.1443761750346  62.8367737971239 
! Gamma         0                0                0                0                
! Port Impedance         50               0                50               0                
10.3                           0.145623681454884 62.6499473787354 0.977857343228015 -22.8616891313808 0.977857343228016 -22.8616891313808 0.145622159698935 62.6376626610548 
! Gamma         0                0                0                0                
! Port Impedance         50               0                50               0                
10.4                           0.146866578705042 62.4509648042463 0.977613457212714 -23.0764836227817 0.977613457212715 -23.0764836227817 0.146865008050257 62.4385560902479 
! Gamma         0                0                0                0                
! Port Impedance         50               0                50               0                
10.5                           0.148106341236744 62.2519887045967 0.977369025026556 -23.2911657468593 0.977369025026556 -23.2911657468593 0.148104721260987 62.2394558830794 
! Gamma         0                0                0                0                
! Port Impedance         50               0                50               0                
10.6                           0.149342969803616 62.0530207063854 0.977124054218477 -23.5057359611837 0.977124054218478 -23.5057359611837 0.149341300112011 62.040363660462  
! Gamma         0                0                0                0                
! Port Impedance         50               0                50               0                
10.7                           0.150576464771111 61.8540622749851 0.976878552199919 -23.7201947025276 0.976878552199919 -23.7201947025276 0.150574744995572 61.8412808818146 
! Gamma         0                0                0                0                
! Port Impedance         50               0                50               0                
10.8                           0.151806826120016 61.6551147293729 0.976632526260398 -23.9345423873721 0.976632526260398 -23.9345423873721 0.151805055918722 61.6422088599172 
! Gamma         0                0                0                0                
! Port Impedance         50               0                50               0                
10.9                           0.153034053450479 61.4561792559189 0.976385983582284 -24.148779412423 0.976385983582285 -24.148779412423 0.153032232507302 61.4431487747213 
! Gamma         0                0                0                0                
! Port Impedance         50               0                50               0                
11                             0.1542581459865  61.2572569212001 0.976138931254815 -24.3629061551359 0.976138931254816 -24.3629061551359 0.15425627401038 61.244101686186  
! Gamma         0                0                0                0                
! Port Impedance         50               0                50               0                
11.1                           0.155479102580859 61.0583486839046 0.975891376287368 -24.5769229742492 0.975891376287369 -24.5769229742492 0.155477179305139 61.0450685462031 
! Gamma         0                0                0                0                
! Port Impedance         50               0                50               0                
11.2                           0.156696921720436 60.8594554058844 0.975643325622018 -24.7908302103217 0.975643325622019 -24.7908302103216 0.156694946902148 60.8460502096701 
! Gamma         0                0                0                0                
! Port Impedance         50               0                50               0                
11.3                           0.157911601531885 60.6605778624126 0.975394786145398 -25.0046281862749 0.975394786145399 -25.0046281862749 0.157909574950998 60.6470474447667 
! Gamma         0                0                0                0                
! Port Impedance         50               0                50               0                
11.4                           0.159123139787638 60.4617167516976 0.975145764699904 -25.2183172079383 0.975145764699904 -25.2183172079383 0.15912106124627 60.4480609424881 
! Gamma         0                0                0                0                
! Port Impedance         50               0                50               0                
11.5                           0.160331533912193 60.2628727037027 0.974896268094244 -25.4318975645952 0.974896268094244 -25.4318975645952 0.160329403233781 60.2490913254816 
! Gamma         0                0                0                0                
! Port Impedance         50               0                50               0                
11.6                           0.161536780988671 60.0640462883155 0.974646303113382 -25.6453695295292 0.974646303113382 -25.6453695295292 0.161534598017115 60.0501391562342 
! Gamma         0                0                0                0                
! Port Impedance         50               0                50               0                
11.7                           0.162738877765601 59.8652380229112 0.974395876527873 -25.8587333605705 0.974395876527873 -25.8587333605705 0.162736642364366 59.8512049446514 
! Gamma         0                0                0                0                
! Port Impedance         50               0                50               0                
11.8                           0.16393782066391 59.6664483793489 0.974144995102639 -26.0719893006388 0.974144995102639 -26.0719893006388 0.163935532715112 59.6522891550695 
! Gamma         0                0                0                0                
! Port Impedance         50               0                50               0                
11.9                           0.165133605784099 59.4676777904372 0.973893665605186 -26.2851375782854 0.973893665605186 -26.2851375782854 0.165131265187554 59.4533922127364 
! Gamma         0                0                0                0                
! Port Impedance         50               0                50               0                
12                             0.166326228913577 59.2689266559061 0.973641894813299 -26.4981784082298 0.973641894813299 -26.4981784082298 0.166323835585827 59.2545145097971 
! Gamma         0                0                0                0                
! Port Impedance         50               0                50               0                
12.1                           0.167515685534123 59.0701953479154 0.973389689522231 -26.711111991894 0.973389689522231 -26.711111991894 0.167513239407442 59.0556564108163 
! Gamma         0                0                0                0                
! Port Impedance         50               0                50               0                
12.2                           0.168701970829472 58.8714842161321 0.973137056551406 -26.9239385179295 0.973137056551406 -26.9239385179295 0.168699471850848 58.8568182578687 
! Gamma         0                0                0                0                
! Port Impedance         50               0                50               0                
12.3                           0.169885079692991 58.6727935924044 0.972884002750661 -27.1366581627413 0.972884002750661 -27.1366581627413 0.16988252782309 58.6580003752247 
! Gamma         0                0                0                0                
! Port Impedance         50               0                50               0                
12.4                           0.171065006735438 58.4741237950591 0.97263053500604 -27.3492710910035 0.972630535006039 -27.3492710910035 0.17106240194755 58.45920307366   
! Gamma         0                0                0                0                
! Port Impedance         50               0                50               0                
12.5                           0.172241746292777 58.275475132848  0.97237666024517 -27.5617774561696 0.97237666024517 -27.5617774561696 0.172239088571747 58.2604266544128 
! Gamma         0                0                0                0                
! Port Impedance         50               0                50               0                
12.6                           0.173415292434042 58.0768479085664 0.97212238544223 -27.7741774009752 0.972122385442229 -27.7741774009752 0.173412581775187 58.0616714128132 
! Gamma         0                0                0                0                
! Port Impedance         50               0                50               0                
12.7                           0.174585638969229 57.878242422366  0.971867717622526 -27.986471057934 0.971867717622525 -27.986471057934 0.174582875377246 57.8629376416053 
! Gamma         0                0                0                0                
! Port Impedance         50               0                50               0                
12.8                           0.175752779457213 57.6796589747823 0.971612663866709 -28.1986585498245 0.971612663866709 -28.1986585498245 0.175749962945068 57.6642256339843 
! Gamma         0                0                0                0                
! Port Impedance         50               0                50               0                
12.9                           0.176916707213661 57.4810978694966 0.971357231314633 -28.4107399901705 0.971357231314633 -28.4107399901705 0.176913837801475 57.4655356863673 
! Gamma         0                0                0                0                
! Port Impedance         50               0                50               0                
13                             0.178077415318944 57.2825594158494 0.97110142716888 -28.622715483712 0.971101427168879 -28.622715483712 0.178074493032875 57.2668681009154 
! Gamma         0                0                0                0                
! Port Impedance         50               0                50               0                
13.1                           0.179234896626032 57.0840439311245 0.970845258697963 -28.834585126868 0.970845258697962 -28.834585126868 0.179231921497142 57.0682231878246 
! Gamma         0                0                0                0                
! Port Impedance         50               0                50               0                
13.2                           0.180389143768364 56.8855517426164 0.970588733239231 -29.0463490081905 0.97058873323923 -29.0463490081905 0.180386115831487 56.8696012674017 
! Gamma         0                0                0                0                
! Port Impedance         50               0                50               0                
13.3                           0.181540149167676 56.687083189499  0.970331858201482 -29.25800720881  0.970331858201481 -29.25800720881  0.18153706846028 56.6710026719389 
! Gamma         0                0                0                0                
! Port Impedance         50               0                50               0                
13.4                           0.182687905041796 56.4886386245071 0.970074641067297 -29.4695598028716 0.970074641067296 -29.4695598028716 0.182684771602845 56.4724277474023 
! Gamma         0                0                0                0                
! Port Impedance         50               0                50               0                
13.5                           0.183832403412376 56.2902184154457 0.969817089395122 -29.681006857962 0.969817089395122 -29.681006857962 0.183829217281189 56.2738768549468 
! Gamma         0                0                0                0                
! Port Impedance         50               0                50               0                
13.6                           0.184973636112578 56.0918229465374 0.969559210821097 -29.8923484355281 0.969559210821096 -29.8923484355281 0.184970397327689 56.0753503722694 
! Gamma         0                0                0                0                
! Port Impedance         50               0                50               0                
13.7                           0.186111594794685 55.8934526196208 0.969301013060648 -30.1035845912855 0.969301013060648 -30.1035845912855 0.186108303392703 55.8768486948128 
! Gamma         0                0                0                0                
! Port Impedance         50               0                50               0                
13.8                           0.187246270937649 55.6951078552102 0.969042503909865 -30.3147153756185 0.969042503909864 -30.3147153756185 0.187242926952123 55.6783722368296 
! Gamma         0                0                0                0                
! Port Impedance         50               0                50               0                
13.9                           0.188377655854562 55.496789093426  0.968783691246659 -30.5257408339708 0.968783691246658 -30.5257408339708 0.188374259314848 55.4799214323174 
! Gamma         0                0                0                0                
! Port Impedance         50               0                50               0                
14                             0.189505740700051 55.2984967948061 0.968524583031727 -30.7366610072267 0.968524583031726 -30.7366610072267 0.189502291630179 55.281496735834  
! Gamma         0                0                0                0                
! Port Impedance         50               0                50               0                
14.1                           0.190630516477579 55.1002314410059 0.96826518730933 -30.9474759320838 0.968265187309329 -30.9474759320838 0.190627014895132 55.0830986232016 
! Gamma         0                0                0                0                
! Port Impedance         50               0                50               0                
14.2                           0.191751974046671 54.9019935353965 0.968005512207881 -31.158185641416 0.96800551220788 -31.158185641416 0.191748419961669 54.8847275921081 
! Gamma         0                0                0                0                
! Port Impedance         50               0                50               0                
14.3                           0.192870104130047 54.7037836035676 0.96774556594038 -31.368790164628 0.967745565940378 -31.3687901646279 0.19286649754383 54.6863841626134 
! Gamma         0                0                0                0                
! Port Impedance         50               0                50               0                
14.4                           0.193984897320652 54.5056021937428 0.967485356804676 -31.5792895280005 0.967485356804675 -31.5792895280005 0.193981238224782 54.4880688775673 
! Gamma         0                0                0                0                
! Port Impedance         50               0                50               0                
14.5                           0.195096344088603 54.307449877114  0.967224893183596 -31.789683755027 0.967224893183594 -31.789683755027 0.195092632463768 54.2897823029466 
! Gamma         0                0                0                0                
! Port Impedance         50               0                50               0                
14.6                           0.196204434788031 54.1093272481009 0.966964183544911 -31.9999728667414 0.96696418354491 -31.9999728667414 0.196200670602959 54.0915250281169 
! Gamma         0                0                0                0                
! Port Impedance         50               0                50               0                
14.7                           0.197309159663826 53.9112349245414 0.966703236441192 -32.2101568820372 0.966703236441191 -32.2101568820372 0.197305342874208 53.8932976660251 
! Gamma         0                0                0                0                
! Port Impedance         50               0                50               0                
14.8                           0.198410508858278 53.7131735478193 0.966442060509526 -32.4202358179781 0.966442060509524 -32.4202358179781 0.198406639405705 53.695100853329  
! Gamma         0                0                0                0                
! Port Impedance         50               0                50               0                
14.9                           0.199508472417619 53.5151437829328 0.966180664471117 -32.6302096901003 0.966180664471116 -32.6302096901003 0.199504550228527 53.4969352504668 
! Gamma         0                0                0                0                
! Port Impedance         50               0                50               0                
15                             0.200603040298459 53.3171463185099 0.965919057130787 -32.8400785127063 0.965919057130786 -32.8400785127063 0.200599065283088 53.2988015416749 
! Gamma         0                0                0                0                
! Port Impedance         50               0                50               0                
15.1                           0.201694202374118 53.1191818667747 0.965657247376361 -33.049842299151 0.96565724737636 -33.049842299151 0.201690174425481 53.1007004349544 
! Gamma         0                0                0                0                
! Port Impedance         50               0                50               0                
15.2                           0.202781948440857 52.9212511634683 0.965395244177961 -33.2595010621191 0.96539524417796 -33.259501062119 0.202777867433723 52.9026326619938 
! Gamma         0                0                0                0                
! Port Impedance         50               0                50               0                
15.3                           0.203866268223996 52.7233549677294 0.965133056587213 -33.4690548138951 0.965133056587211 -33.469054813895 0.203862134013889 52.7045989780495 
! Gamma         0                0                0                0                
! Port Impedance         50               0                50               0                
15.4                           0.204947151383936 52.5254940619365 0.964870693736363 -33.6785035666255 0.964870693736361 -33.6785035666255 0.204942963806142 52.5066001617893 
! Gamma         0                0                0                0                
! Port Impedance         50               0                50               0                
15.5                           0.206024587522065 52.3276692515163 0.964608164837321 -33.8878473325735 0.964608164837319 -33.8878473325735 0.206020346390661 52.308637015101  
! Gamma         0                0                0                0                
! Port Impedance         50               0                50               0                
15.6                           0.207098566186574 52.1298813647217 0.964345479180627 -34.0970861243655 0.964345479180626 -34.0970861243655 0.207094271293463 52.1107103628706 
! Gamma         0                0                0                0                
! Port Impedance         50               0                50               0                
15.7                           0.208169076878148 51.9321312523803 0.964082646134353 -34.3062199552314 0.964082646134351 -34.3062199552314 0.208164727992117 51.9128210527311 
! Gamma         0                0                0                0                
! Port Impedance         50               0                50               0                
15.8                           0.209236109055572 51.7344197876191 0.963819675142936 -34.5152488392372 0.963819675142934 -34.5152488392372 0.209231705921362 51.7149699547872 
! Gamma         0                0                0                0                
! Port Impedance         50               0                50               0                
15.9                           0.210299652141221 51.5367478655654 0.963556575725958 -34.7241727915101 0.963556575725956 -34.72417279151  0.210295194478611 51.5171579613157 
! Gamma         0                0                0                0                
! Port Impedance         50               0                50               0                
16                             0.211359695526448 51.3391164030269 0.963293357476872 -34.9329918284577 0.96329335747687 -34.9329918284576 0.21135518302936 51.3193859864459 
! Gamma         0                0                0                0                
! Port Impedance         50               0                50               0                
16.1                           0.212416228576875 51.1415263381548 0.963030030061672 -35.1417059679797 0.96303003006167 -35.1417059679797 0.212411660912491 51.1216549658216 
! Gamma         0                0                0                0                
! Port Impedance         50               0                50               0                
16.2                           0.213469240637574 50.943978630089  0.962766603217526 -35.3503152296737 0.962766603217525 -35.3503152296736 0.213464617445475 50.9239658562467 
! Gamma         0                0                0                0                
! Port Impedance         50               0                50               0                
16.3                           0.214518721038156 50.7464742585899 0.962503086751359 -35.5588196350335 0.962503086751358 -35.5588196350335 0.214514041929472 50.7263196353156 
! Gamma         0                0                0                0                
! Port Impedance         50               0                50               0                
16.4                           0.215564659097752 50.5490142236572 0.962239490538402 -35.7672192076427 0.9622394905384  -35.7672192076427 0.215559923654332 50.5287173010315 
! Gamma         0                0                0                0                
! Port Impedance         50               0                50               0                
16.5                           0.216607044129898 50.3515995451377 0.961975824520702 -35.9755139733604 0.961975824520701 -35.9755139733604 0.216602251903501 50.3311598714137 
! Gamma         0                0                0                0                
! Port Impedance         50               0                50               0                
16.6                           0.217645865447325 50.1542312623232 0.961712098705609 -36.1837039605026 0.961712098705607 -36.1837039605025 0.217641015958823 50.1336483840943 
! Gamma         0                0                0                0                
! Port Impedance         50               0                50               0                
16.7                           0.218681112366644 49.9569104335406 0.961448323164218 -36.3917892000162 0.961448323164216 -36.3917892000162 0.218676205105249 49.9361838959074 
! Gamma         0                0                0                0                
! Port Impedance         50               0                50               0                
16.8                           0.219712774212946 49.7596381357349 0.961184508029807 -36.5997697256487 0.961184508029805 -36.5997697256486 0.219707808635448 49.738767482471  
! Gamma         0                0                0                0                
! Port Impedance         50               0                50               0                
16.9                           0.220740840324299 49.5624154640464 0.960920663496228 -36.8076455741112 0.960920663496226 -36.8076455741112 0.220735815854329 49.5414002377634 
! Gamma         0                0                0                0                
! Port Impedance         50               0                50               0                
17                             0.221765300056152 49.3652435313835 0.960656799816296 -37.0154167852367 0.960656799816294 -37.0154167852367 0.221760216083461 49.3440832736943 
! Gamma         0                0                0                0                
! Port Impedance         50               0                50               0                
17.1                           0.222786142785653 49.1681234679915 0.960392927300153 -37.2230834021328 0.960392927300151 -37.2230834021327 0.22278099866541 49.1468177196725 
! Gamma         0                0                0                0                
! Port Impedance         50               0                50               0                
17.2                           0.22380335791587 48.9710564210187 0.960129056313611 -37.4306454713292 0.960129056313609 -37.4306454713291 0.223798152967979 48.9496047221713 
! Gamma         0                0                0                0                
! Port Impedance         50               0                50               0                
17.3                           0.224816934879924 48.7740435540811 0.959865197276492 -37.6381030429202 0.95986519727649 -37.6381030429202 0.224811668388358 48.7524454442909 
! Gamma         0                0                0                0                
! Port Impedance         50               0                50               0                
17.4                           0.225826863145036 48.5770860468256 0.959601360660947 -37.8454561707029 0.959601360660946 -37.8454561707028 0.225821534357191 48.5553410653207 
! Gamma         0                0                0                0                
! Port Impedance         50               0                50               0                
17.5                           0.226833132216481 48.3801850944927 0.959337556989771 -38.0527049123093 0.959337556989769 -38.0527049123092 0.226827740342554 48.3582927803003 
! Gamma         0                0                0                0                
! Port Impedance         50               0                50               0                
17.6                           0.227835731641462 48.1833419074797 0.959073796834707 -38.259849329335 0.959073796834705 -38.2598493293349 0.22783027585384 48.1613017995818 
! Gamma         0                0                0                0                
! Port Impedance         50               0                50               0                
17.7                           0.228834651012899 47.9865577109051 0.958810090814745 -38.466889487463 0.958810090814743 -38.4668894874629 0.228829130445571 47.9643693483916 
! Gamma         0                0                0                0                
! Port Impedance         50               0                50               0                
17.8                           0.229829879973127 47.7898337441735 0.958546449594419 -38.6738254565828 0.958546449594417 -38.6738254565827 0.229824293721121 47.7674966663949 
! Gamma         0                0                0                0                
! Port Impedance         50               0                50               0                
17.9                           0.230821408217524 47.5931712605437 0.958282883882095 -38.8806573109053 0.958282883882094 -38.8806573109053 0.230815755336353 47.5706850072608 
! Gamma         0                0                0                0                
! Port Impedance         50               0                50               0                
18                             0.231809225498049 47.3965715266978 0.958019404428266 -39.0873851290743 0.958019404428264 -39.0873851290743 0.231803505003181 47.3739356382313 
! Gamma         0                0                0                0                
! Port Impedance         50               0                50               0                
18.1                           0.2327933216267  47.2000358223141 0.957756022023835 -39.2940089942724 0.957756022023834 -39.2940089942723 0.232787532493053 47.1772498396914 
! Gamma         0                0                0                0                
! Port Impedance         50               0                50               0                
18.2                           0.233773686478904 47.0035654396429 0.957492747498415 -39.5005289943244 0.957492747498414 -39.5005289943244 0.233767827640351 46.9806289047433 
! Gamma         0                0                0                0                
! Port Impedance         50               0                50               0                
18.3                           0.234750309996817 46.8071616830853 0.957229591718615 -39.7069452217965 0.957229591718614 -39.7069452217964 0.234744380345718 46.7840741387843 
! Gamma         0                0                0                0                
! Port Impedance         50               0                50               0                
18.4                           0.235723182192556 46.6108258687767 0.956966565586342 -39.9132577740907 0.956966565586341 -39.9132577740907 0.235717180579305 46.5875868590872 
! Gamma         0                0                0                0                
! Port Impedance         50               0                50               0                
18.5                           0.236692293151357 46.4145593241733 0.956703680037099 -40.1194667535375 0.956703680037097 -40.1194667535375 0.236686218383949 46.3911683943864 
! Gamma         0                0                0                0                
! Port Impedance         50               0                50               0                
18.6                           0.237657633034652 46.218363387644  0.956440946038292 -40.3255722674834 0.956440946038291 -40.3255722674833 0.237651483878271 46.1948200844669 
! Gamma         0                0                0                0                
! Port Impedance         50               0                50               0                
18.7                           0.238619192083081 46.0222394080657 0.956178374587549 -40.5315744283754 0.956178374587547 -40.5315744283754 0.238612967259711 45.9985432797586 
! Gamma         0                0                0                0                
! Port Impedance         50               0                50               0                
18.8                           0.239576960619433 45.8261887444241 0.955915976711031 -40.737473353843 0.95591597671103 -40.737473353843 0.239570658807479 45.8023393409349 
! Gamma         0                0                0                0                
! Port Impedance         50               0                50               0                
18.9                           0.240530929051512 45.6302127654192 0.955653763461769 -40.9432691667757 0.955653763461768 -40.9432691667756 0.240524548885448 45.6062096385162 
! Gamma         0                0                0                0                
! Port Impedance         50               0                50               0                
19                             0.241481087874937 45.4343128490754 0.955391745917999 -41.1489619953981 0.955391745917997 -41.1489619953981 0.24147462794497 45.4101555524785 
! Gamma         0                0                0                0                
! Port Impedance         50               0                50               0                
19.1                           0.242427427675875 45.2384903823571 0.955129935181504 -41.3545519733421 0.955129935181503 -41.354551973342 0.242420886527631 45.2141784718671 
! Gamma         0                0                0                0                
! Port Impedance         50               0                50               0                
19.2                           0.243369939133706 45.0427467607895 0.954868342375978 -41.5600392397151 0.954868342375977 -41.5600392397151 0.243363315267934 45.0182797944151 
! Gamma         0                0                0                0                
! Port Impedance         50               0                50               0                
19.3                           0.244308613023625 44.8470833880846 0.95460697864539 -41.7654239391669 0.954606978645389 -41.7654239391669 0.244301904895917 44.8224609261682 
! Gamma         0                0                0                0                
! Port Impedance         50               0                50               0                
19.4                           0.245243440219174 44.6515016757725 0.954345855152363 -41.9707062219523 0.954345855152363 -41.9707062219522 0.245236646239708 44.6267232811137 
! Gamma         0                0                0                0                
! Port Impedance         50               0                50               0                
19.5                           0.246174411694718 44.4560030428383 0.954084983076566 -42.1758862439914 0.954084983076566 -42.1758862439914 0.24616753022802 44.4310682808154 
! Gamma         0                0                0                0                
! Port Impedance         50               0                50               0                
19.6                           0.247101518527852 44.2605889153643 0.953824373613115 -42.3809641669284 0.953824373613114 -42.3809641669283 0.247094547892575 44.2354973540546 
! Gamma         0                0                0                0                
! Port Impedance         50               0                50               0                
19.7                           0.24802475190175 44.0652607261781 0.953564037970989 -42.5859401581856 0.953564037970989 -42.5859401581856 0.248017690370471 44.0400119364752 
! Gamma         0                0                0                0                
! Port Impedance         50               0                50               0                
19.8                           0.248944103107453 43.8700199145054 0.953303987371461 -42.7908143910173 0.953303987371461 -42.7908143910173 0.248936948906493 43.8446134702358 
! Gamma         0                0                0                0                
! Port Impedance         50               0                50               0                
19.9                           0.249859563546098 43.6748679256295 0.953044233046538 -42.9955870445594 0.953044233046538 -42.9955870445594 0.249852314855354 43.6493034036666 
! Gamma         0                0                0                0                
! Port Impedance         50               0                50               0                
20                             0.250771124731086 43.4798062105553 0.952784786237416 -43.2002583038775 0.952784786237416 -43.2002583038775 0.250763779683889 43.4540831909313 
! Gamma         -0               -0               -0               -0               
! Port Impedance         50               0                50               0                
