! Touchstone file exported from HFSS 2026.1.0
!        File:           C:/ffzhzh/LocalFiles/Ansys_Project_Files/temp_train_TSV_RDL_76_1783450484_41684.aedt
!        Generated:      03:06:23 AM Jul  8, 2026
!        Design:         TSV_RDL
!        Project:        temp_train_TSV_RDL_76_1783450484_41684
!
! Variables:
!        h_bsmrdl = 3.7um
!        h_ox = 20um
!        h_rdl = 5um
!        h_sub = 58.87um
!        h_tmrdl = 3.16um
!        h_tsv = 58.87um
!        h_via = 3um
!        l_bsmrdl = 629.23um
!        l_sub = 4077.2um
!        l_tmrdl = 417.85um
!        m_sub = 200um
!        pitch = 45.84um
!        r_tsv = 12.05um
!        s_tmrdl = 10um
!        w_bsmrdl = 27.38um
!        w_sub = 500um
!        w_tmrdl = 11.99um
!        x_tsv_center1 = 423.845um
!        x_tsv_center2 = 1080.455um
!        x_tsv_center3 = 1510.295um
!        x_tsv_center4 = 2166.905um
!        x_tsv_center5 = 2596.745um
!        x_tsv_center6 = 3253.355um
!
# GHz S MA R 50.000000
! Terminal data exported
! Port[1] = TM_RDL1_1_T1
! Port[2] = TM_RDL5_1_T1
0.1                            0.0269912596884994 30.2513868036723 0.976943442171795 -1.48629797301181 0.976943442171797 -1.48629797301181 0.0269911987759501 30.2516376923439 
! Gamma         0                0                0                0                
! Port Impedance         50               0                50               0                
0.2                            0.0361786733513266 47.0888965451371 0.976382343416449 -2.94066145872919 0.976382343416449 -2.94066145873396 0.0361825701521269 47.1046598338384 
! Gamma         0                0                0                0                
! Port Impedance         50               0                50               0                
0.3                            0.047475563761722 55.5552098618943 0.975355170379544 -4.38073452531942 0.975355170379534 -4.38073452532494 0.0474825855651942 55.566693138397  
! Gamma         0                0                0                0                
! Port Impedance         50               0                50               0                
0.4                            0.0594409243407123 59.95103515869   0.9740746016739  -5.80569755800687 0.974074601673875 -5.80569755801193 0.0594490995894679 59.9581823040355 
! Gamma         0                0                0                0                
! Port Impedance         50               0                50               0                
0.5                            0.0715767383053846 62.3206810343111 0.972652503160057 -7.21685317104944 0.97265250316002 -7.2168531710536 0.0715845483312819 62.3252195111215 
! Gamma         0                0                0                0                
! Port Impedance         50               0                50               0                
0.6                            0.0837107446554396 63.5877485758255 0.971144574093332 -8.61677983337682 0.971144574093289 -8.61677983337999 0.0837173633127993 63.5910584328755 
! Gamma         0                0                0                0                
! Port Impedance         50               0                50               0                
0.7                            0.0957850532991289 64.1977880914446 0.969571798995302 -10.0079306841155 0.969571798995258 -10.0079306841177 0.0957901602624066 64.2007446968805 
! Gamma         0                0                0                0                
! Port Impedance         50               0                50               0                
0.8                            0.107780232392899 64.3837801065668 0.967936750752598 -11.3921078533981 0.967936750752555 -11.3921078533997 0.107783796294874 64.3868897057261 
! Gamma         0                0                0                0                
! Port Impedance         50               0                50               0                
0.9                            0.119687757688174 64.2776542427282 0.966234270569886 -12.7704338045361 0.966234270569848 -12.7704338045371 0.119689883005048 64.2811927862211 
! Gamma         0                0                0                0                
! Port Impedance         50               0                50               0                
1                              0.131500685771004 63.9598745683054 0.964457313479477 -14.1434963523285 0.964457313479443 -14.1434963523291 0.131501524421076 63.9639843767144 
! Gamma         0                0                0                0                
! Port Impedance         50               0                50               0                
1.1                            0.143211094098206 63.4828424569017 0.96259966633587 -15.5115129512579 0.96259966633584 -15.5115129512582 0.143210801088662 63.4875916874955 
! Gamma         0                0                0                0                
! Port Impedance         50               0                50               0                
1.2                            0.154809838646665 62.8826167832734 0.960656961134006 -16.8744632882018 0.96065696113398 -16.8744632882018 0.154808553006471 62.8880339152863 
! Gamma         0                0                0                0                
! Port Impedance         50               0                50               0                
1.3                            0.166286959530013 62.1851416536961 0.958626867975058 -18.2321834784335 0.958626867975037 -18.2321834784335 0.166284798253441 62.1912348246482 
! Gamma         0                0                0                0                
! Port Impedance         50               0                50               0                
1.4                            0.177632158382294 61.4097543824522 0.956508941582529 -19.5844290173446 0.95650894158251 -19.5844290173444 0.177629216424349 61.4165219817813 
! Gamma         0                0                0                0                
! Port Impedance         50               0                50               0                
1.5                            0.188835182877792 60.5712743498067 0.954304351573389 -20.93091553553  0.954304351573374 -20.9309155355297 0.188831535588421 60.5787107004236 
! Gamma         0                0                0                0                
! Port Impedance         50               0                50               0                
1.6                            0.19988609642453 59.6813117059231 0.952015598571341 -22.2713447289139 0.952015598571328 -22.2713447289137 0.199881802677326 59.6894100304177 
! Gamma         0                0                0                0                
! Port Impedance         50               0                50               0                
1.7                            0.210775452568947 58.7491248959923 0.949646255929702 -23.6054206787199 0.949646255929691 -23.6054206787197 0.210770557812375 58.7578788002999 
! Gamma         0                0                0                0                
! Port Impedance         50               0                50               0                
1.8                            0.221494399962068 57.7822045563917 0.947200748500794 -24.9328600243803 0.947200748500785 -24.9328600243801 0.221488938899932 57.7916087147688 
! Gamma         0                0                0                0                
! Port Impedance         50               0                50               0                
1.9                            0.232034739651051 56.786684149017  0.94468416807377 -26.2533982193778 0.944684168073763 -26.2533982193776 0.232028738481205 56.7967345669651 
! Gamma         0                0                0                0                
! Port Impedance         50               0                50               0                
2                              0.242388950624989 55.7676366361317 0.942102120912247 -27.5667932852603 0.942102120912241 -27.5667932852601 0.242382428859826 55.7783306974142 
! Gamma         0                0                0                0                
! Port Impedance         50               0                50               0                
2.1                            0.25255019455542 54.729293701942  0.939460601943681 -28.8728279571935 0.939460601943677 -28.8728279571933 0.252543166481249 54.740630111579  
! Gamma         0                0                0                0                
! Port Impedance         50               0                50               0                
2.2                            0.262512307004652 53.675210842012  0.936765890572047 -30.1713107851504 0.936765890572043 -30.1713107851502 0.262504782843125 53.6871895251442 
! Gamma         0                0                0                0                
! Port Impedance         50               0                50               0                
2.3                            0.272269779857523 52.6083937144267 0.934024463905969 -31.4620765484392 0.934024463905967 -31.4620765484391 0.272261766687077 52.6210157023392 
! Gamma         0                0                0                0                
! Port Impedance         50               0                50               0                
2.4                            0.281817738066568 51.531396207557  0.931242924041787 -32.7449862120926 0.931242924041785 -32.7449862120926 0.281809240552948 51.5446635265073 
! Gamma         0                0                0                0                
! Port Impedance         50               0                50               0                
2.5                            0.29115191272211 50.4463975013724 0.9284279367789  -34.0199265726756 0.928427936778898 -34.0199265726756 0.291142933697902 50.4603130713973 
! Gamma         0                0                0                0                
! Port Impedance         50               0                50               0                
2.6                            0.300268611769823 49.3552632952425 0.925586179740598 -35.2868096901624 0.925586179740597 -35.2868096901624 0.300259152694722 49.3698308416177 
! Gamma         0                0                0                0                
! Port Impedance         50               0                50               0                
2.7                            0.309164689261568 48.259594946775  0.922724298335666 -36.5455721703773 0.922724298335665 -36.5455721703773 0.309154750588317 48.2748189244978 
! Gamma         0                0                0                0                
! Port Impedance         50               0                50               0                
2.8                            0.317837513749395 47.1607692750631 0.919848868346344 -37.7961743420573 0.919848868346344 -37.7961743420573 0.317827095214883 47.1766548056171 
! Gamma         0                0                0                0                
! Port Impedance         50               0                50               0                
2.9                            0.326284936258045 46.0599710806931 0.916966364190133 -39.0385993595076 0.916966364190133 -39.0385993595077 0.326274037114754 46.0765238998926 
! Gamma         0                0                0                0                
! Port Impedance         50               0                50               0                
3                              0.334505258159726 44.9582199307582 0.914083132097278 -40.2728522533503 0.914083132097278 -40.2728522533503 0.334493877359406 44.9754463463469 
! Gamma         0                0                0                0                
! Port Impedance         50               0                50               0                
3.1                            0.342497199202329 43.8563923893159 0.911205367589619 -41.4989589462958 0.911205367589619 -41.4989589462959 0.342485335541211 43.8742992470385 
! Gamma         0                0                0                0                
! Port Impedance         50               0                50               0                
3.2                            0.350259865893266 42.7552406019099 0.908339096752993 -42.7169652471365 0.908339096752993 -42.7169652471365 0.350247518126146 42.7738352588959 
! Gamma         0                0                0                0                
! Port Impedance         50               0                50               0                
3.3                            0.357792720406347 41.6554079396092 0.905490160874637 -43.9269358335764 0.905490160874637 -43.9269358335764 0.357779887335361 41.6746982440564 
! Gamma         0                0                0                0                
! Port Impedance         50               0                50               0                
3.4                            0.365095550152853 40.5574422546262 0.902664204076598 -45.1289532326661 0.902664204076598 -45.1289532326662 0.365082230695583 40.5774365309203 
! Gamma         0                0                0                0                
! Port Impedance         50               0                50               0                
3.5                            0.372168438136643 39.4618071826984 0.899866663621507 -46.3231168062232 0.899866663621507 -46.3231168062232 0.372154631377302 39.4825142212421 
! Gamma         0                0                0                0                
! Port Impedance         50               0                50               0                
3.6                            0.379011734194857 38.3688918376376 0.897102762602318 -47.5095417475268 0.897102762602318 -47.5095417475269 0.378997439421586 38.3903208887875 
! Gamma         0                0                0                0                
! Port Impedance         50               0                50               0                
3.7                            0.385626027209308 37.2790191739639 0.89437750475567 -48.6883580946796 0.89437750475567 -48.6883580946796 0.385611243940079 37.3011799455765 
! Gamma         0                0                0                0                
! Port Impedance         50               0                50               0                
3.8                            0.392012118358495 36.1924532393844 0.891695671161563 -49.8597097652513 0.891695671161564 -49.8597097652514 0.39199684635768 36.2153558975671 
! Gamma         0                0                0                0                
! Port Impedance         50               0                50               0                
3.9                            0.398170995465973 35.1094054964103 0.889061818611452 -51.0237536161412 0.889061818611452 -51.0237536161413 0.398155234753286 35.1330606691468 
! Gamma         0                0                0                0                
! Port Impedance         50               0                50               0                
4                              0.40410380848756 34.0300403588984 0.886480279443814 -52.1806585319725 0.886480279443814 -52.1806585319726 0.404087559340827 34.0544591422835 
! Gamma         0                0                0                0                
! Port Impedance         50               0                50               0                
4.1                            0.409811846167454 32.9544800627244 0.883955162661445 -53.3306045447675 0.883955162661446 -53.3306045447676 0.409795109120434 32.9796740295985 
! Gamma         0                0                0                0                
! Port Impedance         50               0                50               0                
4.2                            0.415296513881961 31.8828089686021 0.881490356158593 -54.4737819871307 0.881490356158593 -54.4737819871308 0.415279289718273 31.9087901794207 
! Gamma         0                0                0                0                
! Port Impedance         50               0                50               0                
4.3                            0.420559312679046 30.8150773780766 0.879089529899014 -55.6103906806838 0.879089529899014 -55.6103906806838 0.420541602423099 30.8418583938897 
! Gamma         0                0                0                0                
! Port Impedance         50               0                50               0                
4.4                            0.42560181951255 29.7513049300474 0.876756139898233 -56.7406391610542 0.876756139898233 -56.7406391610542 0.425583624418274 29.7788988274961 
! Gamma         0                0                0                0                
! Port Impedance         50               0                50               0                
4.5                            0.430425668661569 28.6914836341131 0.874493432874872 -57.8647439403128 0.874493432874872 -57.8647439403128 0.430406990199635 28.7199040223821 
! Gamma         0                0                0                0                
! Port Impedance         50               0                50               0                
4.6                            0.435032534318205 27.6355805880489 0.87230445144695 -58.9829288073872 0.87230445144695 -58.9829288073872 0.435013374162347 27.6648416277353 
! Gamma         0                0                0                0                
! Port Impedance         50               0                50               0                
4.7                            0.439424114320684 26.5835404193934 0.870192039759585 -60.0954241666417 0.870192039759586 -60.0954241666417 0.439404474333663 26.6136568432776 
! Gamma         0                0                0                0                
! Port Impedance         50               0                50               0                
4.8                            0.443602115003641 25.535287485117  0.868158849440546 -61.2024664145165 0.868158849440547 -61.2024664145165 0.443581997223342 25.5662746208402 
! Gamma         0                0                0                0                
! Port Impedance         50               0                50               0                
4.9                            0.447568237133137 24.4907278584033 0.866207345789597 -62.3042973538522 0.866207345789598 -62.3042973538522 0.447547643759244 24.5226016530741 
! Gamma         0                0                0                0                
! Port Impedance         50               0                50               0                
5                              0.451324162890713 23.4497511274911 0.864339814116594 -63.4011636452894 0.864339814116595 -63.4011636452894 0.451303096272359 23.4825281742614 
! Gamma         0                0                0                0                
! Port Impedance         50               0                50               0                
5.1                            0.454871543868332 22.4122320281399 0.862558366151749 -64.4933162949318 0.86255836615175 -64.4933162949318 0.454850006493105 22.4459295948074 
! Gamma         0                0                0                0                
! Port Impedance         50               0                50               0                
5.2                            0.458211990034458 21.3780319284621 0.860864946459387 -65.5810101772792 0.860864946459388 -65.5810101772792 0.458189984519109 21.4126679881699 
! Gamma         0                0                0                0                
! Port Impedance         50               0                50               0                
5.3                            0.461347059630625 20.3470001825054 0.859261338793965 -66.6645035922926 0.859261338793967 -66.6645035922925 0.461324588713798 20.3825934466265 
! Gamma         0                0                0                0                
! Port Impedance         50               0                50               0                
5.4                            0.464278249957582 19.3189753669909 0.857749172343931 -67.7440578553213 0.857749172343933 -67.7440578553213 0.464255316494893 19.3555453203005 
! Gamma         0                0                0                0                
! Port Impedance         50               0                50               0                
5.5                            0.467006989010496 18.2937864139428 0.856329927815348 -68.8199369185207 0.85632992781535 -68.8199369185206 0.46698359597225 18.3313533521957 
! Gamma         0                0                0                0                
! Port Impedance         50               0                50               0                
5.6                            0.469534627923522 17.2712536505347 0.855004943313012 -69.8924070223005 0.855004943313014 -69.8924070223004 0.469510778395373 17.3098387205815 
! Gamma         0                0                0                0                
! Port Impedance         50               0                50               0                
5.7                            0.471862434185388 16.2511897562779 0.853775419982071 -70.9617363752801 0.853775419982072 -70.9617363752801 0.471838131372227 16.2908149988712 
! Gamma         0                0                0                0                
! Port Impedance         50               0                50               0                
5.8                            0.47399158558937 15.2334006466553 0.852642427377959 -72.0281948611683 0.852642427377961 -72.0281948611683 0.473966832822731 15.2740890421121 
! Gamma         0                0                0                0                
! Port Impedance         50               0                50               0                
5.9                            0.475923164883056 14.2176862914323 0.851606908536813 -73.0920537709509 0.851606908536815 -73.0920537709508 0.475897965632344 14.25946180834   
! Gamma         0                0                0                0                
! Port Impedance         50               0                50               0                
6                              0.47765815508567 13.2038414751248 0.850669684722385 -74.1535855587381 0.850669684722387 -74.153585558738 0.477632512973493 13.2467291222944 
! Gamma         0                0                0                0                
! Port Impedance         50               0                50               0                
6.1                            0.479197435443271 12.1916565064592 0.849831459828986 -75.213063619607 0.849831459828987 -75.2130636196069 0.479171354265197 12.2356823883547 
! Gamma         0                0                0                0                
! Port Impedance         50               0                50               0                
6.2                            0.480541777994915 11.1809178831076 0.849092824423045 -76.2707620877607 0.849092824423046 -76.2707620877607 0.480515261743959 11.2261092589978 
! Gamma         0                0                0                0                
! Port Impedance         50               0                50               0                
6.3                            0.481691844725805 10.1714089174941 0.848454259408607 -77.3269556533262 0.848454259408609 -77.3269556533261 0.48166489762198 10.2177942646032 
! Gamma         0                0                0                0                
! Port Impedance         50               0                50               0                
6.4                            0.482648185286462 9.16291032905927 0.847916139304486 -78.3819193961081 0.847916139304488 -78.381919396108 0.482620811811725 9.21051941001529 
! Gamma         0                0                0                0                
! Port Impedance         50               0                50               0                
6.5                            0.483411235260076 8.15520080800433 0.847478735122878 -79.435928634625 0.84747873512288 -79.4359286346249 0.48338344019904 8.20406474291657 
! Gamma         0                0                0                0                
! Port Impedance         50               0                50               0                
6.6                            0.483981314963405 7.1480575552289  0.847142216841099 -80.4892587887585 0.847142216841101 -80.4892587887584 0.483953103450167 7.19820889875654 
! Gamma         0                0                0                0                
! Port Impedance         50               0                50               0                
6.7                            0.484358628769736 6.14125680290282 0.846906655459663 -81.5421852543548 0.846906655459665 -81.5421852543547 0.484330006341225 6.19272962671297 
! Gamma         0                0                0                0                
! Port Impedance         50               0                50               0                
6.8                            0.48454326494568 5.13457431988143 0.846772024641352 -82.594983288129 0.846772024641353 -82.594983288129 0.484514237601928 5.18740430093449 
! Gamma         0                0                0                0                
! Port Impedance         50               0                50               0                
6.9                            0.484535195996732 4.12778590597186 0.84673820192711 -83.6479279012301 0.846738201927112 -83.6479279012301 0.484505770268485 4.18201042111528 
! Gamma         0                0                0                0                
! Port Impedance         50               0                50               0                
7                              0.484334279519672 3.120667878886   0.846804969525699 -84.7012937598335 0.8468049695257  -84.7012937598334 0.484304462543798 3.17632610628657 
! Gamma         0                0                0                0                
! Port Impedance         50               0                50               0                
7.1                            0.483940259562966 2.11299755756902 0.846972014674974 -85.7553550911364 0.846972014674975 -85.7553550911364 0.483910059166107 2.17013058556743 
! Gamma         0                0                0                0                
! Port Impedance         50               0                50               0                
7.2                            0.483352768499293 1.1045537454699  0.847238929573555 -86.8103855931353 0.847238929573556 -86.8103855931352 0.483322193290256 1.16320468950185 
! Gamma         0                0                0                0                
! Port Impedance         50               0                50               0                
7.3                            0.482571329417214 0.0951172172177348 0.847605210882454 -87.8666583465697 0.847605210882454 -87.8666583465697 0.482540388888595 0.155331345513207 
! Gamma         0                0                0                0                
! Port Impedance         50               0                50               0                
7.4                            0.481595359041709 -0.915528787913571 0.848070258797029 -88.9244457274181 0.848070258797029 -88.9244457274181 0.481564063681267 -0.853703919065708 
! Gamma         0                0                0                0                
! Port Impedance         50               0                50               0                
7.5                            0.480424171195887 -1.9275980624336 0.848633375690439 -89.9840193183297 0.848633375690438 -89.9840193183297 0.480392532608209 -1.86411246298347 
! Gamma         0                0                0                0                
! Port Impedance         50               0                50               0                
7.6                            0.479056980818536 -2.94130091368283 0.849293764330574 -91.0456498173746 0.849293764330575 -91.0456498173746 0.479025011857531 -2.87610200271232 
! Gamma         0                0                0                0                
! Port Impedance         50               0                50               0                
7.7                            0.477492908554312 -3.95684363025315 0.850050525673374 -92.1096069424881 0.850050525673373 -92.1096069424881 0.477460623467112 -3.88987606638797 
! Gamma         0                0                0                0                
! Port Impedance         50               0                50               0                
7.8                            0.475730985935266 -4.97442792854459 0.85090265623636 -93.1761593299787 0.850902656236358 -93.1761593299787 0.475698400518102 -4.90563342668825 
! Gamma         0                0                0                0                
! Port Impedance         50               0                50               0                
7.9                            0.473770161173974 -5.99425037621199 0.851849045057383 -94.2455744254599 0.851849045057382 -94.24557442546  0.473737292940615 -5.92356750926599 
! Gamma         0                0                0                0                
! Port Impedance         50               0                50               0                
8                              0.471609305589774 -7.01650178922516 0.852888470244776 -95.3181183655553 0.852888470244774 -95.3181183655553 0.471576173953127 -6.94386577330295 
! Gamma         0                0                0                0                
! Port Impedance         50               0                50               0                
8.1                            0.469247220690493 -8.04136659921393 0.854019595126536 -96.3940558487162 0.854019595126534 -96.3940558487162 0.469213847157962 -7.96670906067731 
! Gamma         0                0                0                0                
! Port Impedance         50               0                50               0                
8.2                            0.466682645932446 -9.06902218769056 0.855240964007837 -97.47364999348  0.855240964007835 -97.4736499934801 0.466649054315661 -8.99227091013354 
! Gamma         0                0                0                0                
! Port Impedance         50               0                50               0                
8.3                            0.463914267181473 -10.0996381836341 0.856550997547971 -98.5571621824867 0.856550997547968 -98.5571621824867 0.46388048382099 -10.0207168327059 
! Gamma         0                0                0                0                
! Port Impedance         50               0                50               0                
8.4                            0.460940725897161 -11.1333757207768 0.857947987770023 -99.6448518905608 0.85794798777002 -99.6448518905608 0.460906779902755 -11.0522035444687 
! Gamma         0                0                0                0                
! Port Impedance         50               0                50               0                
8.5                            0.457760629061255 -12.1703866507463 0.859430092718969 -100.736976495164 0.859430092718966 -100.736976495164 0.457726552568407 -12.0868781524588 
! Gamma         0                0                0                0                
! Port Impedance         50               0                50               0                
8.6                            0.454372559869434 -13.2108127079777 0.860995330786651 -101.833791067516 0.860995330786647 -101.833791067516 0.454338388312634 -13.1248772893319 
! Gamma         0                0                0                0                
! Port Impedance         50               0                50               0                
8.7                            0.450775089203114 -14.2547846220066 0.862641574725213 -102.935548142689 0.86264157472521 -102.935548142689 0.450740861606602 -14.1663261919532 
! Gamma         0                0                0                0                
! Port Impedance         50               0                50               0                
8.8                            0.446966787894694 -15.3024211723729 0.864366545374033 -104.042497466988 0.864366545374029 -104.042497466988 0.446932547181252 -15.2113377186788 
! Gamma         0                0                0                0                
! Port Impedance         50               0                50               0                
8.9                            0.442946239795549 -16.3538281808853 0.866167805129074 -105.154885720948 0.86616780512907 -105.154885720948 0.44291203311401 -16.2600112995276 
! Gamma         0                0                0                0                
! Port Impedance         50               0                50               0                
9                              0.438712055651184 -17.409097435396 0.868042751187908 -106.272956216307 0.868042751187904 -106.272956216307 0.438677934723313 -17.3124318127506 
! Gamma         0                0                0                0                
! Port Impedance         50               0                50               0                
9.1                            0.434262887782113 -18.4683055384831 0.869988608608355 -107.396948565358 0.86998860860835 -107.396948565358 0.434228909269586 -18.3686683804478 
! Gamma         0                0                0                0                
! Port Impedance         50               0                50               0                
9.2                            0.429597445562279 -19.5315126735023 0.872002423223899 -108.527098321135 0.872002423223894 -108.527098321135 0.429563671454529 -19.4287730748137 
! Gamma         0                0                0                0                
! Port Impedance         50               0                50               0                
9.3                            0.424714511679112 -20.5987612792937 0.874081054464669 -109.663636586959 0.874081054464664 -109.663636586959 0.424681009702919 -20.4927795252661 
! Gamma         0                0                0                0                
! Port Impedance         50               0                50               0                
9.4                            0.419612959150675 -21.670074623368 0.876221168138842 -110.806789593963 0.876221168138838 -110.806789593963 0.419579803202498 -21.5607014150644 
! Gamma         0                0                0                0                
! Port Impedance         50               0                50               0                
9.5                            0.414291769065699 -22.7454552615644 0.87841922923586 -111.956778245339 0.878419229235857 -111.956778245339 0.414259039667935 -22.6325308539693 
! Gamma         0                0                0                0                
! Port Impedance         50               0                50               0                
9.6                            0.408750049001816 -23.8248833698886 0.88067149481977 -113.113817626162 0.880671494819766 -113.113817626162 0.408717833784403 -23.708236610939 
! Gamma         0                0                0                0                
! Port Impedance         50               0                50               0                
9.7                            0.402987052065887 -24.908314931375 0.882974007088313 -114.278116477847 0.882974007088309 -114.278116477847 0.402955446274997 -24.7877621876677 
! Gamma         0                0                0                0                
! Port Impedance         50               0                50               0                
9.8                            0.397002196488163 -25.995679757237 0.885322586681017 -115.449876636459 0.885322586681014 -115.449876636459 0.396971303524169 -25.8710237097895 
! Gamma         0                0                0                0                
! Port Impedance         50               0                50               0                
9.9                            0.390795085689236 -27.0868793170716 0.887712826327438 -116.629292434344 0.887712826327436 -116.629292434344 0.39076501767667 -26.9579076075806 
! Gamma         0                0                0                0                
! Port Impedance         50               0                50               0                
10                             0.384365528725432 -28.1817843472404 0.890140084934763 -117.816550064814 0.890140084934761 -117.816550064814 0.384336407118389 -28.0482680517461 
! Gamma         0                0                0                0                
! Port Impedance         50               0                50               0                
10.1                           0.377673615750659 -29.2827380682385 0.892587559276608 -119.009456723583 0.892587559276607 -119.009456723583 0.377645413365328 -29.1444075243312 
! Gamma         0                0                0                0                
! Port Impedance         50               0                50               0                
10.2                           0.370750744646935 -30.3873374094161 0.895061209209671 -120.210046508721 0.895061209209669 -120.210046508721 0.370723577493235 -30.2439173259463 
! Gamma         0                0                0                0                
! Port Impedance         50               0                50               0                
10.3                           0.363596416959202 -31.4953232035648 0.897555896874567 -121.41842024322 0.897555896874565 -121.418420243221 0.36357041138286 -31.3465139657939 
! Gamma         0                0                0                0                
! Port Impedance         50               0                50               0                
10.4                           0.3562103652236  -32.6063793961948 0.900066295367753 -122.634664541242 0.900066295367751 -122.634664541242 0.356185659062964 -32.4518541443348 
! Gamma         0                0                0                0                
! Port Impedance         50               0                50               0                
10.5                           0.348592576642561 -33.7201256520768 0.902586893599304 -123.858851076769 0.902586893599302 -123.858851076769 0.348569320558313 -33.5595269090339 
! Gamma         0                0                0                0                
! Port Impedance         50               0                50               0                
10.6                           0.340743317323593 -34.8361086868295 0.905112002585059 -125.091035854924 0.905112002585057 -125.091035854924 0.340721676334522 -34.6690444493187 
! Gamma         0                0                0                0                
! Port Impedance         50               0                50               0                
10.7                           0.33266315700011 -35.9537920331536 0.907635763268379 -126.331258491314 0.907635763268377 -126.331258491314 0.332643312265839 -35.7798312207244 
! Gamma         0                0                0                0                
! Port Impedance         50               0                50               0                
10.8                           0.324352994150161 -37.0725438710251 0.91015215595955 -127.579541505275 0.910152155959547 -127.579541505275 0.324335145051515 -36.8912110026405 
! Gamma         0                0                0                0                
! Port Impedance         50               0                50               0                
10.9                           0.31581408143112 -38.1916224451985 0.912655011471535 -128.83588963335 0.912655011471533 -128.83588963335 0.315798448011428 -38.0023913811773 
! Gamma         0                0                0                0                
! Port Impedance         50               0                50               0                
11                             0.307048051357532 -39.3101584523133 0.915138024019112 -130.100289169794 0.91513802401911 -130.100289169794 0.307034877204416 -39.1124449984575 
! Gamma         0                0                0                0                
! Port Impedance         50               0                50               0                
11.1                           0.298056942168119 -40.4271335904648 0.917594765934377 -131.37270734128 0.917594765934375 -131.37270734128 0.298046497836521 -40.2202867079877 
! Gamma         0                0                0                0                
! Port Impedance         50               0                50               0                
11.2                           0.288843223860514 -41.5413542072231 0.920018704235111 -132.653091723357 0.920018704235109 -132.653091723357 0.28883581096559 -41.3246455024236 
! Gamma         0                0                0                0                
! Port Impedance         50               0                50               0                
11.3                           0.27940982442415 -42.6514186301161 0.922403219063513 -133.941369706483 0.922403219063511 -133.941369706483 0.279405780569658 -42.4240297057135 
! Gamma         0                0                0                0                
! Port Impedance         50               0                50               0                
11.4                           0.269760156381081 -43.7556762759432 0.924741623991467 -135.23744801968 0.924741623991465 -135.23744801968 0.269759861138511 -43.5166834032112 
! Gamma         0                0                0                0                
! Port Impedance         50               0                50               0                
11.5                           0.259898143863183 -44.8521759514375 0.927027188164848 -136.541212319973 0.927027188164847 -136.541212319973 0.259902026084129 -44.6005313568192 
! Gamma         0                0                0                0                
! Port Impedance         50               0                50               0                
11.6                           0.24982825062988 -45.9385997862814 0.929253160233698 -137.85252685579 0.929253160233697 -137.85252685579 0.249836797466468 -45.6731086207076 
! Gamma         0                0                0                0                
! Port Impedance         50               0                50               0                
11.7                           0.239555509690491 -47.0121778396977 0.931412793987544 -139.17123421242 0.931412793987543 -139.17123421242 0.239569277826888 -46.7314695879964 
! Gamma         0                0                0                0                
! Port Impedance         50               0                50               0                
11.8                           0.229085555581357 -48.069576373921 0.93349937558624 -140.497155147398 0.933499375586238 -140.497155147398 0.229105185360068 -47.7720690277465 
! Gamma         0                0                0                0                
! Port Impedance         50               0                50               0                
11.9                           0.218424660927301 -49.1067497414581 0.935506252246765 -141.830088523323 0.935506252246765 -141.830088523323 0.218450894312363 -48.7906044451048 
! Gamma         0                0                0                0                
! Port Impedance         50               0                50               0                
12                             0.20757977979846 -50.1187412182993 0.93742686221602 -143.169811345147 0.93742686221602 -143.169811345147 0.20761348349328 -49.7818042152842 
! Gamma         0                0                0                0                
! Port Impedance         50               0                50               0                
12.1                           0.196558601738637 -51.0994109843522 0.939254765829411 -144.516078908307 0.939254765829411 -144.516078908307 0.196600797332185 -50.7391384076854 
! Gamma         0                0                0                0                
! Port Impedance         50               0                50               0                
12.2                           0.185369622500458 -52.0410581899177 0.94098367742559 -145.868625063298 0.94098367742559 -145.868625063298 0.185421526354559 -51.6544173350171 
! Gamma         0                0                0                0                
! Port Impedance         50               0                50               0                
12.3                           0.174022241021452 -52.9338858249163 0.942607497859754 -147.227162601356 0.942607497859754 -147.227162601356 0.174085317905679 -52.5172236738689 
! Gamma         0                0                0                0                
! Port Impedance         50               0                50               0                
12.4                           0.162526898003511 -53.7652268258605 0.944120347332278 -148.591383764847 0.944120347332279 -148.591383764847 0.162602934527047 -53.3140921863403 
! Gamma         0                0                0                0                
! Port Impedance         50               0                50               0                
12.5                           0.150895281473831 -54.5183980112707 0.945516598226793 -149.960960884744 0.945516598226794 -149.960960884744 0.150986488674749 -54.0272967475943 
! Gamma         0                0                0                0                
! Port Impedance         50               0                50               0                
12.6                           0.139140642530157 -55.1709566650659 0.946790907632984 -151.33554714628 0.946790907632984 -151.33554714628 0.139249802507491 -54.6330085465127 
! Gamma         0                0                0                0                
! Port Impedance         50               0                50               0                
12.7                           0.127278297479159 -55.6919659293165 0.947938249215003 -152.714777482432 0.947938249215004 -152.714777482432 0.127408978472712 -55.0984139457724 
! Gamma         0                0                0                0                
! Port Impedance         50               0                50               0                
12.8                           0.11532645651559 -56.037551778224 0.948953944077161 -154.098269593395 0.948953944077162 -154.098269593395 0.115483337833283 -55.3770460581001 
! Gamma         0                0                0                0                
! Port Impedance         50               0                50               0                
12.9                           0.103307649538795 -56.1433837226662 0.949833690275014 -155.485625088664 0.949833690275016 -155.485625088664 0.103497029267838 -55.4009161640387 
! Gamma         0                0                0                0                
! Port Impedance         50               0                50               0                
13                             0.0912513022895656 -55.9113290536199 0.950573590622531 -156.876430746771 0.950573590622533 -156.876430746771 0.0914819216948057 -55.0666261192301 
! Gamma         0                0                0                0                
! Port Impedance         50               0                50               0                
13.1                           0.079198672428032 -55.1844076664673 0.951170178455053 -158.270259886144 0.951170178455054 -158.270259886144 0.0794831135970748 -54.2095140912212 
! Gamma         0                0                0                0                
! Port Impedance         50               0                50               0                
13.2                           0.0672130095378651 -53.696631849931 0.951620441023261 -159.666673839028 0.951620441023263 -159.666673839028 0.0675701766444244 -52.5524909508035 
! Gamma         0                0                0                0                
! Port Impedance         50               0                50               0                
13.3                           0.0554023824312568 -50.9648616935232 0.951921840215456 -161.065223518953 0.951921840215458 -161.065223518953 0.0558620912048354 -49.5978264450891 
! Gamma         0                0                0                0                
! Port Impedance         50               0                50               0                
13.4                           0.0439766379264996 -46.0378395920589 0.952072330333737 -162.465451070865 0.952072330333739 -162.465451070865 0.0445881327985385 -44.3843333223867 
! Gamma         0                0                0                0                
! Port Impedance         50               0                50               0                
13.5                           0.0334062088288311 -36.897909883575 0.952070372683851 -163.866891591794 0.952070372683853 -163.866891591794 0.0342510096179023 -34.9471221149582 
! Gamma         0                0                0                0                
! Port Impedance         50               0                50               0                
13.6                           0.0248820339910597 -19.420175235593 0.951914946777903 -165.269074908906 0.951914946777905 -165.269074908906 0.0260625891359203 -17.5667892893965 
! Gamma         0                0                0                0                
! Port Impedance         50               0                50               0                
13.7                           0.0211120300916707 9.99591988125372 0.951605557992993 -166.671527400857 0.951605557992994 -166.671527400857 0.0225571872551963 10.3187119917833 
! Gamma         0                0                0                0                
! Port Impedance         50               0                50               0                
13.8                           0.0244307918225926 40.0603630603003 0.951142241576327 -168.073773847724 0.951142241576328 -168.073773847724 0.0257470798344287 38.6128840703966 
! Gamma         0                0                0                0                
! Port Impedance         50               0                50               0                
13.9                           0.0327468988063132 58.3301430747387 0.950525562937333 -169.475339294347 0.950525562937335 -169.475339294347 0.033783356293718 56.5321881139689 
! Gamma         0                0                0                0                
! Port Impedance         50               0                50               0                
14                             0.0432520417725051 67.8919699082342 0.949756614218699 -170.875750911681 0.9497566142187  -170.875750911681 0.0440745250310494 66.2763992839793 
! Gamma         0                0                0                0                
! Port Impedance         50               0                50               0                
14.1                           0.0546742896184258 73.0329499966266 0.948837007189912 -172.274539840813 0.948837007189914 -172.274539840813 0.0553527524011439 71.6515331480328 
! Gamma         0                0                0                0                
! Port Impedance         50               0                50               0                
14.2                           0.0665132786618219 75.8828644024004 0.94776886255758 -173.671243004558 0.947768862557582 -173.671243004558 0.0670927729403158 74.6974873235668 
! Gamma         0                0                0                0                
! Port Impedance         50               0                50               0                
14.3                           0.0785480329211929 77.4423652862846 0.94655479583541 -175.065404872065 0.946554795835411 -175.065404872065 0.0790565411869304 76.4108910508315 
! Gamma         0                0                0                0                
! Port Impedance         50               0                50               0                
14.4                           0.0906658230133184 78.2167179481321 0.945197899962206 -176.456579162579 0.945197899962207 -176.456579162579 0.091121311033015 77.3059053227821 
! Gamma         0                0                0                0                
! Port Impedance         50               0                50               0                
14.5                           0.102801197558875 78.4826067093488 0.943701724897544 -177.844330475461 0.943701724897545 -177.844330475461 0.103215701638801 77.6677183641696 
! Gamma         0                0                0                0                
! Port Impedance         50               0                50               0                
14.6                           0.114911738960268 78.4025948871303 0.94207025446111 -179.228235834642 0.942070254461112 -179.228235834642 0.115293647741997 77.6652702660477 
! Gamma         0                0                0                0                
! Port Impedance         50               0                50               0                
14.7                           0.126967345420495 78.0779300566696 0.940307880712408 179.392113862995 0.940307880712409 179.392113862995 0.127322708422624 77.4043647344373 
! Gamma         0                0                0                0                
! Port Impedance         50               0                50               0                
14.8                           0.138945052604155 77.5747805968698 0.938419376191999 178.017112504472 0.938419376192   178.017112504472 0.139278360951034 76.9544173855835 
! Gamma         0                0                0                0                
! Port Impedance         50               0                50               0                
14.9                           0.150826343293593 76.9381570138433 0.93640986436354 176.647137530452 0.93640986436354 176.647137530452 0.151141014382901 76.3627806278463 
! Gamma         0                0                0                0                
! Port Impedance         50               0                50               0                
15                             0.162595663926757 76.1997271413913 0.934284788607276 175.282548823974 0.934284788607277 175.282548823973 0.162894353448489 75.6628390107079 
! Gamma         0                0                0                0                
! Port Impedance         50               0                50               0                
15.1                           0.174239565135319 75.3824197371934 0.932049880120563 173.92368772272  0.932049880120564 173.92368772272  0.174524374556975 74.8788014809058 
! Gamma         0                0                0                0                
! Port Impedance         50               0                50               0                
15.2                           0.185746182395809 74.5032503934666 0.929711125079531 172.570876157793 0.929711125079532 172.570876157793 0.186018800939407 74.0286542731644 
! Gamma         0                0                0                0                
! Port Impedance         50               0                50               0                
15.3                           0.197104910305822 73.5751190236681 0.927274731408655 171.224415920421 0.927274731408656 171.224415920421 0.197366714582932 73.1260447648252 
! Gamma         0                0                0                0                
! Port Impedance         50               0                50               0                
15.4                           0.208306191080593 72.6079891054695 0.924747095492167 169.884588056554 0.924747095492168 169.884588056554 0.208558316591807 72.1815203315584 
! Gamma         0                0                0                0                
! Port Impedance         50               0                50               0                
15.5                           0.219341372376965 71.6096825793048 0.922134769143654 168.551652387908 0.922134769143654 168.551652387908 0.219584765848154 71.2033650532469 
! Gamma         0                0                0                0                
! Port Impedance         50               0                50               0                
15.6                           0.230202608134325 70.5864286516547 0.919444427128428 167.22584715673  0.919444427128428 167.22584715673  0.230438066508905 70.1981783086463 
! Gamma         0                0                0                0                
! Port Impedance         50               0                50               0                
15.7                           0.240882786535922 69.5432508508282 0.916682835508192 165.907388790387 0.916682835508192 165.907388790387 0.241110986488825 69.1712833886731 
! Gamma         0                0                0                0                
! Port Impedance         50               0                50               0                
15.8                           0.251375475239792 68.4842452694969 0.913856821049811 164.596471780841 0.913856821049811 164.596471780841 0.25159699583729 68.1270215664778 
! Gamma         0                0                0                0                
! Port Impedance         50               0                50               0                
15.9                           0.261674877650206 67.41278406254   0.910973241910469 163.293268673191 0.910973241910469 163.293268673191 0.261890217972212 67.0689673750416 
! Gamma         0                0                0                0                
! Port Impedance         50               0                50               0                
16                             0.271775796231167 66.3316666293664 0.908038959780924 161.997930156704 0.908038959780924 161.997930156704 0.271985389236233 66.0000886685376 
! Gamma         0                0                0                0                
! Port Impedance         50               0                50               0                
16.1                           0.281673600271448 65.2432335522192 0.90506081363754 160.710585251152 0.90506081363754 160.710585251152 0.281877823821423 64.9228673326617 
! Gamma         0                0                0                0                
! Port Impedance         50               0                50               0                
16.2                           0.29136419641843 64.1494536074625 0.902045595223059 159.431341580831 0.902045595223059 159.431341580831 0.291563382129437 63.8393915178774 
! Gamma         0                0                0                0                
! Port Impedance         50               0                50               0                
16.3                           0.300844000893871 63.0519910323883 0.899000026346163 158.160285728302 0.899000026346163 158.160285728302 0.301038441304901 62.7514269741843 
! Gamma         0                0                0                0                
! Port Impedance         50               0                50               0                
16.4                           0.3101099127015  61.9522581255577 0.895930738061257 156.897483659726 0.895930738061258 156.897483659726 0.310299867127315 61.6604728506601 
! Gamma         0                0                0                0                
! Port Impedance         50               0                50               0                
16.5                           0.31915928740322 60.8514568218264 0.892844251763019 155.642981213574 0.892844251763019 155.642981213574 0.319344986748417 60.5678058088112 
! Gamma         0                0                0                0                
! Port Impedance         50               0                50               0                
16.6                           0.327989911221167 59.7506118869986 0.889746962205394 154.396804644582 0.889746962205395 154.396804644582 0.328171561966729 59.474515247884  
! Gamma         0                0                0                0                
! Port Impedance         50               0                50               0                
16.7                           0.336599975344837 58.6505976764951 0.886645122432137 153.158961214918 0.886645122432137 153.158961214918 0.336777762870046 58.3815317006348 
! Gamma         0                0                0                0                
! Port Impedance         50               0                50               0                
16.8                           0.344988050404142 57.5521599032986 0.883544830585788 151.929439824803 0.883544830585789 151.929439824803 0.345162141770627 57.2896499306551 
! Gamma         0                0                0                0                
! Port Impedance         50               0                50               0                
16.9                           0.353153061122879 56.4559335004892 0.880452018544376 150.708211675102 0.880452018544376 150.708211675102 0.353323607420271 56.199547881738  
! Gamma         0                0                0                0                
! Port Impedance         50               0                50               0                
17                             0.361094261200961 55.3624574011791 0.877372442319928 149.495230954799 0.877372442319929 149.495230954799 0.361261399532882 55.1118023520096 
! Gamma         0                0                0                0                
! Port Impedance         50               0                50               0                
17.1                           0.368811208493597 54.2721868652075 0.87431167414029 148.290435546652 0.874311674140291 148.290435546652 0.368975063666755 54.0269020607367 
! Gamma         0                0                0                0                
! Port Impedance         50               0                50               0                
17.2                           0.37630374056557 53.1855038380111 0.871275096125466 147.093747744802 0.871275096125466 147.093747744802 0.376464426532353 52.9452586232317 
! Gamma         0                0                0                0                
! Port Impedance         50               0                50               0                
17.3                           0.383571950701683 52.1027257190088 0.868267895461743 145.905074978575 0.868267895461743 145.905074978575 0.383729571797016 51.8672158347179 
! Gamma         0                0                0                0                
! Port Impedance         50               0                50               0                
17.4                           0.390616164452498 51.0241128349993 0.86529506097104 144.724310537215 0.865295060971041 144.724310537215 0.390770816458094 50.7930575772318 
! Gamma         0                0                0                0                
! Port Impedance         50               0                50               0                
17.5                           0.397436916789212 49.9498748516223 0.862361380969001 143.551334290783 0.862361380969001 143.551334290783 0.397588687852349 49.723014597373  
! Gamma         0                0                0                0                
! Port Impedance         50               0                50               0                
17.6                           0.404034929934049 48.8801763079177 0.859471442303239 142.386013402962 0.859471442303239 142.386013402962 0.404183901363192 48.6572703517465 
! Gamma         0                0                0                0                
! Port Impedance         50               0                50               0                
17.7                           0.410411091923806 47.8151414218572 0.856629630462577 141.228203031988 0.856629630462578 141.228203031988 0.410557338879539 47.5959660774669 
! Gamma         0                0                0                0                
! Port Impedance         50               0                50               0                
17.8                           0.416566435954748 46.7548582857629 0.853840130648892 140.077747016427 0.853840130648892 140.077747016427 0.416710028051347 46.5392052143265 
! Gamma         0                0                0                0                
! Port Impedance         50               0                50               0                
17.9                           0.422502120547412 45.6993825478376 0.85110692970514 138.93447854295  0.85110692970514 138.93447854295  0.422643122377883 45.4870572811007 
! Gamma         0                0                0                0                
! Port Impedance         50               0                50               0                
18                             0.428219410560416 44.6487406581368 0.848433818796079 137.798220793734 0.84843381879608 137.798220793734 0.428357882155736 44.4395612894306 
! Gamma         0                0                0                0                
! Port Impedance         50               0                50               0                
18.1                           0.433719659073323 43.6029327431293 0.845824396741892 136.668787571485 0.845824396741893 136.668787571485 0.433855656304933 43.3967287636277 
! Gamma         0                0                0                0                
! Port Impedance         50               0                50               0                
18.2                           0.439004290150104 42.5619351616988 0.84328207390929 135.545983900519 0.843282073909291 135.545983900519 0.439137865083292 42.3585464227158 
! Gamma         0                0                0                0                
! Port Impedance         50               0                50               0                
18.3                           0.444074782486993 41.5257027863867 0.840810076569474 134.429606602647 0.840810076569475 134.429606602647 0.444205983691654 41.3249785713817 
! Gamma         0                0                0                0                
! Port Impedance         50               0                50               0                
18.4                           0.448932653941514 40.4941710464013 0.838411451637507 133.319444846991 0.838411451637508 133.319444846991 0.4490615267658  40.2959692387507 
! Gamma         0                0                0                0                
! Port Impedance         50               0                50               0                
18.5                           0.453579446933273 39.4672577630362 0.836089071712987 132.215280673114 0.836089071712988 132.215280673114 0.453706033744842 39.2714440976235 
! Gamma         0                0                0                0                
! Port Impedance         50               0                50               0                
18.6                           0.458016714701729 38.4448648033634 0.833845640347388 131.116889487171 0.83384564034739 131.116889487171 0.458141055100613 38.2513121917183 
! Gamma         0                0                0                0                
! Port Impedance         50               0                50               0                
18.7                           0.462246008401606 37.4268795741782 0.831683697468928 130.024040530992 0.831683697468929 130.024040530992 0.462368139408158 37.2354674943037 
! Gamma         0                0                0                0                
! Port Impedance         50               0                50               0                
18.8                           0.466268865012777 36.4131763749849 0.829605624901184 128.93649732427  0.829605624901186 128.93649732427  0.466388821233665 36.2237903182005 
! Gamma         0                0                0                0                
! Port Impedance         50               0                50               0                
18.9                           0.470086796038455 35.4036176261924 0.827613651917004 127.854018080202 0.827613651917006 127.854018080202 0.470204609813256 35.2161485943347 
! Gamma         0                0                0                0                
! Port Impedance         50               0                50               0                
19                             0.473701276963109 34.3980549865324 0.825709860774294 126.776356095107 0.825709860774295 126.776356095107 0.47381697849371 34.2123990337088 
! Gamma         0                0                0                0                
! Port Impedance         50               0                50               0                
19.1                           0.477113737439844 33.3963303719208 0.823896192185145 125.70326011272  0.823896192185146 125.70326011272  0.477227354904567 33.2123881857447 
! Gamma         0                0                0                0                
! Port Impedance         50               0                50               0                
19.2                           0.480325552175849 32.398276886499  0.822174450674356 124.634474663972 0.822174450674357 124.634474663972 0.480437111829934 32.2159534043591 
! Gamma         0                0                0                0                
! Port Impedance         50               0                50               0                
19.3                           0.483338032483913 31.4037196753523 0.820546309787702 123.569740383189 0.820546309787703 123.569740383189 0.48344755874779 31.2229237318045 
! Gamma         0                0                0                0                
! Port Impedance         50               0                50               0                
19.4                           0.48615241846792 30.4124767073677 0.819013317114327 122.508794301762 0.819013317114328 122.508794301762 0.486259934004508 30.2331207091985 
! Gamma         0                0                0                0                
! Port Impedance         50               0                50               0                
19.5                           0.488769871810555 29.42435949583   0.817576899091349 121.45137012039  0.81757689909135 121.45137012039  0.488875397592659 29.2463591217321 
! Gamma         0                0                0                0                
! Port Impedance         50               0                50               0                
19.6                           0.491191469132184 28.4391737636239 0.816238365562162 120.397198461113 0.816238365562163 120.397198461113 0.491295024500897 28.2624476857707 
! Gamma         0                0                0                0                
! Port Impedance         50               0                50               0                
19.7                           0.493418195890909 27.4567200593052 0.814998914063033 119.346007100384 0.814998914063034 119.346007100384 0.493519798605838 27.2811896843994 
! Gamma         0                0                0                0                
! Port Impedance         50               0                50               0                
19.8                           0.495450940795198 26.476794329791  0.813859633815386 118.297521184488 0.813859633815387 118.297521184488 0.495550607077182 26.3023835574199 
! Gamma         0                0                0                0                
! Port Impedance         50               0                50               0                
19.9                           0.497290490702096 25.499188454997  0.812821509403723 117.251463428678 0.812821509403724 117.251463428678 0.497388235269015 25.3258234513433 
! Gamma         0                0                0                0                
! Port Impedance         50               0                50               0                
20                             0.49893752597592 24.5236907493902 0.811885424121362 116.20755430142  0.811885424121362 116.20755430142  0.499033362072079 24.3512997345379 
! Gamma         0                0                0                0                
! Port Impedance         50               0                50               0                
20.1                           0.50039261628439 23.5500864351419 0.811052162968208 115.165512195164 0.811052162968209 115.165512195164 0.500486555703922 23.378599482379  
! Gamma         0                0                0                0                
! Port Impedance         50               0                50               0                
20.2                           0.501656216811441 22.5781580913248 0.810322415286556 114.125053585122 0.810322415286557 114.125053585122 0.501748269916062 22.4075069369833 
! Gamma         0                0                0                0                
! Port Impedance         50               0                50               0                
20.3                           0.502728664868357 21.6076860834157 0.809696777022478 113.085893177521 0.809696777022479 113.085893177521 0.50281884059977 21.4378039459111 
! Gamma         0                0                0                0                
! Port Impedance         50               0                50               0                
20.4                           0.503610176887451 20.6384489772223 0.809175752601778 112.047744048844 0.809175752601778 112.047744048844 0.503698482774632 20.4692703840552 
! Gamma         0                0                0                0                
! Port Impedance         50               0                50               0                
20.5                           0.5043008457852  19.6702239412546 0.808759756410672 111.01031777759  0.808759756410673 111.01031777759  0.504387287946738 19.5016845628227 
! Gamma         0                0                0                0                
! Port Impedance         50               0                50               0                
20.6                           0.504800638684564 18.702787141498  0.80844911387249 109.973324570111 0.80844911387249 109.973324570111 0.504885221826191 18.5348236306405 
! Gamma         0                0                0                0                
! Port Impedance         50               0                50               0                
20.7                           0.505109394989138 17.7359141325245 0.808244062112621 108.936473382096 0.808244062112622 108.936473382096 0.505192122396512 17.568463968776  
! Gamma         0                0                0                0                
! Port Impedance         50               0                50               0                
20.8                           0.505226824804792 16.7693802488901 0.808144750204855 107.899472037298 0.808144750204856 107.899472037298 0.50530769833159 16.6023815864688 
! Gamma         0                0                0                0                
! Port Impedance         50               0                50               0                
20.9                           0.505152507707583 15.802961000814  0.808151238993059 106.862027345137 0.808151238993059 106.862027345137 0.505231527758879 15.6363525194044 
! Gamma         0                0                0                0                
! Port Impedance         50               0                50               0                
21                             0.50488589185992 14.8364324782245 0.808263500482946 105.823845218819 0.808263500482947 105.823845218819 0.504963057370795 14.6701532356366 
! Gamma         0                0                0                0                
! Port Impedance         50               0                50               0                
21.1                           0.504426293480227 13.8695717673773 0.808481416799475 104.78463079564  0.808481416799475 104.78463079564  0.504501601889523 13.7035610531801 
! Gamma         0                0                0                0                
! Port Impedance         50               0                50               0                
21.2                           0.503772896674757 12.9021573844195 0.808804778706214 103.74408856119  0.808804778706214 103.74408856119  0.503846343893824 12.736354573646  
! Gamma         0                0                0                0                
! Port Impedance         50               0                50               0                
21.3                           0.502924753643603 11.9339697304766 0.809233283683886 102.701922479186 0.809233283683886 102.701922479186 0.502996334019846 11.7683141364942 
! Gamma         0                0                0                0                
! Port Impedance         50               0                50               0                
21.4                           0.501880785276504 10.9647915730971 0.80976653356626 101.65783612869  0.80976653356626 101.65783612869  0.501950491551507 10.7992222987153 
! Gamma         0                0                0                0                
! Port Impedance         50               0                50               0                
21.5                           0.500639782157608 9.99440855919215 0.810404031732601 100.61153285052  0.8104040317326  100.61153285052  0.50070760541952 9.82886434505333 
! Gamma         0                0                0                0                
! Port Impedance         50               0                50               0                
21.6                           0.499200406001992 9.02260976497081 0.811145179857129 99.5627159046768 0.811145179857129 99.5627159046768 0.499266335631849 8.85702883422598 
! Gamma         0                0                0                0                
! Port Impedance         50               0                50               0                
21.7                           0.497561191550448 8.04918828879784 0.81198927421733 98.5110886406554 0.811989274217329 98.5110886406553 0.497625215162004 7.88350818701865 
! Gamma         0                0                0                0                
! Port Impedance         50               0                50               0                
21.8                           0.495720548952757 7.0739418933996  0.81293550156457 97.4563546825305 0.812935501564569 97.4563546825304 0.495782652325351 6.90809932260844 
! Gamma         0                0                0                0                
! Port Impedance         50               0                50               0                
21.9                           0.493676766673442 6.0966737044258  0.813982934562358 96.39821813075   0.813982934562357 96.3982181307499 0.493736933677341 5.93060435004422 
! Gamma         0                0                0                0                
! Port Impedance         50               0                50               0                
22                             0.49142801495774 5.1171929730526  0.815130526799736 95.3363837825863 0.815130526799735 95.3363837825862 0.491486227471321 4.95083132246897 
! Gamma         0                0                0                0                
! Port Impedance         50               0                50               0                
22.1                           0.488972349899306 4.13531591110238 0.81637710738981 94.2705573732298 0.816377107389809 94.2705573732297 0.489028587717326 3.96859506244067 
! Gamma         0                0                0                0                
! Port Impedance         50               0                50               0                
22.2                           0.486307718154823 3.15086660807458 0.817721375166251 93.2004458395198 0.817721375166251 93.2004458395197 0.486361958886941 2.98371806760612 
! Gamma         0                0                0                0                
! Port Impedance         50               0                50               0                
22.3                           0.483431962354366 2.16367804055604 0.81916189249388 92.125757608326  0.819161892493879 92.125757608326  0.483484181312925 1.99603150703065 
! Gamma         0                0                0                0                
! Port Impedance         50               0                50               0                
22.4                           0.480342827259831 1.17359318573294 0.820697078713144 91.0462029115919 0.820697078713143 91.0462029115919 0.480392997335795 1.00537631971166 
! Gamma         0                0                0                0                
! Port Impedance         50               0                50               0                
22.5                           0.477037966727138 0.180466252198218 0.822325203242461 89.961494130046  0.82232520324246 89.961494130046  0.477086058252868 0.011604428242155 
! Gamma         0                0                0                0                
! Port Impedance         50               0                50               0                
22.6                           0.473514951531001 -0.81583595702205 0.824044378367085 88.871346167562  0.824044378367084 88.871346167562  0.473560932128422 -0.985419917719018 
! Gamma         0                0                0                0                
! Port Impedance         50               0                50               0                
22.7                           0.469771278114004 -1.81543253225939 0.825852551748346 87.7754768581116 0.825852551748345 87.7754768581116 0.469815112526424 -1.98581865151863 
! Gamma         0                0                0                0                
! Port Impedance         50               0                50               0                
22.8                           0.465804378324187 -2.8184267764282 0.827747498692902 86.673607407197  0.827747498692901 86.673607407197  0.465846028229815 -2.98969823410663 
! Gamma         0                0                0                0                
! Port Impedance         50               0                50               0                
22.9                           0.461611630207554 -3.82490433343024 0.829726814227931 85.5654628695654 0.82972681422793 85.5654628695654 0.461651054012426 -3.99714781133476 
! Gamma         0                0                0                0                
! Port Impedance         50               0                50               0                
23                             0.457190369923542 -4.83493110004963 0.831787905035178 84.4507726649073 0.831787905035177 84.4507726649072 0.457227522531228 -5.00823715877421 
! Gamma         0                0                0                0                
! Port Impedance         50               0                50               0                
23.1                           0.452537904852661 -5.84855089153436 0.833927981304183 83.3292711331009 0.833927981304182 83.3292711331009 0.452572737407678 -6.02301438484534 
! Gamma         0                0                0                0                
! Port Impedance         50               0                50               0                
23.2                           0.447651527965985 -6.86578282610269 0.836144048573133 82.2006981303997 0.836144048573132 82.2006981303997 0.447683987567349 -7.04150335820379 
! Gamma         0                0                0                0                
! Port Impedance         50               0                50               0                
23.3                           0.442528533526044 -7.88661838761361 0.838432899634354 81.0647996677518 0.838432899634352 81.0647996677518 0.442558562906794 -8.06370081945873 
! Gamma         0                0                0                0                
! Port Impedance         50               0                50               0                
23.4                           0.437166234187709 -8.91101811834696 0.840791106590539 79.9213285921983 0.840791106590538 79.9213285921983 0.437193771355518 -9.08957313016306 
! Gamma         0                0                0                0                
! Port Impedance         50               0                50               0                
23.5                           0.431561979565987 -9.93890788492955 0.843215013157313 78.7700453120036 0.843215013157312 78.7700453120036 0.431586957399136 -10.1190526032978 
! Gamma         0                0                0                0                
! Port Impedance         50               0                50               0                
23.6                           0.425713176335121 -10.9701746495065 0.84570072731757 77.6107185658359 0.845700727317569 77.6107185658359 0.42573552212707 -11.1520333487694 
! Gamma         0                0                0                0                
! Port Impedance         50               0                50               0                
23.7                           0.419617309920131 -12.0046616647643 0.848244114443079 76.4431262359231 0.848244114443078 76.4431262359231 0.419636944864701 -12.1883665542302 
! Gamma         0                0                0                0                
! Port Impedance         50               0                50               0                
23.8                           0.413271967837945 -13.0421629946824 0.85084079100896 75.2670562046672 0.85084079100896 75.2670562046672 0.413288806445616 -13.2278551051545 
! Gamma         0                0                0                0                
! Port Impedance         50               0                50               0                
23.9                           0.406674864740769 -14.0824172420332 0.853486119036671 74.0823072536953 0.85348611903667 74.0823072536954 0.406688814174814 -14.2702474276783 
! Gamma         0                0                0                0                
! Port Impedance         50               0                50               0                
24                             0.399823869209621 -15.1251003375136 0.856175201410845 72.8886900037673 0.856175201410844 72.8886900037673 0.399834828528523 -15.3152304121105 
! Gamma         0                0                0                0                
! Port Impedance         50               0                50               0                
24.1                           0.392717032341305 -16.1698172124514 0.858902878224474 71.6860278933344 0.858902878224473 71.6860278933345 0.392724891631226 -16.3624212427529 
! Gamma         0                0                0                0                
! Port Impedance         50               0                50               0                
24.2                           0.385352618168337 -17.2160921352669 0.861663724315247 70.4741581928644 0.861663724315246 70.4741581928645 0.385357257546025 -17.4113579187457 
! Gamma         0                0                0                0                
! Port Impedance         50               0                50               0                
24.3                           0.377729135949165 -18.2633574386203 0.864452048163043 69.2529330513061 0.864452048163042 69.2529330513061 0.377730424411501 -18.4614881984541 
! Gamma         0                0                0                0                
! Port Impedance         50               0                50               0                
24.4                           0.369845374366859 -19.3109402958133 0.867261892324228 68.0222205702684 0.867261892324227 68.0222205702684 0.369843168458045 -19.5121566329001 
! Gamma         0                0                0                0                
! Port Impedance         50               0                50               0                
24.5                           0.361700437679947 -20.3580471167042 0.870087035582245 66.7819059006442 0.870087035582244 66.7819059006442 0.361694579940806 -20.5625892671264 
! Gamma         0                0                0                0                
! Port Impedance         50               0                50               0                
24.6                           0.353293783881819 -21.4037450184732 0.872920996995497 65.531892355513  0.872920996995496 65.531892355513  0.353284101037385 -21.6118754756546 
! Gamma         0                0                0                0                
! Port Impedance         50               0                50               0                
24.7                           0.344625264948452 -22.4469396759391 0.875757042022352 64.2721025322323 0.875757042022352 64.2721025322323 0.344611565779535 -22.658946250373 
! Gamma         0                0                0                0                
! Port Impedance         50               0                50               0                
24.8                           0.335695169292976 -23.4863486570946 0.878588190898879 63.0024794356739 0.878588190898878 63.002479435674  0.335677242123901 -23.7025480638166 
! Gamma         0                0                0                0                
! Port Impedance         50               0                50               0                
24.9                           0.326504266606552 -24.5204690843454 0.881407229436999 61.7229875936023 0.881407229436999 61.7229875936023 0.326481876323876 -24.741211170393 
! Gamma         0                0                0                0                
! Port Impedance         50               0                50               0                
25                             0.317053855357579 -25.5475381054584 0.884206722399065 60.4336141542365 0.884206722399065 60.4336141542365 0.31702673985195 -25.7732108579029 
! Gamma         0                0                0                0                
! Port Impedance         50               0                50               0                
25.1                           0.307345813359066 -26.5654841744245 0.886979029588689 59.1343699551124 0.886979029588688 59.1343699551125 0.30731367925265 -26.7965196862137 
! Gamma         0                0                0                0                
! Port Impedance         50               0                50               0                
25.2                           0.297382652016496 -27.5718664791488 0.889716324776965 57.8252905514814 0.889716324776966 57.8252905514814 0.29734516949903 -27.8087480977076 
! Gamma         0                0                0                0                
! Port Impedance         50               0                50               0                
25.3                           0.287167575164432 -28.5637989335305 0.892410617557592 56.5064371916763 0.892410617557593 56.5064371916763 0.287124371708277 -28.8070698796189 
! Gamma         0                0                0                0                
! Port Impedance         50               0                50               0                
25.4                           0.276704543831745 -29.5378538623055 0.89505377819373 55.1778977261707 0.89505377819373 55.1778977261707 0.276655196485107 -29.7881276891863 
! Gamma         0                0                0                0                
! Port Impedance         50               0                50               0                
25.5                           0.265998348906729 -30.4899386764154 0.897637565483805 53.8397874364782 0.897637565483805 53.8397874364783 0.265942374766952 -30.7479120490827 
! Gamma         0                0                0                0                
! Port Impedance         50               0                50               0                
25.6                           0.255054694602601 -31.4151362020713 0.900153657632816 52.4922497696158 0.900153657632816 52.4922497696158 0.254991538936923 -31.681604622957 
! Gamma         0                0                0                0                
! Port Impedance         50               0                50               0                
25.7                           0.243880297004073 -32.3074954797338 0.902593686070451 51.1354569636196 0.902593686070451 51.1354569636197 0.243809318297012 -32.5833727844248 
! Gamma         0                0                0                0                
! Port Impedance         50               0                50               0                
25.8                           0.23248300405092 -33.1597541438469 0.90494927210795 49.7696105495805 0.90494927210795 49.7696105495805 0.232403454990427 -33.4460968562457 
! Gamma         0                0                0                0                
! Port Impedance         50               0                50               0                
25.9                           0.220871946481199 -33.9629648894124 0.907212066272662 48.3949417158822 0.907212066272663 48.3949417158823 0.220782949511706 -34.2610028846899 
! Gamma         0                0                0                0                
! Port Impedance         50               0                50               0                
26                             0.209057734174267 -34.705985317221 0.909373790103715 47.0117115208127 0.909373790103715 47.0117115208127 0.208958249684159 -35.0171607232525 
! Gamma         0                0                0                0                
! Port Impedance         50               0                50               0                
26.1                           0.197052720123654 -35.3747697577707 0.911426280135006 45.6202109404826 0.911426280135006 45.6202109404826 0.196941504503744 -35.7007866649657 
! Gamma         0                0                0                0                
! Port Impedance         50               0                50               0                
26.2                           0.184871366890654 -35.9513685890933 0.913361533734251 44.2207607400544 0.913361533734251 44.2207607400544 0.18474691644867 -36.2942569581384 
! Gamma         0                0                0                0                
! Port Impedance         50               0                50               0                
26.3                           0.172530771354777 -36.4124864684224 0.915171756410376 42.8137111576535 0.915171756410377 42.8137111576535 0.172391246155828 -36.7746845983409 
! Gamma         0                0                0                0                
! Port Impedance         50               0                50               0                
26.4                           0.160051439380479 -36.7273603330577 0.916849410147753 41.3994413920148 0.916849410147753 41.3994413920148 0.159894558108806 -37.1118211845657 
! Gamma         0                0                0                0                
! Port Impedance         50               0                50               0                
26.5                           0.147458465044512 -36.8545626345387 0.918387262276287 39.978358886888  0.918387262276287 39.978358886888  0.147281357304207 -37.2648895147327 
! Gamma         0                0                0                0                
! Port Impedance         50               0                50               0                
26.6                           0.134783383734449 -36.7370620142479 0.919778434342838 38.5508984074819 0.919778434342839 38.5508984074818 0.134582378807253 -37.1776765592894 
! Gamma         0                0                0                0                
! Port Impedance         50               0                50               0                
26.7                           0.122067184567905 -36.294382140918 0.921016450413634 37.117520906726  0.921016450413635 37.117520906726  0.121837504042787 -36.7707162402606 
! Gamma         0                0                0                0                
! Port Impedance         50               0                50               0                
26.8                           0.109365390306298 -35.4098012043603 0.922095284210718 35.6787121818481 0.922095284210719 35.6787121818481 0.109100694607542 -35.928467431255 
! Gamma         0                0                0                0                
! Port Impedance         50               0                50               0                
26.9                           0.0967569699835423 -33.9088960200341 0.92300940446963 34.2349813246409 0.92300940446963 34.2349813246408 0.0964486866155098 -34.4776786843217 
! Gamma         0                0                0                0                
! Port Impedance         50               0                50               0                
27                             0.0843606378754593 -31.5228963943434 0.923753817901515 32.7868589717839 0.923753817901516 32.7868589717839 0.0839969882214444 -32.1500713706353 
! Gamma         0                0                0                0                
! Port Impedance         50               0                50               0                
27.1                           0.0723658425474988 -27.8264260141808 0.924324109151729 31.3348953646154 0.92432410915173 31.3348953646153 0.0719305685898567 -28.5179354694789 
! Gamma         0                0                0                0                
! Port Impedance         50               0                50               0                
27.2                           0.0610930653987649 -22.139963281931 0.924716477169202 29.8796582307594 0.924716477169202 29.8796582307593 0.0605643979344314 -22.8902243591195 
! Gamma         0                0                0                0                
! Port Impedance         50               0                50               0                
27.3                           0.05110742981053 -13.4287651193555 0.924927767436594 28.4217305029258 0.924927767436595 28.4217305029258 0.050460121331262 -14.1948629997571 
! Gamma         0                0                0                0                
! Port Impedance         50               0                50               0                
27.4                           0.0433890930720842 -0.456776501739785 0.924955499560238 26.9617078929384 0.924955499560238 26.9617078929383 0.0426088992531409 -1.1061275454966 
! Gamma         0                0                0                0                
! Port Impedance         50               0                50               0                
27.5                           0.0393645953768452 17.0041236816243 0.924797889780287 25.5001963415442 0.924797889780287 25.5001963415441 0.0384864514796418 16.7055201059918 
! Gamma         0                0                0                0                
! Port Impedance         50               0                50               0                
27.6                           0.0402040378896783 36.0666300737932 0.924453868034232 24.0378093667432 0.924453868034232 24.0378093667432 0.0393295237391618 36.2353737625874 
! Gamma         0                0                0                0                
! Port Impedance         50               0                50               0                
27.7                           0.0456587550826817 52.2249988970161 0.923923089289297 22.5751653351889 0.923923089289297 22.5751653351888 0.0448782834202221 52.6912665462615 
! Gamma         0                0                0                0                
! Port Impedance         50               0                50               0                
27.8                           0.0543558543799424 63.7155132947432 0.923205938949284 21.1128846825953 0.923205938949283 21.1128846825952 0.0536923546190947 64.2677874177434 
! Gamma         0                0                0                0                
! Port Impedance         50               0                50               0                
27.9                           0.064992123213364 71.320982234824  0.922303532236806 19.6515871100125 0.922303532236806 19.6515871100125 0.064430869626936 71.8545864871153 
! Gamma         0                0                0                0                
! Port Impedance         50               0                50               0                
28                             0.0767416041809531 76.2722937274946 0.921217707550152 18.1918887832574 0.921217707550152 18.1918887832574 0.0762611539636573 76.7544937944278 
! Gamma         0                0                0                0                
! Port Impedance         50               0                50               0                
28.1                           0.0891346459434566 79.4849881312677 0.919951013892466 16.7343995627129 0.919951013892465 16.7343995627128 0.0887168551785446 79.9115651449114 
! Gamma         0                0                0                0                
! Port Impedance         50               0                50               0                
28.2                           0.101901546448432 81.544714038302  0.918506692567065 15.2797202901308 0.918506692567065 15.2797202901308 0.101532756839659 81.9204095271908 
! Gamma         0                0                0                0                
! Port Impedance         50               0                50               0                
28.3                           0.114879314637211 82.817934270579  0.916888653423787 13.8284401580053 0.916888653423786 13.8284401580053 0.114549488675136 83.1494487822107 
! Gamma         0                0                0                0                
! Port Impedance         50               0                50               0                
28.4                           0.127963164206364 83.5379821396898 0.915101446025057 12.3811341855675 0.915101446025056 12.3811341855674 0.127664885063012 83.8317312359593 
! Gamma         0                0                0                0                
! Port Impedance         50               0                50               0                
28.5                           0.141081470509263 83.8577862898003 0.913150226174793 10.9383608235186 0.913150226174792 10.9383608235186 0.140809173399588 84.1193080532374 
! Gamma         0                0                0                0                
! Port Impedance         50               0                50               0                
28.6                           0.154182446184267 83.8807125275564 0.911040718316456 9.50065970733408 0.911040718316456 9.50065970733402 0.153931879943091 84.1146194135404 
! Gamma         0                0                0                0                
! Port Impedance         50               0                50               0                
28.7                           0.167226762905585 83.6787030608211 0.908779174357443 8.06854957638907 0.908779174357443 8.06854957638902 0.166994620732961 83.8887936218462 
! Gamma         0                0                0                0                
! Port Impedance         50               0                50               0                
28.8                           0.180183297602419 83.3031852998726 0.906372329514508 6.64252637335756 0.906372329514508 6.64252637335751 0.179966963023564 83.4925852774766 
! Gamma         0                0                0                0                
! Port Impedance         50               0                50               0                
28.9                           0.193026585965609 82.7918139449614 0.903827355798737 5.22306153538135 0.903827355798737 5.22306153538128 0.192823955871891 82.9631055450465 
! Gamma         0                0                0                0                
! Port Impedance         50               0                50               0                
29                             0.205735244793663 82.1727553577839 0.901151813768804 3.81060048548079 0.901151813768803 3.81060048548072 0.205544604215881 82.3280846989007 
! Gamma         0                0                0                0                
! Port Impedance         50               0                50               0                
29.1                           0.21829096341664 81.4674833542093 0.898353603178231 2.40556132964544 0.89835360317823 2.40556132964541 0.218110895423412 81.6086464522696 
! Gamma         0                0                0                0                
! Port Impedance         50               0                50               0                
29.2                           0.230677839745426 80.6926491332012 0.895440913127099 1.00833376207733 0.895440913127099 1.0083337620773  0.230507159549335 80.8211597146844 
! Gamma         0                0                0                0                
! Port Impedance         50               0                50               0                
29.3                           0.242881930618385 79.861360553251  0.892422172302236 -0.380721821785925 0.892422172302235 -0.380721821785945 0.242719636633677 79.9785033354454 
! Gamma         0                0                0                0                
! Port Impedance         50               0                50               0                
29.4                           0.254890938441267 78.984075583832  0.889305999853757 -1.76127500749982 0.889305999853756 -1.76127500749986 0.254736175401484 79.0909482055482 
! Gamma         0                0                0                0                
! Port Impedance         50               0                50               0                
29.5                           0.266693986158648 78.069238164788  0.886101157411631 -3.1330258445671 0.886101157411631 -3.13302584456712 0.266546016945932 78.1667843327674 
! Gamma         0                0                0                0                
! Port Impedance         50               0                50               0                
29.6                           0.278281450364681 77.1237386020579 0.882816502695295 -4.49570513776893 0.882816502695295 -4.49570513776896 0.27813963422345 77.2127744487306 
! Gamma         0                0                0                0                
! Port Impedance         50               0                50               0                
29.7                           0.289644833160554 76.1532522235455 0.879460945114093 -5.84907455641981 0.879460945114094 -5.84907455641985 0.289508608653613 76.2344874054016 
! Gamma         0                0                0                0                
! Port Impedance         50               0                50               0                
29.8                           0.300776660093589 75.162492131882  0.876043403698127 -7.19292657268775 0.876043403698126 -7.19292657268778 0.300645531625632 75.2365468342332 
! Gamma         0                0                0                0                
! Port Impedance         50               0                50               0                
29.9                           0.31167039579795 74.1554003942991 0.872572767639579 -8.52708424140933 0.872572767639579 -8.52708424140935 0.311543922854113 74.2228191311883 
! Gamma         0                0                0                0                
! Port Impedance         50               0                50               0                
30                             0.322320371740573 73.1352944788158 0.869057859665315 -9.8514008348138 0.869057859665315 -9.85140083481381 0.322198160213922 73.1965573677223 
! Gamma         0                0                0                0                
! Port Impedance         50               0                50               0                
30.1                           0.332721722315778 72.1049807247381 0.865507402403704 -11.1657593462573 0.865507402403704 -11.1657593462573 0.332603417458242 72.1605127582778 
! Gamma         0                0                0                0                
! Port Impedance         50               0                50               0                
30.2                           0.342870326765637 71.0668432322948 0.861929987853531 -12.4700718774822 0.861929987853531 -12.4700718774822 0.342755607412494 71.117021950433  
! Gamma         0                0                0                0                
! Port Impedance         50               0                50               0                
30.3                           0.352762755239935 70.022914214346  0.858334050011221 -13.7642789240655 0.858334050011221 -13.7642789240655 0.352651329042031 70.0680760908573 
! Gamma         0                0                0                0                
! Port Impedance         50               0                50               0                
30.4                           0.362396217881686 68.9749302185792 0.854727840665372 -15.0483485736409 0.854727840665372 -15.0483485736409 0.362287817341514 69.0153760072433 
! Gamma         0                0                0                0                
! Port Impedance         50               0                50               0                
30.5                           0.37176851621708 67.9243774727019 0.851119408325051 -16.3222756311925 0.851119408325051 -16.3222756311925 0.371662895370878 67.9603767065626 
! Gamma         0                0                0                0                
! Port Impedance         50               0                50               0                
30.6                           0.380877996398375 66.8725287776524 0.847516580210983 -17.5860806852528 0.847516580210983 -17.5860806852528 0.380774928021003 66.9043235745529 
! Gamma         0                0                0                0                
! Port Impedance         50               0                50               0                
30.7                           0.389723504032218 65.8204737746769 0.843926947206649 -18.8398091282284 0.843926947206649 -18.8398091282284 0.389622777267824 65.8482820712533 
! Gamma         0                0                0                0                
! Port Impedance         50               0                50               0                
30.8                           0.398304340449676 64.7691439736462 0.840357851639457 -20.0835301433411 0.840357851639457 -20.0835301433411 0.398205758791202 64.7931622857966 
! Gamma         0                0                0                0                
! Port Impedance         50               0                50               0                
30.9                           0.406620220355448 63.7193336059106 0.836816377740459 -21.3173356698555 0.836816377740459 -21.3173356698554 0.40652359991154 63.7397393948338 
! Gamma         0                0                0                0                
! Port Impedance         50               0                50               0                
31                             0.414671230844878 62.6717171232504 0.833309344614213 -22.5413393573694 0.833309344614213 -22.5413393573694 0.414576398844765 62.6886708312294 
! Gamma         0                0                0                0                
! Port Impedance         50               0                50               0                
31.1                           0.422457791807053 61.6268639825862 0.82984330153813 -23.7556755190192 0.82984330153813 -23.7556755190192 0.422364585303407 61.6405107908695 
! Gamma         0                0                0                0                
! Port Impedance         50               0                50               0                
31.2                           0.429980617747117 60.5852512181414 0.826424525402437 -24.960498092495 0.826424525402437 -24.960498092495 0.429888882484309 60.5957225698423 
! Gamma         0                0                0                0                
! Port Impedance         50               0                50               0                
31.3                           0.437240681065171 59.5472741972977 0.823059020097552 -26.1559796168136 0.823059020097552 -26.1559796168136 0.437150270486255 59.5546891206748 
! Gamma         0                0                0                0                
! Port Impedance         50               0                50               0                
31.4                           0.444239176826553 58.5132558752102 0.819752517654456 -27.3423102318516 0.819752517654457 -27.3423102318516 0.444149951196987 58.5177221365967 
! Gamma         0                0                0                0                
! Port Impedance         50               0                50               0                
31.5                           0.450977489050963 57.4834548003497 0.816510480945347 -28.5196967067332 0.816510480945348 -28.5196967067332 0.450889314680881 57.4850699110563 
! Gamma         0                0                0                0                
! Port Impedance         50               0                50               0                
31.6                           0.457457158537973 56.4580720740805 0.813338107755908 -29.6883615022899 0.81333810775591 -29.6883615022899 0.457369907087832 56.4569241715773 
! Gamma         0                0                0                0                
! Port Impedance         50               0                50               0                
31.7                           0.463679852234986 55.437257428904  0.810240336046475 -30.8485418719817 0.810240336046476 -30.8485418719818 0.463593400091921 55.4334260492896 
! Gamma         0                0                0                0                
! Port Impedance         50               0                50               0                
31.8                           0.469647334141842 54.4211145596346 0.807221850226906 -32.0004890048909 0.807221850226907 -32.0004890048909 0.469561561856025 54.4146713156917 
! Gamma         0                0                0                0                
! Port Impedance         50               0                50               0                
31.9                           0.475361437734516 53.409705817693  0.804287088278604 -33.1444672136814 0.804287088278606 -33.1444672136814 0.475276229506517 53.4007149945905 
! Gamma         0                0                0                0                
! Port Impedance         50               0                50               0                
32                             0.480824039879366 52.4030563595018 0.801440249566598 -34.2807531697517 0.801440249566599 -34.2807531697517 0.480739283090793 52.3915754383431 
! Gamma         0                0                0                0                
! Port Impedance         50               0                50               0                
32.1                           0.486037036199266 51.4011578245852 0.798685303194563 -35.4096351872087 0.798685303194565 -35.4096351872088 0.485952620980127 51.3872379424496 
! Gamma         0                0                0                0                
! Port Impedance         50               0                50               0                
32.2                           0.491002317844073 50.4039716065958 0.79602599676589 -36.5314125567423 0.796025996765892 -36.5314125567424 0.490918136671186 50.3876579604204 
! Gamma         0                0                0                0                
! Port Impedance         50               0                50               0                
32.3                           0.495721749610234 49.4114317704798 0.793465865424106 -37.6463949299971 0.793465865424108 -37.6463949299971 0.495637696931763 49.3927639710326 
! Gamma         0                0                0                0                
! Port Impedance         50               0                50               0                
32.4                           0.500197149347953 48.4234476608716 0.791008241056014 -38.7549017546012 0.791008241056016 -38.7549017546012 0.500113121229783 48.4024600421381 
! Gamma         0                0                0                0                
! Port Impedance         50               0                50               0                
32.5                           0.504430268589279 47.4399062401868 0.788656261550631 -39.8572617596337 0.788656261550633 -39.8572617596337 0.504346162379452 47.416628128705  
! Gamma         0                0                0                0                
! Port Impedance         50               0                50               0                
32.6                           0.508422774326615 46.4606741894734 0.786412880016188 -40.9538124909783 0.78641288001619 -40.9538124909783 0.50833848833446 46.4351301374746 
! Gamma         0                0                0                0                
! Port Impedance         50               0                50               0                
32.7                           0.512176231868458 45.4855998006469 0.784280873866158 -42.0448998957204 0.78428087386616 -42.0448998957205 0.512091665055406 45.4578097862789 
! Gamma         0                0                0                0                
! Port Impedance         50               0                50               0                
32.8                           0.515692088697562 44.5145146850911 0.78226285369324 -43.1308779544965 0.782262853693242 -43.1308779544965 0.515607140376909 44.484494282497  
! Gamma         0                0                0                0                
! Port Impedance         50               0                50               0                
32.9                           0.518971659256103 43.5472353206137 0.780361271857512 -44.2121083604901 0.780361271857514 -44.2121083604901 0.518886228799212 43.5149958421993 
! Gamma         0                0                0                0                
! Port Impedance         50               0                50               0                
33                             0.522016110582692 42.5835644562863 0.778578430721528 -45.2889602435827 0.77857843072153 -45.2889602435828 0.521930097129304 42.5491130691214 
! Gamma         0                0                0                0                
! Port Impedance         50               0                50               0                
33.1                           0.524826448727196 41.6232923926836 0.776916490470831 -46.3618099380141 0.776916490470834 -46.3618099380141 0.524739750897643 41.5866322106399 
! Gamma         0                0                0                0                
! Port Impedance         50               0                50               0                
33.2                           0.52740350587116 40.6661981533948 0.775377476463381 -47.431040791765 0.775377476463384 -47.431040791765 0.52731602147838 40.6273283063119 
! Gamma         0                0                0                0                
! Port Impedance         50               0                50               0                
33.3                           0.529747928084125 39.7120505623591 0.77396328605553 -48.4970430157611 0.773963286055532 -48.4970430157611 0.529659553843441 39.6709662432517 
! Gamma         0                0                0                0                
! Port Impedance         50               0                50               0                
33.4                           0.531860163649291 38.7606092405271 0.772675694855601 -49.5602135708883 0.772675694855603 -49.5602135708883 0.531770794883936 38.717301731586  
! Gamma         0                0                0                0                
! Port Impedance         50               0                50               0                
33.5                           0.533740451895649 37.8116255345461 0.771516362358755 -50.6209560907118 0.771516362358758 -50.6209560907119 0.533649982236036 37.766082212445  
! Gamma         0                0                0                0                
! Port Impedance         50               0                50               0                
33.6                           0.535388812477967 36.8648433895794 0.770486836918729 -51.6796808377007 0.770486836918732 -51.6796808377007 0.535297133552652 36.8170477103679 
! Gamma         0                0                0                0                
! Port Impedance         50               0                50               0                
33.7                           0.536805035050749 35.9200001779794 0.769588560013176 -52.7368046906631 0.769588560013178 -52.7368046906631 0.536712036167002 35.8699316416221 
! Gamma         0                0                0                0                
! Port Impedance         50               0                50               0                
33.8                           0.537988669287587 34.9768274953387 0.768822869759872 -53.7927511610068 0.768822869759874 -53.7927511610069 0.537894237099387 34.9244615897393 
! Gamma         0                0                0                0                
! Port Impedance         50               0                50               0                
33.9                           0.538939015203111 34.0350519354247 0.76819100364084 -54.8479504353305 0.768191003640842 -54.8479504353305 0.538843033364258 33.9803600595565 
! Gamma         0                0                0                0                
! Port Impedance         50               0                50               0                
34                             0.539655113741101 33.0943958556711 0.767694100390662 -55.9028394417412 0.767694100390665 -55.9028394417413 0.539557462541007 33.037345221209  
! Gamma         0                0                0                0                
! Port Impedance         50               0                50               0                
34.1                           0.540135737599273 32.1545781452544 0.767333201003873 -56.9578619371624 0.767333201003876 -56.9578619371625 0.540036293578798 32.0951316558717 
! Gamma         0                0                0                0                
! Port Impedance         50               0                50               0                
34.2                           0.54037938226884 31.2153150083317 0.767109248814406 -58.0134686127469 0.767109248814409 -58.013468612747 0.540278017813323 31.1534311155798 
! Gamma         0                0                0                0                
! Port Impedance         50               0                50               0                
34.3                           0.540384257275276 30.2763207757809 0.76702308859764 -59.0701172143433 0.767023088597643 -59.0701172143434 0.54028084018164 30.2119533102041 
! Gamma         0                0                0                0                
! Port Impedance         50               0                50               0                
34.4                           0.540148277615823 29.3373087597722 0.767075464642725 -60.1282726747619 0.767075464642727 -60.128272674762 0.540042670630341 29.2704067356277 
! Gamma         0                0                0                0                
! Port Impedance         50               0                50               0                
34.5                           0.53966905539933 28.397992166755  0.767267017739614 -61.1884072543633 0.767267017739616 -61.1884072543634 0.539561115722255 28.3284995583905 
! Gamma         0                0                0                0                
! Port Impedance         50               0                50               0                
34.6                           0.538943891705095 27.4580850859824 0.76759828102164 -62.2510006862309 0.767598281021643 -62.251000686231 0.538833470457938 27.385940573577  
! Gamma         0                0                0                0                
! Port Impedance         50               0                50               0                
34.7                           0.537969768689639 26.517303572572  0.768069674600644 -63.3165403218889 0.768069674600646 -63.3165403218891 0.537856710340374 26.4424402545559 
! Gamma         0                0                0                0                
! Port Impedance         50               0                50               0                
34.8                           0.536743341983938 25.5753668463623 0.76868149892766 -64.3855212731901 0.768681498927662 -64.3855212731902 0.536627483724858 25.497711915389  
! Gamma         0                0                0                0                
! Port Impedance         50               0                50               0                
34.9                           0.535260933438793 24.6319986305349 0.76943392680814 -65.4584465456086 0.769433926808142 -65.4584465456088 0.535142104511013 24.5514730093797 
! Gamma         0                0                0                0                
! Port Impedance         50               0                50               0                
35                             0.533518524292842 23.686928657214  0.770326993996669 -66.5358271577432 0.770326993996671 -66.5358271577433 0.533396545250687 23.6034465903986 
! Gamma         0                0                0                0                
! Port Impedance         50               0                50               0                
35.1                           0.531511748856558 22.7398943711196 0.771360588292395 -67.6181822413446 0.771360588292398 -67.6181822413447 0.53138643076414 22.6533629674063 
! Gamma         0                0                0                0                
! Port Impedance         50               0                50               0                
35.2                           0.529235888826543 21.7906428669715 0.772534437052987 -68.706039115642 0.772534437052988 -68.7060391156421 0.529107032377713 21.7009615871054 
! Gamma         0                0                0                0                
! Port Impedance         50               0                50               0                
35.3                           0.526685868367972 20.8389331018472 0.773848093042129 -69.799933329139 0.773848093042131 -69.7999333291392 0.526553262919567 20.7459931850457 
! Gamma         0                0                0                0                
! Port Impedance         50               0                50               0                
35.4                           0.523856250129208 19.8845384302983 0.775300918523621 -70.9004086613877 0.775300918523624 -70.9004086613879 0.523719672635993 19.7882222519531 
! Gamma         0                0                0                0                
! Port Impedance         50               0                50               0                
35.5                           0.520741232382009 18.9272495179323 0.776892067514281 -72.0080170765235 0.776892067514283 -72.0080170765236 0.520600446219901 18.8274298697858 
! Gamma         0                0                0                0                
! Port Impedance         50               0                50               0                
35.6                           0.51733464751351 17.9668776986813 0.778620466108439 -73.1233186195536 0.778620466108442 -73.1233186195538 0.517189401175556 17.8634169813222 
! Gamma         0                0                0                0                
! Port Impedance         50               0                50               0                
35.7                           0.513629962132773 17.0032588524572 0.780484790789307 -74.2468812455413 0.780484790789309 -74.2468812455414 0.513479987779791 16.8960081683067 
! Gamma         0                0                0                0                
! Port Impedance         50               0                50               0                
35.8                           0.509620279095577 16.0362578937969 0.782483444647129 -75.3792805709114 0.782483444647131 -75.3792805709115 0.509465290940344 15.9250560267823 
! Gamma         0                0                0                0                
! Port Impedance         50               0                50               0                
35.9                           0.505298341796697 15.065773979028  0.784614531431634 -76.5210995351397 0.784614531431636 -76.5210995351398 0.5051380342969  14.9504462447854 
! Gamma         0                0                0                0                
! Port Impedance         50               0                50               0                
36                             0.500656541129759 14.0917465601714 0.786875827377178 -77.6729279600653 0.786875827377179 -77.6729279600654 0.500490586960529 13.9721035078179 
! Gamma         0                0                0                0                
! Port Impedance         50               0                50               0                
36.1                           0.495686925571422 13.1141624392272 0.789264750753875 -78.8353619930137 0.789264750753877 -78.8353619930138 0.495514973342935 12.9899983823853 
! Gamma         0                0                0                0                
! Port Impedance         50               0                50               0                
36.2                           0.490381214909814 12.1330640079027 0.791778329117826 -80.0090034188337 0.791778329117828 -80.0090034188338 0.490202886588962 12.0041553586257 
! Gamma         0                0                0                0                
! Port Impedance         50               0                50               0                
36.3                           0.484730818207729 11.1485588968926 0.79441316425878 -81.1944588248715 0.794413164258782 -81.1944588248716 0.484545706194925 11.0146622712761 
! Gamma         0                0                0                0                
! Port Impedance         50               0                50               0                
36.4                           0.478726856670027 10.1608313076398 0.797165394875419 -82.3923386018346 0.79716539487542 -82.3923386018348 0.478534520472518 10.0216813660125 
! Gamma         0                0                0                0                
! Port Impedance         50               0                50               0                
36.5                           0.472360192173432 9.17015536095508 0.800030657047616 -83.6032557624886 0.800030657047617 -83.6032557624887 0.472160154604422 9.02546233838459 
! Gamma         0                0                0                0                
! Port Impedance         50               0                50               0                
36.6                           0.465621462317084 8.17691087473222 0.803004042622615 -84.8278245592032 0.803004042622616 -84.8278245592033 0.465413205135161 8.02635774884571 
! Gamma         0                0                0                0                
! Port Impedance         50               0                50               0                
36.7                           0.458501122966518 7.18160208234366 0.806080055689021 -86.0666588805799 0.806080055689022 -86.06665888058  0.45828408185123 7.02484131476621 
! Gamma         0                0                0                0                
! Port Impedance         50               0                50               0                
36.8                           0.450989499395314 6.18487993102848 0.809252567379872 -87.3203704067989 0.809252567379872 -87.3203704067989 0.450763058131473 6.02152970558946 
! Gamma         0                0                0                0                
! Port Impedance         50               0                50               0                
36.9                           0.443076847282686 5.18756876504608 0.812514769324553 -88.5895665029977 0.812514769324554 -88.5895665029978 0.442840330996558 5.01720862967586 
! Gamma         0                0                0                0                
! Port Impedance         50               0                50               0                
37                             0.434753425008731 4.19069841446834 0.81585912616002 -89.8748478300022 0.81585912616002 -89.8748478300023 0.434506092261893 4.01286421361403 
! Gamma         0                0                0                0                
! Port Impedance         50               0                50               0                
37.1                           0.426009578912397 3.19554299508869 0.819277327614835 -91.1768056521739 0.819277327614835 -91.176805652174 0.425750612411273 3.009720954519   
! Gamma         0                0                0                0                
! Port Impedance         50               0                50               0                
37.2                           0.416835843455819 2.20366810306269 0.822760240795571 -92.4960188231155 0.822760240795572 -92.4960188231155 0.416564339073392 2.00928789784968 
! Gamma         0                0                0                0                
! Port Impedance         50               0                50               0                
37.3                           0.407223058595377 1.21698859493969 0.826297863433521 -93.8330504315953 0.826297863433521 -93.8330504315954 0.406938012321778 1.01341519262002 
! Gamma         0                0                0                0                
! Port Impedance         50               0                50               0                
37.4                           0.397162507128563 0.237839830200356 0.829879278989936 -95.1884440924423 0.829879278989937 -95.1884440924424 0.396862799462997 0.0243638526837081 
! Gamma         0                0                0                0                
! Port Impedance         50               0                50               0                
37.5                           0.386646075417831 -0.730933807828472 0.833492614668353 -96.5627198704486 0.833492614668352 -96.5627198704486 0.38633045257692 -0.955107520465877 
! Gamma         0                0                0                0                
! Port Impedance         50               0                50               0                
37.6                           0.37566644176513 -1.6858679993728 0.837125003540627 -97.9563698296326 0.837125003540627 -97.9563698296326 0.375333492900357 -1.92163401520459 
! Gamma         0                0                0                0                
! Port Impedance         50               0                50               0                
37.7                           0.364217297941874 -2.62273825743102 0.840762552155422 -99.3698532056883 0.840762552155423 -99.3698532056884 0.363865427314398 -2.87110685379799 
! Gamma         0                0                0                0                
! Port Impedance         50               0                50               0                
37.8                           0.352293611149665 -3.53638088859959 0.844390315159134 -100.803591206197 0.844390315159135 -100.803591206197 0.351921003880454 -3.79849762542712 
! Gamma         0                0                0                0                
! Port Impedance         50               0                50               0                
37.9                           0.339891936279038 -4.42046198557422 0.847992278613391 -102.257961451311 0.847992278613392 -102.257961451311 0.339496515841758 -4.69763128169133 
! Gamma         0                0                0                0                
! Port Impedance         50               0                50               0                
38                             0.327010792190062 -5.26717597041112 0.851551353832228 -103.733292077198 0.851551353832228 -103.733292077198 0.326590167194134 -5.56088956370306 
! Gamma         0                0                0                0                
! Port Impedance         50               0                50               0                
38.1                           0.313651121567269 -6.06684738759975 0.855049383676436 -105.229855535596 0.855049383676436 -105.229855535596 0.313202518517639 -6.37881871122864 
! Gamma         0                0                0                0                
! Port Impedance         50               0                50               0                
38.2                           0.29981686284886 -6.80739799095829 0.858467163321198 -106.747862135333 0.858467163321197 -106.747862135333 0.299337040363954 -7.13960361060407 
! Gamma         0                0                0                0                
! Port Impedance         50               0                50               0                
38.3                           0.28551567668742 -7.47362354551577 0.861784477543477 -108.287453385516 0.861784477543477 -108.287453385516 0.285000814958427 -7.82835278278348 
! Gamma         0                0                0                0                
! Port Impedance         50               0                50               0                
38.4                           0.270759891543398 -8.04619772955393 0.864980156544123 -109.848695215093 0.864980156544124 -109.848695215093 0.270205448414364 -8.42611123496202 
! Gamma         0                0                0                0                
! Port Impedance         50               0                50               0                
38.5                           0.255567768785742 -8.50027845606084 0.868032152212211 -111.431571159311 0.868032152212211 -111.431571159311 0.254968290434787 -8.90847533272886 
! Gamma         0                0                0                0                
! Port Impedance         50               0                50               0                
38.6                           0.239965246588942 -8.80352564426011 0.870917636541951 -113.035975619867 0.870917636541953 -113.035975619867 0.239314116031953 -9.24361575937308 
! Gamma         0                0                0                0                
! Port Impedance         50               0                50               0                
38.7                           0.223988420925289 -8.91323401396611 0.87361312361297 -114.661707321646 0.87361312361297 -114.661707321646 0.223277521092918 -9.389405170571  
! Gamma         0                0                0                0                
! Port Impedance         50               0                50               0                
38.8                           0.207687191789432 -8.7721162391158 0.876094616132908 -116.30846310425 0.876094616132908 -116.30846310425 0.206906451757289 -9.28917003251884 
! Gamma         0                0                0                0                
! Port Impedance         50               0                50               0                
38.9                           0.191130799799458 -8.30200649150996 0.878337777011032 -117.975832200188 0.878337777011031 -117.975832200188 0.190267584413731 -8.86530095736872 
! Gamma         0                0                0                0                
! Port Impedance         50               0                50               0                
39                             0.174416505529747 -7.3943541788721 0.880318125782109 -119.663291162723 0.88031812578211 -119.663291162723 0.173454806772767 -8.00951081685255 
! Gamma         0                0                0                0                
! Port Impedance         50               0                50               0                
39.1                           0.157683603449817 -5.89585067476099 0.882011258937842 -121.370199613993 0.882011258937842 -121.370199613993 0.156603018620664 -6.56790174816244 
! Gamma         0                0                0                0                
! Port Impedance         50               0                50               0                
39.2                           0.141136598833694 -3.58714673272622 0.883393092363052 -123.095796987097 0.883393092363052 -123.095796987097 0.13991120388122 -4.31839375967937 
! Gamma         0                0                0                0                
! Port Impedance         50               0                50               0                
39.3                           0.125083968651742 -0.153700341695295 0.884440123139875 -124.839200433452 0.884440123139876 -124.839200433452 0.123681609138639 -0.938699598758193 
! Gamma         0                0                0                0                
! Port Impedance         50               0                50               0                
39.4                           0.11000174858214 4.84469029872863 0.885129707009031 -126.59940405796 0.885129707009031 -126.59940405796 0.108385471982278 4.03009483772005 
! Gamma         0                0                0                0                
! Port Impedance         50               0                50               0                
39.5                           0.0966281852994113 11.9702879278389 0.885440346806007 -128.375279628801 0.885440346806008 -128.375279628801 0.0947644264336912 11.1898703252055 
! Gamma         0                0                0                0                
! Port Impedance         50               0                50               0                
39.6                           0.0860623456247717 21.7581241074147 0.885351986272807 -130.165578885558 0.885351986272807 -130.165578885558 0.083944575346676 21.1419510259983 
! Gamma         0                0                0                0                
! Port Impedance         50               0                50               0                
39.7                           0.079725090578541 34.232646452031  0.884846302839448 -131.968937538918 0.884846302839449 -131.968937538918 0.0774155418398448 33.9678996283459 
! Gamma         0                0                0                0                
! Port Impedance         50               0                50               0                
39.8                           0.0789079102437226 48.2274175183545 0.883906992332663 -133.783881017809 0.883906992332664 -133.783881017809 0.0765578823732631 48.4424790528667 
! Gamma         0                0                0                0                
! Port Impedance         50               0                50               0                
39.9                           0.0839833644238413 61.572681390124  0.882520038158846 -135.608831976397 0.882520038158847 -135.608831976397 0.081767462945922 62.2046695433865 
! Gamma         0                0                0                0                
! Port Impedance         50               0                50               0                
40                             0.0941539823553905 72.5467157395108 0.880673957374052 -137.442119525311 0.880673957374052 -137.442119525311 0.0921751200249937 73.408466189437  
! Gamma         0                0                0                0                
! Port Impedance         50               0                50               0                
40.1                           0.108088020810876 80.7216731939856 0.878360016233065 -139.281990100591 0.878360016233066 -139.281990100591 0.106364427150224 81.6528386903834 
! Gamma         0                0                0                0                
! Port Impedance         50               0                50               0                
40.2                           0.124582115458874 86.4941568507799 0.875572408323191 -141.126619832368 0.875572408323191 -141.126619832368 0.123088183499177 87.4076500241896 
! Gamma         0                0                0                0                
! Port Impedance         50               0                50               0                
40.3                           0.142769332921692 90.4489906879169 0.872308389236362 -142.974128225634 0.872308389236363 -142.974128225634 0.141468195103106 91.3092402411578 
! Gamma         0                0                0                0                
! Port Impedance         50               0                50               0                
40.4                           0.162070022584796 93.0855892033946 0.868568362893327 -144.822592920186 0.868568362893328 -144.822592920186 0.160927246589023 93.8828072138209 
! Gamma         0                0                0                0                
! Port Impedance         50               0                50               0                
40.5                           0.182097445241182 94.7710990093562 0.864355916060653 -146.670065258336 0.864355916060655 -146.670065258336 0.181084601214755 95.5064555420267 
! Gamma         0                0                0                0                
! Port Impedance         50               0                50               0                
40.6                           0.202585566665968 95.7634838752189 0.859677799229434 -148.514586359514 0.859677799229434 -148.514586359514 0.201680131014782 96.4421470234163 
! Gamma         0                0                0                0                
! Port Impedance         50               0                50               0                
40.7                           0.223343362435248 96.2429759531685 0.854543853771553 -150.35420338205 0.854543853771553 -150.35420338205 0.222527673660561 96.871124483436  
! Gamma         0                0                0                0                
! Port Impedance         50               0                50               0                
40.8                           0.244227415476012 96.3368432039243 0.848966887062464 -152.186985645417 0.848966887062465 -152.186985645417 0.24348758520203 96.920474046328  
! Gamma         0                0                0                0                
! Port Impedance         50               0                50               0                
40.9                           0.265125598976579 96.1365022237205 0.842962498962793 -154.011040291421 0.842962498962794 -154.011040291421 0.264450612398057 96.6810129072467 
! Gamma         0                0                0                0                
! Port Impedance         50               0                50               0                
41                             0.285947253140793 95.7088878766788 0.836548864593274 -155.8245271799  0.836548864593274 -155.8245271799  0.285328279456077 96.2189822957438 
! Gamma         0                0                0                0                
! Port Impedance         50               0                50               0                
41.1                           0.30661716458572 95.1039601742448 0.829746479638911 -157.625672742512 0.82974647963891 -157.625672742511 0.306047042020135 95.5836815244216 
! Gamma         0                0                0                0                
! Port Impedance         50               0                50               0                
41.2                           0.327071798765269 94.3596982122233 0.822577875416967 -159.412782555427 0.822577875416967 -159.412782555427 0.326544652389625 94.8125050210626 
! Gamma         0                0                0                0                
! Port Impedance         50               0                50               0                
41.3                           0.347256887035174 93.505467474167  0.815067311599685 -161.184252436178 0.815067311599684 -161.184252436178 0.346767844345251 93.9343176511539 
! Gamma         0                0                0                0                
! Port Impedance         50               0                50               0                
41.4                           0.367125838969254 92.5643266840788 0.807240454780437 -162.938577919036 0.807240454780435 -162.938577919036 0.366670816714815 92.9717559068763 
! Gamma         0                0                0                0                
! Port Impedance         50               0                50               0                
41.5                           0.386638662038732 91.554634624635  0.799124051019573 -164.674362014696 0.799124051019574 -164.674362014696 0.386214205000576 91.9428246258016 
! Gamma         0                0                0                0                
! Port Impedance         50               0                50               0                
41.6                           0.405761194383218 90.4911879962479 0.790745600132141 -166.39032121115 0.79074560013214 -166.39032121115 0.405364352235226 90.8620241846782 
! Gamma         0                0                0                0                
! Port Impedance         50               0                50               0                
41.7                           0.424464530304153 89.3860402588528 0.782133038830679 -168.085289721222 0.782133038830679 -168.085289721222 0.424092762622154 89.7411596007032 
! Gamma         0                0                0                0                
! Port Impedance         50               0                50               0                
41.8                           0.442724563317857 88.2491001335734 0.773314438970392 -169.758222026492 0.773314438970392 -169.758222026492 0.442375665582174 88.5899306698404 
! Gamma         0                0                0                0                
! Port Impedance         50               0                50               0                
41.9                           0.46052159985276 87.0885756681237 0.764317726126077 -171.40819380567 0.764317726126076 -171.40819380567 0.460193645259585 87.4163690640487 
! Gamma         0                0                0                0                
! Port Impedance         50               0                50               0                
42                             0.477840014643446 85.9113085288526 0.755170422626006 -173.034401367048 0.755170422626006 -173.034401367048 0.477531307934536 86.2271669045217 
! Gamma         0                0                0                0                
! Port Impedance         50               0                50               0                
42.1                           0.494667930448365 84.7230292159356 0.74589941803966 -174.636159728856 0.745899418039659 -174.636159728856 0.494376970962306 85.0279273166052 
! Gamma         0                0                0                0                
! Port Impedance         50               0                50               0                
42.2                           0.510996912213717 83.5285545819904 0.736530769018453 -176.212899508188 0.736530769018451 -176.212899508188 0.51072236407575 83.8233581602475 
! Gamma         0                0                0                0                
! Port Impedance         50               0                50               0                
42.3                           0.526821670639758 82.3319427328606 0.72708952936644 -177.764162788922 0.727089529366439 -177.764162788922 0.526562338524329 82.6174238507693 
! Gamma         0                0                0                0                
! Port Impedance         50               0                50               0                
42.4                           0.542139773168223 81.1366160701229 0.717599610304988 -179.289598142353 0.717599610304987 -179.289598142353 0.541894582446605 81.4134658922858 
! Gamma         0                0                0                0                
! Port Impedance         50               0                50               0                
42.5                           0.556951362278016 79.9454602374348 0.708083670113995 179.211045028043 0.708083670113996 179.211045028043 0.556719342642476 80.2142997739715 
! Gamma         0                0                0                0                
! Port Impedance         50               0                50               0                
42.6                           0.571258882034731 78.7609046285674 0.698563031694039 177.737922653308 0.698563031694038 177.737922653308 0.571039153898547 79.0222937969723 
! Gamma         0                0                0                0                
! Port Impedance         50               0                50               0                
42.7                           0.585066814351057 77.5849886219324 0.68905762610119 176.291102523416 0.689057626101189 176.291102523416 0.584858577479879 77.8394339248533 
! Gamma         0                0                0                0                
! Port Impedance         50               0                50               0                
42.8                           0.598381426562971 76.4194166366726 0.679585959753702 174.870571028992 0.6795859597537  174.870571028992 0.598183950511341 76.6673776953701 
! Gamma         0                0                0                0                
! Port Impedance         50               0                50               0                
42.9                           0.611210531841134 75.2656043320195 0.670165102786306 173.476239995052 0.670165102786305 173.476239995052 0.611023147858323 75.5074994696695 
! Gamma         0                0                0                0                
! Port Impedance         50               0                50               0                
43                             0.623563263730611 74.124717707869  0.660810695918389 172.107953497485 0.66081069591839 172.107953497485 0.623385357869467 74.3609287405256 
! Gamma         0                0                0                0                
! Port Impedance         50               0                50               0                
43.1                           0.635449865811068 72.9977064503765 0.651536973189581 170.765494569299 0.651536973189579 170.765494569299 0.635280873027452 73.2285828143817 
! Gamma         0                0                0                0                
! Port Impedance         50               0                50               0                
43.2                           0.646881497140023 71.885332559888  0.642356797982221 169.448591719537 0.642356797982221 169.448591719538 0.646720896212432 72.1111948812513 
! Gamma         0                0                0                0                
! Port Impedance         50               0                50               0                
43.3                           0.657870053815199 70.7881950700858 0.633281709877164 168.156925202946 0.633281709877164 168.156925202946 0.657717362947157 71.0093382626577 
! Gamma         0                0                0                0                
! Port Impedance         50               0                50               0                
43.4                           0.668428006688872 69.7067514957645 0.624321980060675 166.890132992471 0.624321980060674 166.890132992471 0.668282779682697 69.923447459934  
! Gamma         0                0                0                0                
! Port Impedance         50               0                50               0                
43.5                           0.678568254999718 68.6413365170012 0.615486673201372 165.647816419394 0.615486673201373 165.647816419394 0.678430077910961 68.8538364984232 
! Gamma         0                0                0                0                
! Port Impedance         50               0                50               0                
43.6                           0.688303995462256 67.5921783087168 0.606783713934182 164.429545457183 0.606783713934181 164.429545457183 0.688172483660556 67.8007149666339 
! Gamma         0                0                0                0                
! Port Impedance         50               0                50               0                
43.7                           0.697648606172412 66.5594128487677 0.59821995631277 163.234863634913 0.59821995631277 163.234863634913 0.697523401747735 66.7642020753695 
! Gamma         0                0                0                0                
! Port Impedance         50               0                50               0                
43.8                           0.70661554454884 65.5430964789421 0.58980125481459 162.063292574482 0.58980125481459 162.063292574482 0.706496314012697 65.7443390045506 
! Gamma         0                0                0                0                
! Port Impedance         50               0                50               0                
43.9                           0.715218258430569 64.5432169472709 0.581532535696777 160.914336152745 0.581532535696779 160.914336152745 0.715104690670394 64.7410997606639 
! Gamma         0                0                0                0                
! Port Impedance         50               0                50               0                
44                             0.723470109387685 63.5597031237646 0.573417867702461 159.787484295377 0.573417867702462 159.787484295377 0.723361913839528 63.7544007324209 
! Gamma         0                0                0                0                
! Port Impedance         50               0                50               0                
44.1                           0.731384307268692 62.5924335526914 0.565460531302221 158.682216413724 0.565460531302221 158.682216413724 0.731281212279066 62.7841091039904 
! Gamma         0                0                0                0                
! Port Impedance         50               0                50               0                
44.2                           0.738973855000554 61.6412439811073 0.557663085822769 157.598004499314 0.557663085822769 157.598004499314 0.738875606352925 61.8300502623905 
! Gamma         0                0                0                0                
! Port Impedance         50               0                50               0                
44.3                           0.746251502670723 60.7059339842242 0.550027433963721 156.534315893226 0.550027433963722 156.534315893226 0.746157862255939 60.8920143170153 
! Gamma         0                0                0                0                
! Port Impedance         50               0                50               0                
44.4                           0.753229709949952 59.7862727924029 0.54255488333336 155.490615749199 0.542554883333361 155.490615749199 0.753140454563058 59.9697618338969 
! Gamma         0                0                0                0                
! Port Impedance         50               0                50               0                
44.5                           0.759920615956458 58.882004411352  0.535246204746602 154.46636921044  0.535246204746603 154.46636921044  0.75983553620494 59.0630288744425 
! Gamma         0                0                0                0                
! Port Impedance         50               0                50               0                
44.6                           0.766336015712604 57.9928521159635 0.528101687123569 153.461043320563 0.52810168712357 153.461043320564 0.766254915023272 58.171531417523  
! Gamma         0                0                0                0                
! Port Impedance         50               0                50               0                
44.7                           0.772487342401494 57.1185223886985 0.521121188906828 152.474108689168 0.521121188906829 152.474108689169 0.772410036115004 57.2949692345142 
! Gamma         0                0                0                0                
! Port Impedance         50               0                50               0                
44.8                           0.77838565469052 56.2587083652483 0.51430418598093 151.505040932233 0.514304185980931 151.505040932233 0.778311969234049 56.4330292788953 
! Gamma         0                0                0                0                
! Port Impedance         50               0                50               0                
44.9                           0.784041628449695 55.4130928430865 0.507649816130719 150.553321906946 0.50764981613072 150.553321906946 0.78397140057954 55.5853886450727 
! Gamma         0                0                0                0                
! Port Impedance         50               0                50               0                
45                             0.789465552253128 54.5813509023248 0.501156920116802 149.618440759803 0.501156920116804 149.618440759803 0.789398628360083 54.7517171450257 
! Gamma         0                0                0                0                
! Port Impedance         50               0                50               0                
45.1                           0.794667326111021 53.7631521828228 0.4948240794787  148.699894805858 0.494824079478702 148.699894805858 0.79460356158226 53.9316795460309 
! Gamma         0                0                0                0                
! Port Impedance         50               0                50               0                
45.2                           0.799656462936045 52.9581628566933 0.48864965120026 147.797190255992 0.488649651200261 147.797190255991 0.799595721568035 53.1249375080063 
! Gamma         0                0                0                0                
! Port Impedance         50               0                50               0                
45.3                           0.804442092301502 52.1660473310736 0.482631799388911 146.909842807986 0.482631799388913 146.909842807986 0.804384245759116 52.331151254831  
! Gamma         0                0                0                0                
! Port Impedance         50               0                50               0                
45.4                           0.809032966098672 51.3864697122373 0.476768524131573 146.037378116044 0.476768524131575 146.037378116044 0.808977893416218 51.5499810102711 
! Gamma         0                0                0                0                
! Port Impedance         50               0                50               0                
45.5                           0.813437465747043 50.6190950587487 0.471057687696446 145.179332152316 0.471057687696447 145.179332152316 0.813385052867437 50.7810882258273 
! Gamma         0                0                0                0                
! Port Impedance         50               0                50               0                
45.6                           0.817663610653687 49.8635904483397 0.465497038252482 144.335251472866 0.465497038252483 144.335251472866 0.817613750002388 50.0241366248496 
! Gamma         0                0                0                0                
! Port Impedance         50               0                50               0                
45.7                           0.821719067656764 49.1196258804987 0.460084231277773 143.50469339947  0.460084231277775 143.50469339947  0.821671657747466 49.27879308462   
! Gamma         0                0                0                0                
! Port Impedance         50               0                50               0                
45.8                           0.825611161223227 48.3868750343525 0.454816848825095 142.687226127609 0.454816848825097 142.687226127609 0.825566106292615 48.5447283757273 
! Gamma         0                0                0                0                
! Port Impedance         50               0                50               0                
45.9                           0.829346884202348 47.6650158992671 0.449692416807991 141.882428770052 0.449692416807994 141.882428770052 0.829304093871497 47.8216177759415 
! Gamma         0                0                0                0                
! Port Impedance         50               0                50               0                
46                             0.832932908964909 46.9537312936665 0.44470842046458 141.08989134454  0.444708420464581 141.08989134454  0.832892297925155 47.1091415738912 
! Gamma         0                0                0                0                
! Port Impedance         50               0                50               0                
46.1                           0.836375598783042 46.2527092858467 0.439862318149   140.309214713194 0.439862318149001 140.309214713194 0.836337086504355 46.4069854761517 
! Gamma         0                0                0                0                
! Port Impedance         50               0                50               0                
46.2                           0.839681019327917 45.5616435290193 0.435151553592614 139.540010480528 0.435151553592615 139.540010480528 0.839644529788001 45.7148409298279 
! Gamma         0                0                0                0                
! Port Impedance         50               0                50               0                
46.3                           0.842854950182106 44.8802335214418 0.430573566768754 138.781900856181 0.430573566768757 138.781900856181 0.842820411614624 45.0324053713586 
! Gamma         0                0                0                0                
! Port Impedance         50               0                50               0                
46.4                           0.845902896280683 44.2081848012607 0.426125803486429 138.034518487858 0.426125803486431 138.034518487858 0.845870240941138 44.3593824110512 
! Gamma         0                0                0                0                
! Port Impedance         50               0                50               0                
46.5                           0.848830099210102 43.5452090845961 0.421805723829938 137.297506269314 0.42180572382994 137.297506269314 0.848799263158049 43.6954819617719 
! Gamma         0                0                0                0                
! Port Impedance         50               0                50               0                
46.6                           0.851641548307045 42.891024354411  0.417610809553092 136.570517127701 0.417610809553094 136.570517127701 0.851612471203427 43.0404203192457 
! Gamma         0                0                0                0                
! Port Impedance         50               0                50               0                
46.7                           0.854341991510725 42.2453549068385 0.413538570528575 135.853213794067 0.413538570528578 135.853213794067 0.854314616429223 42.3939202005566 
! Gamma         0                0                0                0                
! Port Impedance         50               0                50               0                
46.8                           0.856935945931921 41.6079313608556 0.40958655034532 135.145268560347 0.409586550345322 135.145268560347 0.856910219183314 41.7557107466664 
! Gamma         0                0                0                0                
! Port Impedance         50               0                50               0                
46.9                           0.859427708110409 40.9784906365007 0.405752331139237 134.446363025785 0.405752331139241 134.446363025785 0.859403579079024 41.125527494084  
! Gamma         0                0                0                0                
! Port Impedance         50               0                50               0                
47                             0.861821363939645 40.3567759062105 0.402033537735715 133.756187835333 0.402033537735718 133.756187835333 0.861798784931051 40.5031123202051 
! Gamma         0                0                0                0                
! Port Impedance         50               0                50               0                
47.1                           0.864120798243621 39.742536523304  0.398427841175578 133.074442412265 0.39842784117558 133.074442412265 0.864099724342792 39.8882133662988 
! Gamma         0                0                0                0                
! Port Impedance         50               0                50               0                
47.2                           0.866329703996007 39.1355279311499 0.394932961690072 132.40083468693  0.394932961690074 132.40083468693  0.866310092935246 39.2805849416321 
! Gamma         0                0                0                0                
! Port Impedance         50               0                50               0                
47.3                           0.868451591175976 38.5355115561207 0.391546671184603 131.735080823308 0.391546671184606 131.735080823308 0.868433403211952 38.6799874117945 
! Gamma         0                0                0                0                
! Port Impedance         50               0                50               0                
47.4                           0.870489795258772 37.94225468705   0.388266795285592 131.0769049448   0.388266795285595 131.0769049448   0.870472993058069 38.0861870739027 
! Gamma         0                0                0                0                
! Port Impedance         50               0                50               0                
47.5                           0.872447485342013 37.3555303435663 0.38509121499982 130.426038860459 0.385091214999822 130.426038860459 0.872432033874647 37.4989560210282 
! Gamma         0                0                0                0                
! Port Impedance         50               0                50               0                
47.6                           0.874327671911208 36.7751171353763 0.382017868031066 129.782221792705 0.38201786803107 129.782221792704 0.8743135383516  36.9180719978868 
! Gamma         0                0                0                0                
! Port Impedance         50               0                50               0                
47.7                           0.876133214249939 36.2007991142957 0.379044749794594 129.145200107376 0.379044749794597 129.145200107376 0.876120367884889 36.3433182495679 
! Gamma         0                0                0                0                
! Port Impedance         50               0                50               0                
47.8                           0.877866827501714 35.6323656205955 0.37616991416614 128.514727046843 0.376169914166143 128.514727046843 0.877855239644941 35.7744833648406 
! Gamma         0                0                0                0                
! Port Impedance         50               0                50               0                
47.9                           0.879531089391772 35.0696111250124 0.373391473998574 127.890562466771 0.373391473998576 127.890562466771 0.87952073330464 35.2113611153708 
! Gamma         0                0                0                0                
! Port Impedance         50               0                50               0                
48                             0.881128446618047 34.5123350675929 0.370707601436052 127.272472577006 0.370707601436054 127.272472577005 0.881119297436103 34.6537502919947 
! Gamma         0                0                0                0                
! Port Impedance         50               0                50               0                
48.1                           0.882661220921175 33.9603416943723 0.368116528052633 126.660229686966 0.368116528052635 126.660229686966 0.88265325558618 34.1014545390339 
! Gamma         0                0                0                0                
! Port Impedance         50               0                50               0                
48.2                           0.884131614843963 33.4134398927446 0.365616544839534 126.053611955825 0.365616544839537 126.053611955825 0.884124812041105 33.5542821874936 
! Gamma         0                0                0                0                
! Port Impedance         50               0                50               0                
48.3                           0.885541717190989 32.8714430262526 0.363206002062815 125.452403147697 0.363206002062817 125.452403147696 0.885536057291004 33.0120460878576 
! Gamma         0                0                0                0                
! Port Impedance         50               0                50               0                
48.4                           0.886893508199205 32.3341687694148 0.360883309011039 124.856392391978 0.360883309011041 124.856392391977 0.886888973205153 32.4745634430832 
! Gamma         0                0                0                0                
! Port Impedance         50               0                50               0                
48.5                           0.888188864430437 31.8014389431039 0.358646933650433 124.265373948928 0.358646933650436 124.265373948927 0.888185437928885 31.9416556423015 
! Gamma         0                0                0                0                
! Port Impedance         50               0                50               0                
48.6                           0.889429563396586 31.2730793509057 0.356495402203266 123.679146980533 0.356495402203268 123.679146980533 0.889427230513007 31.4131480956398 
! Gamma         0                0                0                0                
! Port Impedance         50               0                50               0                
48.7                           0.890617287928233 30.7489196168123 0.354427298663494 123.097515326646 0.354427298663496 123.097515326646 0.890616035286405 30.8888700705099 
! Gamma         0                0                0                0                
! Port Impedance         50               0                50               0                
48.8                           0.891753630297075 30.2287930245309 0.352441264262275 122.520287286358 0.352441264262277 122.520287286358 0.891753445982324 30.3686545296366 
! Gamma         0                0                0                0                
! Port Impedance         50               0                50               0                
48.9                           0.892840096102398 29.7125363586354 0.350535996894561 121.947275404537 0.350535996894563 121.947275404537 0.892840969628499 29.8523379710459 
! Gamma         0                0                0                0                
! Port Impedance         50               0                50               0                
49                             0.893878107931424 29.1999897477326 0.348710250516828 121.378296263425 0.348710250516829 121.378296263425 0.89388003021104 29.3397602701749 
! Gamma         0                0                0                0                
! Port Impedance         50               0                50               0                
49.1                           0.894869008803061 28.6909965097708 0.346962834524874 120.813170279166 0.346962834524874 120.813170279166 0.894871972121577 28.8307645242289 
! Gamma         0                0                0                0                
! Port Impedance         50               0                50               0                
49.2                           0.89581406540418 28.1854029995781 0.345292613119678 120.251721503129 0.345292613119679 120.251721503128 0.895818063396818 28.3251968988647 
! Gamma         0                0                0                0                
! Port Impedance         50               0                50               0                
49.3                           0.896714471127161 27.6830584586832 0.343698504668423 119.693777427858 0.343698504668425 119.693777427858 0.89671949875927 27.822906477248  
! Gamma         0                0                0                0                
! Port Impedance         50               0                50               0                
49.4                           0.897571348917021 27.183814867441  0.342179481067003 119.139168797477 0.342179481067004 119.139168797477 0.897577402467457 27.3237451115044 
! Gamma         0                0                0                0                
! Port Impedance         50               0                50               0                
49.5                           0.898385753936041 26.6875267994584 0.340734567109646 118.587729422348 0.340734567109647 118.587729422348 0.89839283098356 26.8275672765529 
! Gamma         0                0                0                0                
! Port Impedance         50               0                50               0                
49.6                           0.899158676053371 26.1940512782928 0.339362839870677 118.03929599781  0.339362839870677 118.03929599781  0.899166775465954 26.334229926293  
! Gamma         0                0                0                0                
! Port Impedance         50               0                50               0                
49.7                           0.899891042166652 25.7032476363764 0.338063428102841 117.493707926763 0.338063428102841 117.493707926763 0.899900164093727 25.8435923520936 
! Gamma         0                0                0                0                
! Port Impedance         50               0                50               0                
49.8                           0.900583718362308 25.2149773760992 0.336835511656178 116.950807145904 0.336835511656178 116.950807145904 0.900593864229805 25.3555160435156 
! Gamma         0                0                0                0                
! Port Impedance         50               0                50               0                
49.9                           0.90123751192068 24.7291040329723 0.335678320920947 116.410437955381 0.335678320920947 116.410437955381 0.901248684428898 24.8698645511852 
! Gamma         0                0                0                0                
! Port Impedance         50               0                50               0                
50                             0.901853173171809 24.2454930407754 0.334591136297747 115.872446851655 0.334591136297746 115.872446851655 0.901865376296064 24.3865033517226 
! Gamma         0                0                0                0                
! Port Impedance         50               0                50               0                
50.1                           0.902431397207217 23.7640115985848 0.333573287697616 115.336682363324 0.333573287697615 115.336682363324 0.902444636201251 23.9052997146179 
! Gamma         0                0                0                0                
! Port Impedance         50               0                50               0                
50.2                           0.902972825452637 23.284528539564  0.332624154074604 114.802994889694 0.332624154074603 114.802994889695 0.902987106854806 23.4261225709366 
! Gamma         0                0                0                0                
! Port Impedance         50               0                50               0                
50.3                           0.903478047106258 22.806914201395  0.33174316299303 114.271236541845 0.331743162993029 114.271236541846 0.903493378748471 22.9488423837314 
! Gamma         0                0                0                0                
! Port Impedance         50               0                50               0                
50.4                           0.903947600446604 22.3310402982148 0.330929790231422 113.74126098597  0.33092979023142 113.74126098597  0.903963991466062 22.4733310200241 
! Gamma         0                0                0                0                
! Port Impedance         50               0                50               0                
50.5                           0.904381974013824 21.8567797939202 0.33018355942492 113.212923288736 0.330183559424917 113.212923288736 0.90439943486756 21.9994616242199 
! Gamma         0                0                0                0                
! Port Impedance         50               0                50               0                
50.6                           0.904781607667738 21.3840067766948 0.329504041747737 112.686079764431 0.329504041747736 112.686079764432 0.904800150150002 21.5271084928081 
! Gamma         0                0                0                0                
! Port Impedance         50               0                50               0                
50.7                           0.905146893525622 20.9125963346074 0.32889085563716 112.160587823654 0.328890855637158 112.160587823655 0.905166530788164 21.0561469501976 
! Gamma         0                0                0                0                
! Port Impedance         50               0                50               0                
50.8                           0.905478176782335 20.442424432126  0.328343666560356 111.636305823291 0.328343666560353 111.636305823292 0.905498923357622 20.5864532255349 
! Gamma         0                0                0                0                
! Port Impedance         50               0                50               0                
50.9                           0.905775756414989 19.9733677873893 0.327862186825247 111.113092917547 0.327862186825245 111.113092917548 0.905797628242446 20.1179043303416 
! Gamma         0                0                0                0                
! Port Impedance         50               0                50               0                
51                             0.906039885774027 19.5053037500698 0.327446175436512 110.590808909769 0.327446175436508 110.59080890977  0.906062900229359 19.6503779368119 
! Gamma         0                0                0                0                
! Port Impedance         50               0                50               0                
51.1                           0.906270773062166 19.0381101796623 0.327095437997739 110.069314104817 0.327095437997736 110.069314104818 0.906294948989861 19.1837522566025 
! Gamma         0                0                0                0                
! Port Impedance         50               0                50               0                
51.2                           0.906468581702307 18.5716653240277 0.326809826660708 109.548469161718 0.326809826660705 109.548469161719 0.906493939451411 18.7179059199454 
! Gamma         0                0                0                0                
! Port Impedance         50               0                50               0                
51.3                           0.90663343059514 18.1058476980165 0.326589240122634 109.02813494636  0.32658924012263 109.028134946361 0.906659992058428 18.2527178549126 
! Gamma         0                0                0                0                
! Port Impedance         50               0                50               0                
51.4                           0.906765394266793 17.6405359619969 0.32643362367225 108.508172383952 0.326433623672246 108.508172383953 0.906793182923443 17.7880671666569 
! Gamma         0                0                0                0                
! Port Impedance         50               0                50               0                
51.5                           0.906864502906492 17.1756088001062 0.326342969285475 107.988442310989 0.32634296928547 107.98844231099  0.906893543868421 17.3238330164512 
! Gamma         0                0                0                0                
! Port Impedance         50               0                50               0                
51.6                           0.906930742293844 16.7109447980441 0.326317315771448 107.468805326456 0.326317315771442 107.468805326458 0.906961062355833 16.859894500348  
! Gamma         0                0                0                0                
! Port Impedance         50               0                50               0                
51.7                           0.906964053614919 16.2464223202217 0.326356748969589 106.949121642005 0.326356748969584 106.949121642006 0.906995681308714 16.3961305272752 
! Gamma         0                0                0                0                
! Port Impedance         50               0                50               0                
51.8                           0.90696433316597 15.7819193860788 0.326461401998419 106.429250930806 0.326461401998413 106.429250930807 0.906997298818528 15.9324196963834 
! Gamma         0                0                0                0                
! Port Impedance         50               0                50               0                
51.9                           0.906931431943178 15.3173135453778 0.326631455556718 105.909052174818 0.326631455556711 105.90905217482  0.906965767739261 15.46864017346   
! Gamma         0                0                0                0                
! Port Impedance         50               0                50               0                
52                             0.906865155116437 14.852481752283  0.326867138277678 105.38838351017  0.326867138277672 105.388383510172 0.906900895165769 15.0046695662189 
! Gamma         0                0                0                0                
! Port Impedance         50               0                50               0                
52.1                           0.906765261384733 14.3873002380274 0.327168727136604 104.867102070368 0.327168727136597 104.86710207037  0.906802441793954 14.5403847982754 
! Gamma         0                0                0                0                
! Port Impedance         50               0                50               0                
52.2                           0.906631462210278 13.9216443819704 0.327536547912686 104.345063827026 0.327536547912679 104.345063827029 0.906670121159941 14.075661981614  
! Gamma         0                0                0                0                
! Port Impedance         50               0                50               0                
52.3                           0.906463420928052 13.4553885808449 0.327970975705362 103.822123427811 0.327970975705355 103.822123427813 0.906503598754955 13.6103762873536 
! Gamma         0                0                0                0                
! Port Impedance         50               0                50               0                
52.4                           0.906260751727001 12.9884061159934 0.328472435505677 103.298134031286 0.328472435505669 103.298134031288 0.906302491012132 13.1444018146137 
! Gamma         0                0                0                0                
! Port Impedance         50               0                50               0                
52.5                           0.906023018498597 12.5205690183851 0.329041402823037 102.772947138334 0.329041402823029 102.772947138337 0.906066364161029 12.6776114572848 
! Gamma         0                0                0                0                
! Port Impedance         50               0                50               0                
52.6                           0.905749733547997 12.0517479312124 0.329678404367657 102.246412419821 0.329678404367648 102.246412419824 0.905794732945072 12.2098767685024 
! Gamma         0                0                0                0                
! Port Impedance         50               0                50               0                
52.7                           0.905440356162481 11.5818119698547 0.330384018788905 101.718377540162 0.330384018788896 101.718377540165 0.905487059196665 11.7410678226273 
! Gamma         0                0                0                0                
! Port Impedance         50               0                50               0                
52.8                           0.905094291031325 11.1106285790056 0.331158877469685 101.188687976437 0.331158877469676 101.18868797644  0.905142750264133 11.2710530745314 
! Gamma         0                0                0                0                
! Port Impedance         50               0                50               0                
52.9                           0.904710886510647 10.6380633867518 0.332003665376814 100.657186832698 0.332003665376805 100.657186832702 0.904761157284088 10.7996992159899 
! Gamma         0                0                0                0                
! Port Impedance         50               0                50               0                
53                             0.904289432726202 10.1639800553962 0.332919121967261 100.123714649097 0.332919121967251 100.123714649101 0.904341573292204 10.3268710289819 
! Gamma         0                0                0                0                
! Port Impedance         50               0                50               0                
53.1                           0.903829159506411 9.68824012881968 0.333906042149901 99.5881092054383 0.333906042149891 99.5881092054422 0.90388323116475 9.85243123570479 
! Gamma         0                0                0                0                
! Port Impedance         50               0                50               0                
53.2                           0.903329234137287 9.21070287617371 0.334965277302263 99.0502053187854 0.334965277302252 99.0502053187896 0.903385301382569 9.37624034510775 
! Gamma         0                0                0                0                
! Port Impedance         50               0                50               0                
53.3                           0.902788758930186 8.73122513170485 0.336097736341483 98.5098346346958 0.336097736341473 98.5098346347002 0.902846889608476 8.8981564957578  
! Gamma         0                0                0                0                
! Port Impedance         50               0                50               0                
53.4                           0.902206768592569 8.24966113051248 0.337304386848414 97.9668254116779 0.337304386848403 97.9668254116825 0.902267034068317 8.41803529485504 
! Gamma         0                0                0                0                
! Port Impedance         50               0                50               0                
53.5                           0.901582227391206 7.76586234005058 0.338586256243514 97.4210022984401 0.338586256243502 97.421002298445  0.901644702725167 7.9357296532238  
! Gamma         0                0                0                0                
! Port Impedance         50               0                50               0                
53.6                           0.90091402609639 7.27967728719104 0.339944433012734 96.8721861034906 0.339944433012722 96.8721861034957 0.900978790235291 7.45108961611432 
! Gamma         0                0                0                0                
! Port Impedance         50               0                50               0                
53.7                           0.900200978694921 6.79095138067815 0.34138006798123 96.3201935566389 0.341380067981218 96.3201935566443 0.90026811467369 6.96396218966403 
! Gamma         0                0                0                0                
! Port Impedance         50               0                50               0                
53.8                           0.899441818858657 6.2995267288176  0.342894375632167 95.7648370619371 0.342894375632154 95.7648370619428 0.899511414016101 6.47419116288184 
! Gamma         0                0                0                0                
! Port Impedance         50               0                50               0                
53.9                           0.898635196154529 5.80524195225923 0.34448863546732 95.2059244415887 0.344488635467307 95.2059244415947 0.898707342363412 5.9816169250389  
! Gamma         0                0                0                0                
! Port Impedance         50               0                50               0                
54                             0.897779671980901 5.30793199175608 0.346164193405521 94.6432586703451 0.346164193405508 94.6432586703513 0.897854465893457 5.48607627837143 
! Gamma         0                0                0                0                
! Port Impedance         50               0                50               0                
54.1                           0.896873715214103 4.80742791080673 0.347922463214184 94.0766375999013 0.347922463214171 94.0766375999078 0.896951258524104 4.98740224603129 
! Gamma         0                0                0                0                
! Port Impedance         50               0                50               0                
54.2                           0.895915697547938 4.30355669311793 0.349764927968298 93.5058536727964 0.349764927968285 93.5058536728032 0.895996097270536 4.48542387525081 
! Gamma         0                0                0                0                
! Port Impedance         50               0                50               0                
54.3                           0.894903888507756 3.79614103486488 0.351693141530234 92.93069362532   0.351693141530219 92.9306936253271 0.89498725727841 3.97996603573199 
! Gamma         0                0                0                0                
! Port Impedance         50               0                50               0                
54.4                           0.893836450119628 3.28499913176827 0.353708730042567 92.3509381789249 0.353708730042553 92.3509381789323 0.893922906513545 3.47084921331537 
! Gamma         0                0                0                0                
! Port Impedance         50               0                50               0                
54.5                           0.892711431213851 2.76994446106156 0.355813393424814 91.7663617196476 0.3558133934248  91.7663617196554 0.892801100087498 2.95788929904163 
! Gamma         0                0                0                0                
! Port Impedance         50               0                50               0                
54.6                           0.891526761340879 2.25078555848565 0.358008906863434 91.1767319650453 0.35800890686342 91.1767319650533 0.89161977419724 2.44089737378687 
! Gamma         0                0                0                0                
! Port Impedance         50               0                50               0                
54.7                           0.890280244276453 1.72732579052045 0.360297122282803 90.5818096181652 0.360297122282789 90.5818096181735 0.890376739655877 1.91967948872903 
! Gamma         0                0                0                0                
! Port Impedance         50               0                50               0                
54.8                           0.888969551091505 1.19936312215258 0.36267996978288 89.9813480080828 0.362679969782866 89.9813480080915 0.889069674990114 1.39403644199848 
! Gamma         0                0                0                0                
! Port Impedance         50               0                50               0                
54.9                           0.887592212761086 0.666689880580547 0.365159459027113 89.3750927165641 0.3651594590271  89.3750927165732 0.88769611907894 0.863763551970327 
! Gamma         0                0                0                0                
! Port Impedance         50               0                50               0                
55                             0.886145612285404 0.129092515377431 0.367737680561653 88.7627811904407 0.367737680561638 88.7627811904501 0.886253463306742 0.328650427787116 
! Gamma         0                0                0                0                
! Port Impedance         50               0                50               0                
55.1                           0.88462697629476 -0.413648644223319 0.370416807044092 88.1441423393252 0.370416807044078 88.1441423393349 0.88473894320293 -0.211519262154716 
! Gamma         0                0                0                0                
! Port Impedance         50               0                50               0                
55.2                           0.883033366109131 -0.961759634094809 0.373199094356838 87.5188961183473 0.373199094356824 87.5188961183574 0.883149629538985 -0.756968022848862 
! Gamma         0                0                0                0                
! Port Impedance         50               0                50               0                
55.3                           0.881361668222026 -1.51547310101337 0.376086882576562 86.8867530956551 0.376086882576548 86.8867530956655 0.881482418852847 -1.30792476534289 
! Gamma         0                0                0                0                
! Port Impedance         50               0                50               0                
55.4                           0.879608584177379 -2.07502854824591 0.379082596767204 86.2474140045043 0.37908259676719 86.2474140045151 0.879734023369677 -1.86462503808619 
! Gamma         0                0                0                0                
! Port Impedance         50               0                50               0                
55.5                           0.877770619807476 -2.6406725794214 0.382188747559412 85.6005692798605 0.382188747559398 85.6005692798716 0.877900960287316 -2.4273112553446 
! Gamma         0                0                0                0                
! Port Impedance         50               0                50               0                
55.6                           0.875844073799482 -3.2126591388852 0.385407931474227 84.945898579552  0.385407931474214 84.9458985795635 0.875979540394325 -2.99623292076138 
! Gamma         0                0                0                0                
! Port Impedance         50               0                50               0                
55.7                           0.873825025557877 -3.79124974637822 0.388742830943068 84.2830702901597 0.388742830943056 84.2830702901716 0.873965855988304 -3.57164684377096 
! Gamma         0                0                0                0                
! Port Impedance         50               0                50               0                
55.8                           0.871709322330372 -4.37671372348248 0.392196213969663 83.6117410179956 0.392196213969651 83.6117410180078 0.8718557680625  -4.15381734615584 
! Gamma         0                0                0                0                
! Port Impedance         50               0                50               0                
55.9                           0.869492565565564 -4.96932840880034 0.395770933372395 82.9315550657297 0.395770933372383 82.9315550657422 0.869644892729378 -4.74301645554442 
! Gamma         0                0                0                0                
! Port Impedance         50               0                50               0                
56                             0.867170096471824 -5.56937935829101 0.399469925537497 82.2421438954598 0.399469925537486 82.2421438954728 0.867328586851229 -5.33952408208766 
! Gamma         0                0                0                0                
! Port Impedance         50               0                50               0                
56.1                           0.864736980749065 -6.17716052655912 0.403296208604609 81.5431255793066 0.403296208604598 81.5431255793199 0.864901932849941 -5.94362817389385 
! Gamma         0                0                0                0                
! Port Impedance         50               0                50               0                
56.2                           0.86218799246785 -6.79297442415884 0.407252879996271 80.8341042389439 0.40725287999626 80.8341042389576 0.862359722671138 -6.55562484604978 
! Gamma         0                0                0                0                
! Port Impedance         50               0                50               0                
56.3                           0.859517597074448 -7.41713224513855 0.411343113191902 80.1146694758627 0.411343113191893 80.1146694758768 0.859696440881888 -7.1758184771838 
! Gamma         0                0                0                0                
! Port Impedance         50               0                50               0                
56.4                           0.856719933505747 -8.0499539580733 0.415570153634623 79.3843957946223 0.415570153634616 79.3843957946368 0.856906246886757 -7.80452176651742 
! Gamma         0                0                0                0                
! Port Impedance         50               0                50               0                
56.5                           0.853788795404944 -8.6917683527135 0.419937313645833 78.642842021859  0.419937313645826 78.6428420218738 0.853982956253949 -8.44205574319228 
! Gamma         0                0                0                0                
! Port Impedance         50               0                50               0                
56.6                           0.850717611437695 -9.3429130330751 0.424447966207669 77.8895507244377 0.424447966207663 77.8895507244528 0.850920021152245 -9.08874971831419 
! Gamma         0                0                0                0                
! Port Impedance         50               0                50               0                
56.7                           0.847499424719653 -10.0037343463064 0.429105537457291 77.1240476308228 0.429105537457286 77.1240476308384 0.84771050991071 -9.74494116861027 
! Gamma         0                0                0                0                
! Port Impedance         50               0                50               0                
56.8                           0.844126871379961 -10.6745872349302 0.433913497719279 76.3458410605583 0.433913497719276 76.3458410605743 0.844347085727019 -10.4109755388049 
! Gamma         0                0                0                0                
! Port Impedance         50               0                50               0                
56.9                           0.840592158302276 -11.3558349980731 0.438875350883307 75.5544213676593 0.438875350883306 75.5544213676756 0.840821984567342 -11.0872059477623 
! Gamma         0                0                0                0                
! Port Impedance         50               0                50               0                
57                             0.8368870401055  -12.0478489449881 0.443994621913605 74.7492604047821 0.443994621913606 74.7492604047987 0.8371269923215  -11.7739927810573 
! Gamma         0                0                0                0                
! Port Impedance         50               0                50               0                
57.1                           0.833002795451277 -12.751007921525 0.449274842254628 73.9298110162325 0.449274842254631 73.9298110162495 0.833253421302279 -12.4717031499037 
! Gamma         0                0                0                0                
! Port Impedance         50               0                50               0                
57.2                           0.828930202795338 -13.4656976871442 0.454719532873927 73.0955065692388 0.45471953287393 73.0955065692561 0.82919208620794 -13.1807101931881 
! Gamma         0                0                0                0                
! Port Impedance         50               0                50               0                
57.3                           0.824659515735418 -14.1923101165301 0.460332184658487 72.2457605344583 0.460332184658493 72.2457605344759 0.82493327970293 -13.9013921957106 
! Gamma         0                0                0                0                
! Port Impedance         50               0                50               0                
57.4                           0.820180438151   -14.9312421957874 0.466116235855305 71.3799661284188 0.466116235855313 71.3799661284367 0.820466747814669 -14.634131491514 
! Gamma         0                0                0                0                
! Port Impedance         50               0                50               0                
57.5                           0.815482099380219 -15.6828947784999 0.472075046220697 70.4974960325494 0.472075046220708 70.4974960325677 0.815781665394686 -15.3793131163057 
! Gamma         0                0                0                0                
! Port Impedance         50               0                50               0                
57.6                           0.810553029738003 -16.4476710614885 0.478211867516744 69.5977022056221 0.478211867516757 69.5977022056406 0.810866611951609 -16.1373231673465 
! Gamma         0                0                0                0                
! Port Impedance         50               0                50               0                
57.7                           0.805381136748353 -17.2259747338249 0.484529809967636 68.6799158088438 0.484529809967652 68.6799158088626 0.80570954823281 -16.9085468226701 
! Gamma         0                0                0                0                
! Port Impedance         50               0                50               0                
57.8                           0.799953682543343 -18.0182077453924 0.49103180426479 67.7434472654961 0.491031804264808 67.7434472655152 0.80029779401186 -17.6933659639573 
! Gamma         0                0                0                0                
! Port Impedance         50               0                50               0                
57.9                           0.794257262973617 -18.8247676328621 0.497720558688411 66.7875864799402 0.497720558688433 66.7875864799596 0.794618007631826 -18.4921563386553 
! Gamma         0                0                0                0                
! Port Impedance         50               0                50               0                
58                             0.788277789080888 -19.646044331195 0.504598510896278 65.8116032439728 0.504598510896303 65.8116032439924 0.788656167961008 -19.3052841867948 
! Gamma         0                0                0                0                
! Port Impedance         50               0                50               0                
58.1                           0.782000471703522 -20.4824163874443 0.511667773919821 64.8147478619337 0.51166777391985 64.8147478619535 0.782397559539514 -20.1331022461732 
! Gamma         0                0                0                0                
! Port Impedance         50               0                50               0                
58.2                           0.775409810122949 -21.3342464804133 0.518930075905365 63.7962520296039 0.518930075905398 63.7962520296238 0.775826761832737 -20.9759450358388 
! Gamma         0                0                0                0                
! Port Impedance         50               0                50               0                
58.3                           0.768489585811977 -22.2018761343264 0.52638669314749 62.7553300057484 0.526386693147527 62.7553300057685 0.768927643662969 -21.8341233017643 
! Gamma         0                0                0                0                
! Port Impedance         50               0                50               0                
58.4                           0.76122286251728 -23.0856194965965 0.534038375985238 61.6911801191126 0.53403837598528 61.6911801191329 0.761683364063217 -22.707917489787 
! Gamma         0                0                0                0                
! Port Impedance         50               0                50               0                
58.5                           0.753591994096809 -23.9857560285359 0.541885267174356 60.6029866576638 0.541885267174402 60.6029866576842 0.754076380988244 -23.5975700887563 
! Gamma         0                0                0                0                
! Port Impedance         50               0                50               0                
58.6                           0.745578641738975 -24.9025219327678 0.549926812414398 59.4899221908029 0.549926812414448 59.4899221908234 0.746088469526717 -24.5032766606591 
! Gamma         0                0                0                0                
! Port Impedance         50               0                50               0                
58.7                           0.737163802412131 -25.8361001112702 0.558161662803757 58.3511503789713 0.558161662803812 58.3511503789918 0.737700751483675 -25.4251753433656 
! Gamma         0                0                0                0                
! Port Impedance         50               0                50               0                
58.8                           0.72832785062842 -26.7866084123281 0.566587569124201 57.1858293283841 0.566587569124261 57.1858293284047 0.728893738442232 -26.3633345744468 
! Gamma         0                0                0                0                
! Port Impedance         50               0                50               0                
58.9                           0.719050595851297 -27.7540858817214 0.575201268025761 55.9931155512611 0.575201268025829 55.9931155512818 0.719647390664429 -27.3177387396609 
! Gamma         0                0                0                0                
! Port Impedance         50               0                50               0                
59                             0.709311358126034 -28.7384766813258 0.583998360399565 54.7721685936335 0.583998360399636 54.7721685936541 0.709941194447897 -28.2882713952936 
! Gamma         0                0                0                0                
! Port Impedance         50               0                50               0                
59.1                           0.699089064760264 -29.7396112743774 0.59297318249702 53.5221563931857 0.592973182497098 53.5221563932062 0.699754260811428 -29.2746956468892 
! Gamma         0                0                0                0                
! Port Impedance         50               0                50               0                
59.2                           0.68836237111808 -30.7571843975968 0.602118670685496 52.2422614282424 0.602118670685579 52.2422614282627 0.689065448629999 -30.2766311844795 
! Gamma         0                0                0                0                
! Port Impedance         50               0                50               0                
59.3                           0.677109808805632 -31.7907292414658 0.611426221128171 50.931687715434  0.611426221128261 50.9316877154542 0.677853515568379 -31.2935273715905 
! Gamma         0                0                0                0                
! Port Impedance         50               0                50               0                
59.4                           0.665309964706359 -32.8395871350382 0.620885546143713 49.5896687071994 0.620885546143808 49.5896687072193 0.666097300360321 -32.3246316554843 
! Gamma         0                0                0                0                
! Port Impedance         50               0                50               0                
59.5                           0.652941694456272 -33.9028718719678 0.630484529540369 48.2154761305308 0.63048452954047 48.2154761305505 0.653775940135623 -33.3689524006682 
! Gamma         0                0                0                0                
! Port Impedance         50               0                50               0                
59.6                           0.639984374021195 -34.9794276081569 0.640209083826953 46.8084297945671 0.64020908382706 46.8084297945865 0.640869126598485 -34.4252150344738 
! Gamma         0                0                0                0                
! Port Impedance         50               0                50               0                
59.7                           0.626418193038177 -36.0677789918881 0.650043012871844 45.3679083761778 0.650043012871959 45.3679083761969 0.627357404899247 -35.4918101158702 
! Gamma         0                0                0                0                
! Port Impedance         50               0                50               0                
59.8                           0.612224493507534 -37.1660718313925 0.65996788429651 43.8933611689337 0.659967884296631 43.8933611689523 0.613222519015221 -36.5667315733517 
! Gamma         0                0                0                0                
! Port Impedance         50               0                50               0                
59.9                           0.597386157276731 -38.2720021298352 0.669962916628941 42.3843207513506 0.669962916629067 42.3843207513688 0.598447807376772 -37.6475028722125 
! Gamma         0                0                0                0                
! Port Impedance         50               0                50               0                
60                             0.58188804556767 -39.3827306773959 0.680004886972742 40.8404164946777 0.680004886972874 40.8404164946955 0.583018652369894 -38.7310882200752 
! Gamma         0                0                0                0                
! Port Impedance         50               0                50               0                
60.1                           0.565717493619905 -40.4947795185462 0.690068065625515 39.2613887887306 0.690068065625652 39.2613887887478 0.566922987280543 -39.8137850372053 
! Gamma         0                0                0                0                
! Port Impedance         50               0                50               0                
60.2                           0.548864863454702 -41.6039054147217 0.700124184650809 37.6471038166675 0.700124184650952 37.6471038166841 0.550151864326804 -40.8910927126048 
! Gamma         0                0                0                0                
! Port Impedance         50               0                50               0                
60.3                           0.53132415797839 -42.7049437610107 0.710142447805057 35.9975686569334 0.710142447805204 35.9975686569494 0.532700087836291 -41.9575510053852 
! Gamma         0                0                0                0                
! Port Impedance         50               0                50               0                
60.4                           0.513093700410627 -43.7916140893029 0.720089589368827 34.3129464342706 0.720089589368978 34.3129464342859 0.514566917656911 -43.0065391419889 
! Gamma         0                0                0                0                
! Port Impedance         50               0                50               0                
60.5                           0.4941768847703  -44.8562750038382 0.729929989249102 32.5935711837434 0.729929989249258 32.593571183758  0.495756849985292 -44.0300234252837 
! Gamma         0                0                0                0                
! Port Impedance         50               0                50               0                
60.6                           0.474583006532881 -45.8896117093606 0.73962585112387 30.8399620349782 0.739625851124027 30.8399620349921 0.476280486644734 -45.0182366051134 
! Gamma         0                0                0                0                
! Port Impedance         50               0                50               0                
60.7                           0.454328188593182 -46.8802325503077 0.749137449317952 29.052836271787  0.749137449318113 29.0528362718    0.456155510475859 -45.9592657661638 
! Gamma         0                0                0                0                
! Port Impedance         50               0                50               0                
60.8                           0.433436427869783 -47.8141411940034 0.758423448471936 27.2331207792693 0.7584234484721  27.2331207792814 0.435407795499179 -46.8385161953661 
! Gamma         0                0                0                0                
! Port Impedance         50               0                50               0                
60.9                           0.411940804668282 -48.6740367709774 0.767441297865923 25.3819613610329 0.767441297866085 25.3819613610442 0.41407269828013 -47.6380053239735 
! Gamma         0                0                0                0                
! Port Impedance         50               0                50               0                
61                             0.389884924054204 -49.438373187594 0.776147699498044 23.5007293982591 0.776147699498206 23.5007293982696 0.392196605211751 -48.3354215698808 
! Gamma         0                0                0                0                
! Port Impedance         50               0                50               0                
61.1                           0.36732470200361 -50.0800776150621 0.784499145757381 21.5910253346684 0.78449914575754 21.591025334678  0.369838855059595 -48.9028551952921 
! Gamma         0                0                0                0                
! Port Impedance         50               0                50               0                
61.2                           0.344330678781549 -50.564782035734 0.792452518894281 19.654678510994  0.792452518894439 19.6546785110027 0.347074226268756 -49.3050688920828 
! Gamma         0                0                0                0                
! Port Impedance         50               0                50               0                
61.3                           0.320991153853238 -50.84835430905  0.799965740662107 17.6937429421061 0.799965740662258 17.6937429421139 0.323996288629555 -49.4971213468179 
! Gamma         0                0                0                0                
! Port Impedance         50               0                50               0                
61.4                           0.297416616822664 -50.8734196812491 0.806998456724696 15.7104887303019 0.806998456724843 15.7104887303088 0.300722091144951 -49.4210865744617 
! Gamma         0                0                0                0                
! Port Impedance         50               0                50               0                
61.5                           0.273746239211224 -50.5644383665153 0.813512736978863 13.7073889381024 0.813512736979003 13.7073889381085 0.277398924626677 -49.0015349587739 
! Gamma         0                0                0                0                
! Port Impedance         50               0                50               0                
61.6                           0.250157654520406 -49.8207730415394 0.819473770138931 11.6871018990167 0.819473770139063 11.6871018990219 0.254214298550567 -48.1394024087656 
! Gamma         0                0                0                0                
! Port Impedance         50               0                50               0                
61.7                           0.226881963362885 -48.5071512808792 0.824850529070327 9.65244911837228 0.824850529070449 9.65244911837664 0.231410830838024 -46.704013362796 
! Gamma         0                0                0                0                
! Port Impedance         50               0                50               0                
61.8                           0.204226873988658 -46.441374011311 0.829616382698885 7.60638909908507 0.829616382698995 7.60638909908875 0.209308376790689 -44.5237413064845 
! Gamma         0                0                0                0                
! Port Impedance         50               0                50               0                
61.9                           0.182611793572106 -43.3811361073367 0.833749631040235 5.55198760795578 0.833749631040333 5.55198760795866 0.18833589534719 -41.3780982010799 
! Gamma         0                0                0                0                
! Port Impedance         50               0                50               0                
62                             0.162617849663555 -39.0181950325913 0.837233942060448 3.49238506444599 0.837233942060532 3.4923850644483  0.169073421818009 -37.0000979926429 
! Gamma         0                0                0                0                
! Port Impedance         50               0                50               0                
62.1                           0.145047607292217 -33.004144120741 0.840058672636544 1.43076187384294 0.840058672636613 1.43076187384464 0.152295107779868 -31.1104493685127 
! Gamma         0                0                0                0                
! Port Impedance         50               0                50               0                
62.2                           0.13096032570519 -25.0596286022247 0.842219060643203 -0.629697370480322 0.842219060643258 -0.629697370479111 0.138978651319132 -23.5213323315072 
! Gamma         0                0                0                0                
! Port Impedance         50               0                50               0                
62.3                           0.12158760105404 -15.2222110538213 0.843716280838191 -2.68583983350317 0.84371628083823 -2.68583983350247 0.130204311753574 -14.3341094674134 
! Gamma         0                0                0                0                
! Port Impedance         50               0                50               0                
62.4                           0.118000504530077 -4.14456402890746 0.84455736335103 -4.73457954394551 0.844557363351051 -4.73457954394519 0.126864478036277 -4.13851473511227 
! Gamma         0                0                0                0                
! Port Impedance         50               0                50               0                
62.5                           0.120591627379556 6.93789368650156 0.844754979745334 -6.77293071190519 0.844754979745339 -6.77293071190521 0.129264952894055 6.05004273788131 
! Gamma         0                0                0                0                
! Port Impedance         50               0                50               0                
62.6                           0.128812883259066 16.7928123676958 0.844327107373041 -8.79803840214986 0.84432710737303 -8.79803840215005 0.136939058342843 15.2244403776877 
! Gamma         0                0                0                0                
! Port Impedance         50               0                50               0                
62.7                           0.141477407847747 24.7732423213664 0.843296587665677 -10.807205836472 0.843296587665646 -10.8072058364724 0.148875278125365 22.8115045164614 
! Gamma         0                0                0                0                
! Port Impedance         50               0                50               0                
62.8                           0.157288725706397 30.8452017782917 0.841690597801001 -12.7979177582914 0.841690597800952 -12.7979177582917 0.163927841945435 28.7222354915303 
! Gamma         0                0                0                0                
! Port Impedance         50               0                50               0                
62.9                           0.175162955481497 35.2886499472496 0.839540057647828 -14.7678594704619 0.839540057647764 -14.7678594704624 0.181095607545571 33.1491601287777 
! Gamma         0                0                0                0                
! Port Impedance         50               0                50               0                
63                             0.194298814253617 38.4508640315684 0.836878994961606 -16.7149313406522 0.836878994961527 -16.7149313406525 0.199607468367291 36.3712250842835 
! Gamma         0                0                0                0                
! Port Impedance         50               0                50               0                
63.1                           0.214132046362084 40.6382788513945 0.833743891536375 -18.6372587460708 0.833743891536279 -18.6372587460709 0.218901891801081 38.6529308266216 
! Gamma         0                0                0                0                
! Port Impedance         50               0                50               0                
63.2                           0.234269475822935 42.0912031655193 0.83017303157664 -20.5331975907675 0.830173031576528 -20.5331975907674 0.2385774217624  40.211713374596  
! Gamma         0                0                0                0                
! Port Impedance         50               0                50               0                
63.3                           0.254435261788184 42.9898195787506 0.82620587117263 -22.4013356665769 0.826205871172503 -22.4013356665765 0.258346990477912 41.2161912807645 
! Gamma         0                0                0                0                
! Port Impedance         50               0                50               0                
63.4                           0.274433427670626 43.4674097133985 0.821882444722358 -24.2404902381509 0.821882444722219 -24.2404902381503 0.278003748582562 41.7942452292168 
! Gamma         0                0                0                0                
! Port Impedance         50               0                50               0                
63.5                           0.294123056792068 43.6226565951757 0.817242820731388 -26.0497023111723 0.817242820731236 -26.0497023111712 0.297397349664755 42.042369738436  
! Gamma         0                0                0                0                
! Port Impedance         50               0                50               0                
63.6                           0.313402034743539 43.5291879686048 0.812326615903894 -27.8282280910691 0.812326615903731 -27.8282280910677 0.316417868642466 42.0336222008543 
! Gamma         0                0                0                0                
! Port Impedance         50               0                50               0                
63.7                           0.332196286058677 43.2425169086827 0.807172573045387 -29.5755281595583 0.807172573045211 -29.5755281595563 0.334984885077104 41.8237248548545 
! Gamma         0                0                0                0                
! Port Impedance         50               0                50               0                
63.8                           0.350452502083178 42.8049749696088 0.801818205204881 -31.2912548918441 0.801818205204697 -31.2912548918416 0.353039970207581 41.4555635677655 
! Gamma         0                0                0                0                
! Port Impedance         50               0                50               0                
63.9                           0.368133099695396 42.2492025659836 0.796299505813232 -32.9752386128339 0.796299505813038 -32.9752386128309 0.370541409176746 40.962456870409  
! Gamma         0                0                0                0                
! Port Impedance         50               0                50               0                
64                             0.385212626692849 41.6006294745653 0.790650722391711 -34.6274729511749 0.79065072239151 -34.6274729511714 0.387460403563969 40.3705267365438 
! Gamma         0                0                0                0                
! Port Impedance         50               0                50               0                
64.1                           0.401675124452896 40.8792534504779 0.784904189730593 -36.2480998000874 0.784904189730386 -36.2480998000832 0.403778269596987 39.7004257399172 
! Gamma         0                0                0                0                
! Port Impedance         50               0                50               0                
64.2                           0.41751213932759 40.1009298399108 0.77909021725417 -37.8373942382128 0.779090217253956 -37.8373942382079 0.419484319639399 38.9686053743541 
! Gamma         0                0                0                0                
! Port Impedance         50               0                50               0                
64.3                           0.4327211854646  39.2783179989161 0.77323702455158 -39.3957497057956 0.773237024551363 -39.3957497057902 0.43457422355025 38.1882565147052 
! Gamma         0                0                0                0                
! Port Impedance         50               0                50               0                
64.4                           0.447304530714703 38.4215844586107 0.767370718701083 -40.9236636744536 0.767370718700861 -40.9236636744476 0.449048715637782 37.3700141224041 
! Gamma         0                0                0                0                
! Port Impedance         50               0                50               0                
64.5                           0.461268220510885 37.5389317400541 0.761515306979061 -42.4217239948883 0.761515306978835 -42.4217239948817 0.462912557058913 36.5224909747358 
! Gamma         0                0                0                0                
! Port Impedance         50               0                50               0                
64.6                           0.474621282022569 36.637000735127  0.755692738754032 -43.8905960576749 0.755692738753805 -43.8905960576677 0.47617369194783 35.6526861913835 
! Gamma         0                0                0                0                
! Port Impedance         50               0                50               0                
64.7                           0.487375068509662 35.721180312728  0.749922970753256 -45.331010858731 0.749922970753028 -45.3310108587233 0.488842554079231 34.7663011354547 
! Gamma         0                0                0                0                
! Port Impedance         50               0                50               0                
64.8                           0.499542715287702 34.7958480512488 0.744224050396044 -46.7437540236353 0.744224050395816 -46.7437540236269 0.500931493089109 33.8679860745653 
! Gamma         0                0                0                0                
! Port Impedance         50               0                50               0                
64.9                           0.511138686321644 33.8645592579305 0.738612212463432 -48.129655813667 0.738612212463205 -48.1296558136582 0.512454297454483 32.9615345474128 
! Gamma         0                0                0                0                
! Port Impedance         50               0                50               0                
65                             0.522178395596734 32.9301967336909 0.733101984977589 -49.4895821110555 0.733101984977362 -49.4895821110462 0.523425796999013 32.0500378346745 
! Gamma         0                0                0                0                
! Port Impedance         50               0                50               0                
65.1                           0.532677890948056 31.995090427877  0.727706300765167 -50.8244263609496 0.727706300764942 -50.8244263609398 0.533861531555672 31.1360086961967 
! Gamma         0                0                0                0                
! Port Impedance         50               0                50               0                
65.2                           0.542653590525591 31.061113767158  0.722436611753742 -52.1351024325297 0.722436611753519 -52.1351024325193 0.543777475160782 30.2214812111929 
! Gamma         0                0                0                0                
! Port Impedance         50               0                50               0                
65.3                           0.552122063882287 30.1297617443827 0.71730300358429 -53.4225383507868 0.71730300358407 -53.422538350776 0.553189807151599 29.3080918724614 
! Gamma         0                0                0                0                
! Port Impedance         50               0                50               0                
65.4                           0.561099851026914 29.202214618517  0.712314308605642 -54.6876708432071 0.712314308605426 -54.6876708431959 0.56211472303528 28.3971458522337 
! Gamma         0                0                0                0                
! Port Impedance         50               0                50               0                
65.5                           0.569603313827631 28.2793901702364 0.707478215744637 -55.9314406412458 0.707478215744424 -55.9314406412342 0.570568279147963 27.4896714464532 
! Gamma         0                0                0                0                
! Port Impedance         50               0                50               0                
65.6                           0.577648514981991 27.3619867855066 0.702801376117057 -57.1547884745325 0.702801376116848 -57.1547884745206 0.578566266033676 26.5864650255363 
! Gamma         0                0                0                0                
! Port Impedance         50               0                50               0                
65.7                           0.585251120444712 26.4505191363472 0.698289503561149 -58.3586516956638 0.698289503560945 -58.3586516956516 0.586124106210697 25.6881283094231 
! Gamma         0                0                0                0                
! Port Impedance         50               0                50               0                
65.8                           0.592426321769048 25.5453478478188 0.69394746954078 -59.5439614747919 0.693947469540582 -59.5439614747794 0.593256772604691 24.7950993976677 
! Gamma         0                0                0                0                
! Port Impedance         50               0                50               0                
65.9                           0.599188775295014 24.6467042505489 0.689779392083705 -60.7116405056256 0.689779392083511 -60.711640505613 0.599978724442381 23.9076786893368 
! Gamma         0                0                0                0                
! Port Impedance         50               0                50               0                
66                             0.605552555529237 23.7547110953327 0.685788718596789 -61.8626011675755 0.685788718596602 -61.8626011675626 0.606303857839337 23.0260505991987 
! Gamma         0                0                0                0                
! Port Impedance         50               0                50               0                
66.1                           0.611531120417092 22.8693999336868 0.681978302539801 -62.9977440923926 0.681978302539619 -62.9977440923797 0.612245468693721 22.1503017992734 
! Gamma         0                0                0                0                
! Port Impedance         50               0                50               0                
66.2                           0.617137286518594 21.9907257333097 0.678350474047337 -64.1179570875115 0.678350474047161 -64.1179570874983 0.617816225825646 21.2804365758714 
! Gamma         0                0                0                0                
! Port Impedance         50               0                50               0                
66.3                           0.622383212370875 21.1185791911903 0.674907104669611 -65.2241143722841 0.674907104669441 -65.2241143722709 0.623028152587303 20.4163897826187 
! Gamma         0                0                0                0                
! Port Impedance         50               0                50               0                
66.4                           0.627280388558408 20.2527971229288 0.671649666461466 -66.3170760872457 0.671649666461303 -66.3170760872325 0.627892615417743 19.5580377829416 
! Gamma         0                0                0                0                
! Port Impedance         50               0                50               0                
66.5                           0.631839633219687 19.3931712396051 0.668579285689032 -67.3976880404028 0.668579285688875 -67.3976880403897 0.632420318032657 18.7052077058638 
! Gamma         0                0                0                0                
! Port Impedance         50               0                50               0                
66.6                           0.636071091901963 18.5394555695722 0.665696791448435 -68.4667816581991 0.665696791448286 -68.466781658186 0.636621300128992 17.8576852830174 
! Gamma         0                0                0                0                
! Port Impedance         50               0                50               0                
66.7                           0.639984240833847 17.6913727389555 0.663002759503839 -69.5251741122732 0.663002759503696 -69.5251741122602 0.640504939648292 17.0152214895012 
! Gamma         0                0                0                0                
! Port Impedance         50               0                50               0                
66.8                           0.643587892824888 16.8486192892133 0.660497551655361 -70.5736685963326 0.660497551655225 -70.5736685963198 0.644079957785943 16.1775381744035 
! Gamma         0                0                0                0                
! Port Impedance         50               0                50               0                
66.9                           0.646890205121036 16.010870181253  0.658181350943363 -71.6130547304106 0.658181350943234 -71.6130547303982 0.647354426057345 15.3443328367625 
! Gamma         0                0                0                0                
! Port Impedance         50               0                50               0                
67                             0.649898688649821 15.1777826118981 0.656054192985787 -72.6441090724696 0.656054192985666 -72.6441090724573 0.650335774839467 14.5152826780899 
! Gamma         0                0                0                0                
! Port Impedance         50               0                50               0                
67.1                           0.652620218179243 14.3489992490452 0.654115993731331 -73.6675957197289 0.654115993731218 -73.667595719717 0.653030802899211 13.6900480422624 
! Gamma         0                0                0                0                
! Port Impedance         50               0                50               0                
67.2                           0.655061042992634 13.5241509757837 0.652366573894282 -74.6842669842785 0.652366573894176 -74.6842669842668 0.655445687499666 12.8682753368521 
! Gamma         0                0                0                0                
! Port Impedance         50               0                50               0                
67.3                           0.657226797749039 12.7028592204808 0.650805680317858 -75.6948641294594 0.650805680317759 -75.6948641294482 0.65758599474478 12.0495995160995 
! Gamma         0                0                0                0                
! Port Impedance         50               0                50               0                
67.4                           0.659122513256776 11.8847379388406 0.649433004492546 -76.7001181552014 0.649433004492454 -76.7001181551908 0.659456689881943 11.233646194229  
! Gamma         0                0                0                0                
! Port Impedance         50               0                50               0                
67.5                           0.660752626937887 11.0693953048521 0.648248198434885 -77.7007506219873 0.6482481984348  -77.7007506219771 0.661062147333319 10.420033448294  
! Gamma         0                0                0                0                
! Port Impedance         50               0                50               0                
67.6                           0.66212099280415 10.2564351600285 0.647250888110688 -78.6974745044008 0.64725088811061 -78.6974745043912 0.662406160270636 9.60837336185168 
! Gamma         0                0                0                0                
! Port Impedance         50               0                50               0                
67.7                           0.663230890802911 9.44545826413705 0.646440684565353 -79.6909950663142 0.646440684565283 -79.6909950663051 0.663491949586192 8.79827335424256 
! Gamma         0                0                0                0                
! Port Impedance         50               0                50               0                
67.8                           0.664085035423045 8.63606338555586 0.645817192902675 -80.6820107506906 0.645817192902611 -80.6820107506821 0.664322172145761 7.98933733491318 
! Gamma         0                0                0                0                
! Port Impedance         50               0                50               0                
67.9                           0.664685583479838 7.82784826528366 0.645380019232772 -81.6712140777452 0.645380019232716 -81.6712140777373 0.664898928237905 7.18116671784982 
! Gamma         0                0                0                0                
! Port Impedance         50               0                50               0                
68                             0.665034141022536 7.02041048534442 0.645128775689447 -82.6592925458157 0.645128775689398 -82.6592925458087 0.66522376815944 6.37336132770275 
! Gamma         0                0                0                0                
! Port Impedance         50               0                50               0                
68.1                           0.665131769330608 6.21334826979053 0.645063083597416 -83.6469295297699 0.645063083597375 -83.6469295297635 0.665297697899568 5.56552022642274 
! Gamma         0                0                0                0                
! Port Impedance         50               0                50               0                
68.2                           0.664978989985231 5.4062612446062  0.645182574850678 -84.6348051721121 0.645182574850644 -84.6348051721065 0.665121183905736 4.75724248715492 
! Gamma         0                0                0                0                
! Port Impedance         50               0                50               0                
68.3                           0.664575789021466 4.59875118151337 0.645486891544533 -85.6235972621726 0.645486891544504 -85.6235972621677 0.664694156933428 3.94812794065706 
! Gamma         0                0                0                0                
! Port Impedance         50               0                50               0                
68.4                           0.663921620184752 3.79042274993061 0.645975683885633 -86.6139820988517 0.64597568388561 -86.6139820988481 0.664016015000338 3.13777791858905 
! Gamma         0                0                0                0                
! Port Impedance         50               0                50               0                
68.5                           0.663015407333218 2.9808843011099  0.646648606386874 -87.6066353323767 0.646648606386859 -87.6066353323738 0.663085625483278 2.325796017629   
! Gamma         0                0                0                0                
! Port Impedance         50               0                50               0                
68.6                           0.661855546045291 2.16974870875439 0.647505312336809 -88.6022327803954 0.647505312336799 -88.6022327803935 0.661901326414071 1.51178890848644 
! Gamma         0                0                0                0                
! Port Impedance         50               0                50               0                
68.7                           0.660439904510819 1.356634291227   0.648545446516737 -89.6014512134893 0.648545446516733 -89.6014512134885 0.660460927049391 0.695367214515526 
! Gamma         0                0                0                0                
! Port Impedance         50               0                50               0                
68.8                           0.658765823803743 0.541165841772167 0.64976863612266 -90.6049691048423 0.649768636122662 -90.6049691048424 0.658761707809111 -0.123853514230535 
! Gamma         0                0                0                0                
! Port Impedance         50               0                50               0                
68.9                           0.656830117655859 -0.277024204937014 0.651174479833843 -91.6134673383336 0.65117447983385 -91.6134673383349 0.656800419699035 -0.946251703966921 
! Gamma         0                0                0                0                
! Port Impedance         50               0                50               0                
69                             0.654629071874799 -1.09829443914324 0.652762534955037 -92.6276298687666 0.65276253495505 -92.627629868769 0.654573283357146 -1.77219850736397 
! Gamma         0                0                0                0                
! Port Impedance         50               0                50               0                
69.1                           0.652158443575611 -1.9229929413126 0.654532302545465 -93.6481443272557 0.654532302545482 -93.6481443272592 0.652075987888417 -2.60205636823563 
! Gamma         0                0                0                0                
! Port Impedance         50               0                50               0                
69.2                           0.649413460424663 -2.75145550860368 0.656483210434676 -94.6757025640066 0.656483210434699 -94.6757025640112 0.64930368968205 -3.4361773643932 
! Gamma         0                0                0                0                
! Port Impedance         50               0                50               0                
69.3                           0.646388820127669 -3.58400359997153 0.658614594013588 -95.7110011198224 0.658614594013615 -95.7110011198282 0.64625101143751 -4.27490128789541 
! Gamma         0                0                0                0                
! Port Impedance         50               0                50               0                
69.4                           0.643078690430851 -4.42094195169605 0.660925674678649 -96.7547416166438 0.66092567467868 -96.7547416166508 0.642912041662251 -5.11855341656935 
! Gamma         0                0                0                0                
! Port Impedance         50               0                50               0                
69.5                           0.639476709946391 -5.26255580829726 0.663415535798554 -97.8076310563042 0.663415535798588 -97.8076310563125 0.639280334945215 -5.96744192423234 
! Gamma         0                0                0                0                
! Port Impedance         50               0                50               0                
69.6                           0.635575990160677 -6.10910770565355 0.666083096066701 -98.8703820154279 0.666083096066738 -98.8703820154373 0.635348913356593 -6.82185486933866 
! Gamma         0                0                0                0                
! Port Impedance         50               0                50               0                
69.7                           0.631369119037381 -6.96083373340408 0.668927080099201 -99.9437127230513 0.668927080099241 -99.9437127230621 0.631110269376447 -7.68205669255051 
! Gamma         0                0                0                0                
! Port Impedance         50               0                50               0                
69.8                           0.626848166687448 -7.81793919208781 0.671945986138372 -101.028347006083 0.671945986138414 -101.028347006095 0.626556370813409 -8.54828414270596 
! Gamma         0                0                0                0                
! Port Impedance         50               0                50               0                
69.9                           0.622004693645348 -8.68059354656876 0.675138050726154 -102.125014086169 0.675138050726197 -102.125014086182 0.621678668239965 -9.420741537449  
! Gamma         0                0                0                0                
! Port Impedance         50               0                50               0                
70                             0.616829762366204 -9.5489245606084 0.678501210221618 -103.234448209902 0.678501210221662 -103.234448209917 0.616468105543833 -10.2995952489428 
! Gamma         0                0                0                0                
! Port Impedance         50               0                50               0                
70.1                           0.611313952642057 -10.4230114773799 0.682033059052893 -104.357388092621 0.682033059052939 -104.357388092637 0.610915134275748 -11.1849672859698 
! Gamma         0                0                0                0                
! Port Impedance         50               0                50               0                
70.2                           0.605447381728373 -11.3028770864657 0.685730804617593 -105.494576154348 0.685730804617638 -105.494576154365 0.605009732563446 -12.0769278206528 
! Gamma         0                0                0                0                
! Port Impedance         50               0                50               0                
70.3                           0.599219730074488 -12.1884784884645 0.689591218778655 -106.646757524681 0.689591218778701 -106.6467575247  0.598741429459904 -12.9754864799593 
! Gamma         0                0                0                0                
! Port Impedance         50               0                50               0                
70.4                           0.592620273664595 -13.0796963324534 0.693610585945929 -107.814678791841 0.693610585945973 -107.814678791861 0.592099335701661 -13.880582187898 
! Gamma         0                0                0                0                
! Port Impedance         50               0                50               0                
70.5                           0.585637924100036 -13.9763222575636 0.697784647789567 -108.999086469522 0.69778464778961 -108.999086469544 0.5850721819708  -14.7920713022573 
! Gamma         0                0                0                0                
! Port Impedance         50               0                50               0                
70.6                           0.57826127768938 -14.8780442156946 0.702108544701166 -110.200725153884 0.702108544701205 -110.200725153906 0.577648365881742 -15.7097137377547 
! Gamma         0                0                0                0                
! Port Impedance         50               0                50               0                
70.7                           0.570478674961743 -15.7844292850865 0.706576754204316 -111.420335341949 0.706576754204351 -111.420335341972 0.569816009053181 -16.6331567028528 
! Gamma         0                0                0                0                
! Port Impedance         50               0                50               0                
70.8                           0.562278272181796 -16.6949035004578 0.711183026619964 -112.658650882072 0.711183026619996 -112.658650882097 0.561563025775825 -17.5619155966351 
! Gamma         0                0                0                0                
! Port Impedance         50               0                50               0                
70.9                           0.553648126624589 -17.6087281197412 0.715920318414983 -113.916396026981 0.71592031841501 -113.916396027007 0.55287720495064 -18.4953515101535 
! Gamma         0                0                0                0                
! Port Impedance         50               0                50               0                
71                             0.544576297567604 -18.5249716137972 0.720780723806564 -115.194282060492 0.720780723806584 -115.194282060519 0.543746307151686 -19.4326446472553 
! Gamma         0                0                0                0                
! Port Impedance         50               0                50               0                
71.1                           0.535050965182038 -19.442476494959 0.725755405361128 -116.493003470413 0.725755405361144 -116.493003470442 0.534158178866991 -20.3727628142359 
! Gamma         0                0                0                0                
! Port Impedance         50               0                50               0                
71.2                           0.525060569762653 -20.3598198814572 0.730834524515092 -117.813233642614 0.730834524515098 -117.813233642644 0.524100886196186 -21.3144239142464 
! Gamma         0                0                0                0                
! Port Impedance         50               0                50               0                
71.3                           0.514593974039161 -21.2752664115897 0.736007173155284 -119.155620054963 0.736007173155281 -119.155620054993 0.513562870545919 -22.2560511049532 
! Gamma         0                0                0                0                
! Port Impedance         50               0                50               0                
71.4                           0.50364065168069 -22.186711752546 0.741261307627662 -120.520778955037 0.741261307627652 -120.520778955068 0.502533129180169 -23.1957189146853 
! Gamma         0                0                0                0                
! Port Impedance         50               0                50               0                
71.5                           0.492190905569226 -23.0916144643018 0.746583686790727 -121.909289512426 0.746583686790708 -121.909289512458 0.491001423878246 -24.1310881326085 
! Gamma         0                0                0                0                
! Port Impedance         50               0                50               0                
71.6                           0.480236120022389 -23.9869133380023 0.75195981598976 -123.32168744524 0.751959815989729 -123.321687445273 0.478958521469908 -25.0593266498272 
! Gamma         0                0                0                0                
! Port Impedance         50               0                50               0                
71.7                           0.46776905196    -24.8689264737719 0.757373899092191 -124.758458131432 0.757373899092149 -124.758458131466 0.46639647071607 -25.9770125709302 
! Gamma         0                0                0                0                
! Port Impedance         50               0                50               0                
71.8                           0.454784167134307 -25.7332272153062 0.762808800983059 -126.220029228731 0.762808800983005 -126.220029228766 0.453308920980148 -26.8800147546561 
! Gamma         0                0                0                0                
! Port Impedance         50               0                50               0                
71.9                           0.441278029134967 -26.5744905058958 0.768246023159696 -127.706762842627 0.768246023159628 -127.706762842662 0.439691489531984 -27.7633443571513 
! Gamma         0                0                0                0                
! Port Impedance         50               0                50               0                
72                             0.427249751167301 -27.3863011146895 0.773665695270542 -129.218947299828 0.773665695270463 -129.218947299863 0.425542186361572 -28.6209687681249 
! Gamma         0                0                0                0                
! Port Impedance         50               0                50               0                
72.1                           0.412701523930689 -28.1609122794255 0.779046585595344 -130.756788604928 0.779046585595252 -130.756788604963 0.410861908382726 -29.4455762976901 
! Gamma         0                0                0                0                
! Port Impedance         50               0                50               0                
72.2                           0.397639237813454 -28.8889393058458 0.784366133541123 -132.3204016803  0.784366133541017 -132.320401680336 0.395655019380138 -30.2282757246055 
! Gamma         0                0                0                0                
! Port Impedance         50               0                50               0                
72.3                           0.382073224854814 -29.5589671080842 0.789600507206709 -133.909801513178 0.789600507206586 -133.909801513214 0.379930038769404 -30.9582088219576 
! Gamma         0                0                0                0                
! Port Impedance         50               0                50               0                
72.4                           0.366019156693812 -30.1570429454001 0.794724688923173 -135.524894358708 0.79472468892304 -135.524894358743 0.36370047238871 -31.6220454560879 
! Gamma         0                0                0                0                
! Port Impedance         50               0                50               0                
72.5                           0.349499150843006 -30.6660148594092 0.799712591384172 -137.165469172683 0.799712591384026 -137.165469172719 0.346985833981361 -32.2033186805478 
! Gamma         0                0                0                0                
! Port Impedance         50               0                50               0                
72.6                           0.332543161866613 -31.0646614376078 0.804537206517218 -138.831189471575 0.804537206517056 -138.831189471611 0.329812929680397 -32.681539807114 
! Gamma         0                0                0                0                
! Port Impedance         50               0                50               0                
72.7                           0.315190770645893 -31.3265382309339 0.809170788597512 -140.521585838933 0.809170788597334 -140.521585838968 0.312217514288868 -33.0310085104139 
! Gamma         0                0                0                0                
! Port Impedance         50               0                50               0                
72.8                           0.29749354030685 -31.4184393140735 0.813585072261378 -142.236049314859 0.813585072261187 -142.236049314893 0.294246484801395 -33.2191977886943 
! Gamma         0                0                0                0                
! Port Impedance         50               0                50               0                
72.9                           0.279518191080356 -31.2983393129792 0.817751525038443 -143.973825917249 0.817751525038246 -143.973825917282 0.275960865031333 -33.2045451658656 
! Gamma         0                0                0                0                
! Port Impedance         50               0                50               0                
73                             0.261350971707213 -30.91264652012  0.821641632806215 -145.734012548194 0.821641632806001 -145.734012548227 0.257439973372823 -32.9334190734865 
! Gamma         0                0                0                0                
! Port Impedance         50               0                50               0                
73.1                           0.243103788312061 -30.1925791866191 0.825227215208908 -147.515554534714 0.82522721520869 -147.515554534745 0.238787380078589 -32.3359610017988 
! Gamma         0                0                0                0                
! Port Impedance         50               0                50               0                
73.2                           0.22492290528349 -29.0495258886729 0.82848076662368 -149.317245038315 0.828480766623446 -149.317245038345 0.220139584804678 -31.3204662024726 
! Gamma         0                0                0                0                
! Port Impedance         50               0                50               0                
73.3                           0.207001338584211 -27.3694993078833 0.831375816766971 -151.137726541813 0.831375816766735 -151.137726541842 0.201678805122439 -29.7660751728901 
! Gamma         0                0                0                0                
! Port Impedance         50               0                50               0                
73.4                           0.18959629077938 -25.0075549171791 0.833887303594379 -152.975494583753 0.83388730359413 -152.97549458378 0.183651812461346 -27.5141313415151 
! Gamma         0                0                0                0                
! Port Impedance         50               0                50               0                
73.5                           0.173052671915211 -21.7849880976502 0.83599194985074 -154.828903860846 0.835991949850494 -154.828903860871 0.166397034709673 -24.3604391180474 
! Gamma         0                0                0                0                
! Port Impedance         50               0                50               0                
73.6                           0.157831643560104 -17.4963678231303 0.837668633573234 -156.696176758072 0.837668633572982 -156.696176758096 0.150380887563186 -20.0556008180732 
! Gamma         0                0                0                0                
! Port Impedance         50               0                50               0                
73.7                           0.14453643647322 -11.9407826012571 0.838898742133772 -158.575414296266 0.838898742133522 -158.575414296289 0.136237937182804 -14.3312063702808 
! Gamma         0                0                0                0                
! Port Impedance         50               0                50               0                
73.8                           0.133912681242546 -4.99808758808484 0.839666499114388 -160.4646094108  0.83966649911414 -160.464609410822 0.12479105390732 -6.9845670314913 
! Gamma         0                0                0                0                
! Port Impedance         50               0                50               0                
73.9                           0.126779905645882 3.24258126571179 0.839959253503217 -162.361662395871 0.839959253502979 -162.361662395891 0.116993785445612 1.94971544480956 
! Gamma         0                0                0                0                
! Port Impedance         50               0                50               0                
74                             0.123853751201779 12.3596581630976 0.839767721415314 -164.264398270819 0.83976772141509 -164.264398270836 0.113721209610838 11.9997610030673 
! Gamma         0                0                0                0                
! Port Impedance         50               0                50               0                
74.1                           0.125497689833828 21.6237294745129 0.839086171779422 -166.170585752238 0.839086171779208 -166.170585752253 0.115434332408111 22.2497725653801 
! Gamma         0                0                0                0                
! Port Impedance         50               0                50               0                
74.2                           0.131566011290629 30.2459591344269 0.837912549149776 -168.077957452582 0.837912549149574 -168.077957452596 0.121951105188066 31.6908677323693 
! Gamma         0                0                0                0                
! Port Impedance         50               0                50               0                
74.3                           0.141476470651278 37.6769957094548 0.836248528920618 -169.984230876459 0.836248528920438 -169.984230876471 0.132550128336787 39.6614192040768 
! Gamma         0                0                0                0                
! Port Impedance         50               0                50               0                
74.4                           0.154443993794291 43.7162630069033 0.834099502627293 -171.887129753021 0.834099502627123 -171.887129753031 0.146297110207279 45.9778579613845 
! Gamma         0                0                0                0                
! Port Impedance         50               0                50               0                
74.5                           0.169695797680062 48.4244271490763 0.831474493572728 -173.784405228891 0.831474493572591 -173.784405228899 0.162317455882603 50.776425051574  
! Gamma         0                0                0                0                
! Port Impedance         50               0                50               0                
74.6                           0.186579404119256 51.9849193246231 0.828386005568885 -175.673856451897 0.828386005568764 -175.673856451903 0.17990815762544 54.3149592366552 
! Gamma         0                0                0                0                
! Port Impedance         50               0                50               0                
74.7                           0.204583926956524 54.6073394026246 0.824849809975904 -177.553350101109 0.824849809975803 -177.553350101114 0.198541477744776 56.8559114292593 
! Gamma         0                0                0                0                
! Port Impedance         50               0                50               0                
74.8                           0.223321667858837 56.4821919158467 0.820884678319459 -179.420838461612 0.820884678319397 -179.420838461614 0.217830026369962 58.6221359553559 
! Gamma         0                0                0                0                
! Port Impedance         50               0                50               0                
74.9                           0.242500341231034 57.7671141181587 0.816512069452327 178.725624299673 0.816512069452285 178.725624299672 0.237488897965783 59.7894896457933 
! Gamma         0                0                0                0                
! Port Impedance         50               0                50               0                
75                             0.261898216278773 58.5872154074299 0.81175578142201 176.88786793154  0.811755781421996 176.88786793154  0.257305739956093 60.4927321089517 
! Gamma         0                0                0                0                
! Port Impedance         50               0                50               0                
75.1                           0.281345101357696 59.0401228025419 0.806641578870671 175.067594167538 0.806641578870697 175.067594167539 0.277119513451297 60.834255675431  
! Gamma         0                0                0                0                
! Port Impedance         50               0                50               0                
75.2                           0.300708681154305 59.2017019386438 0.801196806925792 173.266367185356 0.80119680692584 173.266367185358 0.296806012310492 60.8920044279345 
! Gamma         0                0                0                0                
! Port Impedance         50               0                50               0                
75.3                           0.319884923778191 59.1310589432916 0.795450002177181 171.485606497574 0.795450002177277 171.485606497577 0.316268083657582 60.7257271978366 
! Gamma         0                0                0                0                
! Port Impedance         50               0                50               0                
75.4                           0.338791364171628 58.8745203256126 0.789430510544043 169.726582241963 0.789430510544162 169.726582241968 0.335428981092026 60.381653506974  
! Gamma         0                0                0                0                
! Port Impedance         50               0                50               0                
75.5                           0.357362358707361 58.4686735985201 0.783168120702271 167.99041277471  0.783168120702428 167.990412774715 0.354227774830015 59.8959161847193 
! Gamma         0                0                0                0                
! Port Impedance         50               0                50               0                
75.6                           0.375545676002066 57.9426511019765 0.776692720367979 166.278064415377 0.776692720368164 166.278064415383 0.372616110999501 59.2970420961467 
! Gamma         0                0                0                0                
! Port Impedance         50               0                50               0                
75.7                           0.393299993247872 57.3198367766358 0.770033981218623 164.590353149368 0.770033981218842 164.590353149374 0.390555861396615 58.6077687818375 
! Gamma         0                0                0                0                
! Port Impedance         50               0                50               0                
75.8                           0.410593010029471 56.6191436278608 0.763221076676306 162.927948062621 0.763221076676561 162.927948062628 0.408017367365191 57.8463781881339 
! Gamma         0                0                0                0                
! Port Impedance         50               0                50               0                
75.9                           0.427399987907341 55.8559748887321 0.756282435261435 161.291376264013 0.756282435261714 161.29137626402  0.424978085901664 57.0276846405827 
! Gamma         0                0                0                0                
! Port Impedance         50               0                50               0                
76                             0.443702588150114 55.0429525518429 0.749245530818546 159.681029042519 0.749245530818858 159.681029042525 0.44142151314157 56.1637741725038 
! Gamma         0                0                0                0                
! Port Impedance         50               0                50               0                
76.1                           0.459487922456399 54.1904743286832 0.742136709668496 158.097169007392 0.742136709668836 158.097169007399 0.457336303561432 55.2645637632982 
! Gamma         0                0                0                0                
! Port Impedance         50               0                50               0                
76.2                           0.474747759605706 53.3071433751929 0.734981053684985 156.53993796881  0.734981053685355 156.539937968817 0.472715531158188 54.3382290017452 
! Gamma         0                0                0                0                
! Port Impedance         50               0                50               0                
76.3                           0.489477849589201 52.4001029936532 0.727802277443544 155.00936533189  0.727802277443941 155.009365331896 0.487556057008739 53.3915346990027 
! Gamma         0                0                0                0                
! Port Impedance         50               0                50               0                
76.4                           0.503677339102896 51.4752997939272 0.720622656947893 153.505376797067 0.720622656948316 153.505376797073 0.501857979425262 52.4300931997616 
! Gamma         0                0                0                0                
! Port Impedance         50               0                50               0                
76.5                           0.517348260454308 50.5376925281421 0.713462986992224 152.027803182881 0.713462986992663 152.027803182886 0.515624150618664 51.4585682791505 
! Gamma         0                0                0                0                
! Port Impedance         50               0                50               0                
76.6                           0.530495081333916 49.591419301529  0.706342563948939 150.57638921182  0.706342563949407 150.576389211824 0.528859748786811 50.4808376682873 
! Gamma         0                0                0                0                
! Port Impedance         50               0                50               0                
76.7                           0.543124306460599 48.6399326021056 0.699279190656823 149.150802124877 0.699279190657308 149.150802124881 0.541571897784595 49.5001238052613 
! Gamma         0                0                0                0                
! Port Impedance         50               0                50               0                
76.8                           0.555244124446921 47.6861092235461 0.692289200096947 147.750640014815 0.69228920009745 147.750640014819 0.553769328616703 48.5190999378433 
! Gamma         0                0                0                0                
! Port Impedance         50               0                50               0                
76.9                           0.566864094756937 46.7323404242011 0.685387494657852 146.375439791165 0.685387494658369 146.375439791168 0.565462078325295 47.5399769186535 
! Gamma         0                0                0                0                
! Port Impedance         50               0                50               0                
77                             0.577994870627973 45.7806063909907 0.678587597980151 145.024684711115 0.678587597980679 145.024684711117 0.576661222690977 46.5645747323193 
! Gamma         0                0                0                0                
! Port Impedance         50               0                50               0                
77.1                           0.588647954482472 44.8325381325869 0.671901716612577 143.697811429393 0.671901716613121 143.697811429394 0.587378639702155 45.5943818381457 
! Gamma         0                0                0                0                
! Port Impedance         50               0                50               0                
77.2                           0.598835482794843 43.8894692212665 0.66534080898532 142.394216536819 0.665340808985877 142.394216536819 0.597626801094913 44.630604703489  
! Gamma         0                0                0                0                
! Port Impedance         50               0                50               0                
77.3                           0.608570037680287 42.9524792727072 0.658914659495847 141.113262571362 0.65891465949641 141.113262571361 0.607418589496956 43.6742093740342 
! Gamma         0                0                0                0                
! Port Impedance         50               0                50               0                
77.4                           0.617864482695619 42.0224306512872 0.652631955794258 139.854283497406 0.652631955794831 139.854283497404 0.61676713887687 42.7259565287258 
! Gamma         0                0                0                0                
! Port Impedance         50               0                50               0                
77.5                           0.626731820517447 41.0999995818052 0.646500367638695 138.616589658524 0.646500367639274 138.616589658521 0.625685696131862 41.7864311646335 
! Gamma         0                0                0                0                
! Port Impedance         50               0                50               0                
77.6                           0.635185070314274 40.1857026126648 0.640526625959485 137.399472216734 0.640526625960067 137.39947221673  0.634187501765094 40.8560678254397 
! Gamma         0                0                0                0                
! Port Impedance         50               0                50               0                
77.7                           0.643237162767631 39.2799191926694 0.634716601018138 136.202207096998 0.634716601018734 136.202207096992 0.642285687715099 39.935172108522  
! Gamma         0                0                0                0                
! Port Impedance         50               0                50               0                
77.8                           0.650900850830285 38.3829109807601 0.629075378771347 135.02405846     0.629075378771939 135.024058459994 0.649993190512297 39.0239390465437 
! Gamma         0                0                0                0                
! Port Impedance         50               0                50               0                
77.9                           0.658188634440449 37.4948383955297 0.623607334749007 133.864281729127 0.623607334749595 133.86428172912  0.657322678051628 38.1224688503323 
! Gamma         0                0                0                0                
! Port Impedance         50               0                50               0                
78                             0.665112697539801 36.6157748221725 0.618316204929359 132.722126199349 0.618316204929947 132.722126199341 0.664286488385979 37.2307804135782 
! Gamma         0                0                0                0                
! Port Impedance         50               0                50               0                
78.1                           0.671684855871236 35.7457188231777 0.613205153243647 131.596837256502 0.613205153244233 131.596837256493 0.670896579063042 36.3488229110781 
! Gamma         0                0                0                0                
! Port Impedance         50               0                50               0                
78.2                           0.677916514157048 34.8846046416812 0.608276835469386 130.487658235579 0.608276835469974 130.487658235569 0.677164485643981 35.4764857669994 
! Gamma         0                0                0                0                
! Port Impedance         50               0                50               0                
78.3                           0.683818631379457 34.0323112397987 0.603533459376842 129.393831946047 0.60353345937742 129.393831946036 0.683101288157507 34.6136072249129 
! Gamma         0                0                0                0                
! Port Impedance         50               0                50               0                
78.4                           0.689401693001968 33.1886700762336 0.598976841079438 128.314601891285 0.59897684108001 128.314601891273 0.688717584353449 33.7599817148741 
! Gamma         0                0                0                0                
! Port Impedance         50               0                50               0                
78.5                           0.694675689080468 32.3534717961859 0.594608457608442 127.249213207851 0.594608457609012 127.249213207839 0.694023468726223 32.9153661828961 
! Gamma         0                0                0                0                
! Port Impedance         50               0                50               0                
78.6                           0.699650097316673 31.5264719807222 0.590429495786497 126.196913348736 0.590429495787051 126.196913348723 0.699028516378829 32.0794855234191 
! Gamma         0                0                0                0                
! Port Impedance         50               0                50               0                
78.7                           0.704333870203125 30.7073960812673 0.586440897516247 125.156952533035 0.586440897516797 125.156952533021 0.703741770891345 31.2520372348443 
! Gamma         0                0                0                0                
! Port Impedance         50               0                50               0                
78.8                           0.708735425497716 29.8959436468811 0.582643401631145 124.128583982616 0.58264340163168 124.128583982602 0.708171735444826 30.4326954010076 
! Gamma         0                0                0                0                
! Port Impedance         50               0                50               0                
78.9                           0.71286263934705 29.0917919368872 0.579037582476413 123.111063964515 0.579037582476937 123.1110639645   0.712326366530281 29.6211140870676 
! Gamma         0                0                0                0                
! Port Impedance         50               0                50               0                
79                             0.716722841451044 28.2945989986804 0.575623885402177 122.103651655906 0.575623885402691 122.10365165589  0.716213069644569 28.8169302261257 
! Gamma         0                0                0                0                
! Port Impedance         50               0                50               0                
79.1                           0.720322811727244 27.5040062797657 0.572402659357682 121.105608846641 0.572402659358178 121.105608846625 0.719838696439321 28.0197660626263 
! Gamma         0                0                0                0                
! Port Impedance         50               0                50               0                
79.2                           0.723668777991585 26.7196408339488 0.56937418677745 120.116199492603 0.569374186777934 120.116199492586 0.723209542846459 27.2292312098835 
! Gamma         0                0                0                0                
! Port Impedance         50               0                50               0                
79.3                           0.726766414224003 25.9411171738406 0.566538710948028 119.134689131322 0.566538710948497 119.134689131305 0.72633134775464 26.4449243716826 
! Gamma         0                0                0                0                
! Port Impedance         50               0                50               0                
79.4                           0.729620839031964 25.1680388152598 0.563896461037836 118.160344169753 0.563896461038284 118.160344169736 0.729209291854858 25.6664347716561 
! Gamma         0                0                0                0                
! Port Impedance         50               0                50               0                
79.5                           0.732236613963872 24.3999995535288 0.561447674964327 117.192431052465 0.561447674964763 117.192431052447 0.731847996311859 24.8933433288064 
! Gamma         0                0                0                0                
! Port Impedance         50               0                50               0                
79.6                           0.73461774135717 23.6365845069527 0.559192620261537 116.230215317088 0.559192620261954 116.23021531707  0.734251520950228 24.1252236130932 
! Gamma         0                0                0                0                
! Port Impedance         50               0                50               0                
79.7                           0.736767661433487 22.8773709588135 0.557131613098475 115.272960542442 0.557131613098868 115.272960542425 0.736423361671429 23.3616426112466 
! Gamma         0                0                0                0                
! Port Impedance         50               0                50               0                
79.8                           0.738689248376066 22.1219290259337 0.555265035584411 114.319927193495 0.55526503558479 114.319927193478 0.738366446840459 22.6021613298759 
! Gamma         0                0                0                0                
! Port Impedance         50               0                50               0                
79.9                           0.740384805142817 21.3698221791928 0.553593351481582 113.370371366085 0.553593351481938 113.370371366068 0.740083132398814 21.8463352604402 
! Gamma         0                0                0                0                
! Port Impedance         50               0                50               0                
80                             0.74185605678259 20.6206076392717 0.552117120428674 112.423543433218 0.55211712042901 112.423543433202 0.741575195474488 21.0937147286828 
! Gamma         0                0                0                0                
! Port Impedance         50               0                50               0                
80.1                           0.743104142032728 19.8738366693168 0.550837010760523 111.478686593712 0.550837010760835 111.478686593696 0.742843826270189 20.3438451496844 
! Gamma         0                0                0                0                
! Port Impedance         50               0                50               0                
80.2                           0.744129602983202 19.1290547851382 0.549753810989735 110.535035322993 0.549753810990028 110.535035322978 0.74388961801808 19.5962672087387 
! Gamma         0                0                0                0                
! Port Impedance         50               0                50               0                
80.3                           0.744932372596919 18.3858019029944 0.548868439995248 109.591813724981 0.548868439995516 109.591813724966 0.744712554793765 18.8505169878054 
! Gamma         0                0                0                0                
! Port Impedance         50               0                50               0                
80.4                           0.745511759877622 17.6436124449561 0.548181955939946 108.648233783194 0.548181955940187 108.64823378318  0.745311996984098 18.1061260573511 
! Gamma         0                0                0                0                
! Port Impedance         50               0                50               0                
80.5                           0.745866432476501 16.9020154223379 0.547695563915277 107.703493508508 0.547695563915495 107.703493508495 0.745686664203272 17.3626215539949 
! Gamma         0                0                0                0                
! Port Impedance         50               0                50               0                
80.6                           0.74599439652678 16.1605345187593 0.54741062228365 106.756774980382 0.547410622283842 106.75677498037  0.745834615449967 16.6195262655531 
! Gamma         0                0                0                0                
! Port Impedance         50               0                50               0                
80.7                           0.745892973492458 15.4186881961306 0.54732864765998 105.807242277857 0.547328647660147 105.807242277846 0.745753226295603 15.876358746927  
! Gamma         0                0                0                0                
! Port Impedance         50               0                50               0                
80.8                           0.745558773813932 14.6759898493146 0.547451318440795 104.854039296262 0.547451318440931 104.854039296253 0.745439162890544 15.1326334928505 
! Gamma         0                0                0                0                
! Port Impedance         50               0                50               0                
80.9                           0.744987667129847 13.9319480385428 0.547780476752542 103.89628744529  0.547780476752652 103.896287445283 0.744888352572268 14.3878611969565 
! Gamma         0                0                0                0                
! Port Impedance         50               0                50               0                
81                             0.744174748852371 13.1860668329612 0.548318128649347 102.933083224054 0.548318128649424 102.933083224049 0.744095950857829 13.6415491310616 
! Gamma         0                0                0                0                
! Port Impedance         50               0                50               0                
81.1                           0.743114302872977 12.4378463041801 0.549066442343533 101.96349566884  0.549066442343582 101.963495668836 0.743056304603521 12.893201684205  
! Gamma         0                0                0                0                
! Port Impedance         50               0                50               0                
81.2                           0.741799760179399 11.6867832156009 0.550027744199157 100.986563669654 0.55002774419918 100.986563669652 0.741762911119028 12.1423211080401 
! Gamma         0                0                0                0                
! Port Impedance         50               0                50               0                
81.3                           0.740223653173164 10.9323719618929 0.551204512157882 100.001293152327 0.55120451215787 100.001293152328 0.740208373033013 11.3884085239611 
! Gamma         0                0                0                0                
! Port Impedance         50               0                50               0                
81.4                           0.738377565493364 10.1741058236741 0.552599366197459 99.0066541239887 0.55259936619742 99.0066541239916 0.738384348724509 10.6309652582325 
! Gamma         0                0                0                0                
! Port Impedance         50               0                50               0                
81.5                           0.736252077178738 9.41147861563984 0.554215055343762 98.0015775812035 0.554215055343688 98.0015775812094 0.736281498162258 9.86949458481235 
! Gamma         0                0                0                0                
! Port Impedance         50               0                50               0                
81.6                           0.733836705040278 8.64398682268458 0.556054440666766 96.9849522821546 0.556054440666664 96.9849522821629 0.733889424035924 9.10350397213877 
! Gamma         0                0                0                0                
! Port Impedance         50               0                50               0                
81.7                           0.731119838174738 7.87113233866916 0.558120473587619 95.9556213869542 0.558120473587489 95.955621386965  0.731196608123242 8.33250795056021 
! Gamma         0                0                0                0                
! Port Impedance         50               0                50               0                
81.8                           0.728088668631346 7.09242594731839 0.560416168706012 94.9123789737977 0.560416168705848 94.9123789738115 0.728190342921479 7.55603174229131 
! Gamma         0                0                0                0                
! Port Impedance         50               0                50               0                
81.9                           0.724729117356516 6.30739171541816 0.562944570223459 93.8539664432551 0.562944570223259 93.8539664432725 0.72485665868693 6.77361582687468 
! Gamma         0                0                0                0                
! Port Impedance         50               0                50               0                
82                             0.721025755693448 5.5155725064633  0.565708710886803 92.7790688288793 0.565708710886572 92.7790688288997 0.721180246181813 5.98482165359512 
! Gamma         0                0                0                0                
! Port Impedance         50               0                50               0                
82.1                           0.716961722916213 4.71653687000928 0.568711562206332 91.6863110396858 0.568711562206067 91.68631103971   0.717144375634777 5.18923875995817 
! Gamma         0                0                0                0                
! Port Impedance         50               0                50               0                
82.2                           0.712518640545063 3.90988762052864 0.571955974513319 90.5742540692753 0.57195597451302 90.5742540693038 0.712730812693661 4.38649361453125 
! Gamma         0                0                0                0                
! Port Impedance         50               0                50               0                
82.3                           0.707676524538848 3.09527249254117 0.575444605212435 89.441391217785  0.575444605212103 89.4413912178174 0.70791973250456 3.57626057615286 
! Gamma         0                0                0                0                
! Port Impedance         50               0                50               0                
82.4                           0.702413696913001 2.27239734999476 0.579179833356204 88.2861443868695 0.579179833355841 88.2861443869057 0.702689633511667 2.75827545354983 
! Gamma         0                0                0                0                
! Port Impedance         50               0                50               0                
82.5                           0.696706698914583 1.44104254226634 0.583163658423745 87.1068605250835 0.583163658423347 87.1068605251243 0.697017253165056 1.93235226471892 
! Gamma         0                0                0                0                
! Port Impedance         50               0                50               0                
82.6                           0.69053020863269 0.601083143123324 0.587397580929289 85.9018083217879 0.587397580928858 85.901808321833  0.690877488482312 1.09840394039139 
! Gamma         0                0                0                0                
! Port Impedance         50               0                50               0                
82.7                           0.683856966874282 -0.247486009064532 0.59188246222502 84.6691752727556 0.591882462224554 84.6691752728063 0.684243325376716 0.256467898870747 
! Gamma         0                0                0                0                
! Port Impedance         50               0                50               0                
82.8                           0.676657716343126 -1.10451932067167 0.596618360609607 83.4070652705527 0.596618360609114 83.4070652706079 0.677085781890899 -0.593262348583671 
! Gamma         0                0                0                0                
! Port Impedance         50               0                50               0                
82.9                           0.668901160685552 -1.96968205808474 0.601604340626401 82.1134969081654 0.601604340625879 82.1134969082256 0.669373872024599 -1.45039810745517 
! Gamma         0                0                0                0                
! Port Impedance         50               0                50               0                
83                             0.660553951888351 -2.84240274788111 0.606838252258313 80.7864027259335 0.606838252257761 80.786402725999  0.661074598796354 -2.31430709269917 
! Gamma         0                0                0                0                
! Port Impedance         50               0                50               0                
83.1                           0.651580716926119 -3.72181405459108 0.612316476635752 79.4236296799607 0.612316476635174 79.4236296800323 0.65215298762877 -3.18405338677893 
! Gamma         0                0                0                0                
! Port Impedance         50               0                50               0                
83.2                           0.641944137575311 -4.60667919823408 0.618033634915757 78.0229411653036 0.618033634915154 78.0229411653809 0.642572174214739 -4.05832281716781 
! Gamma         0                0                0                0                
! Port Impedance         50               0                50               0                
83.3                           0.631605101086106 -5.495300151362  0.623982257227496 76.582020989134  0.62398225722687 76.5820209892171 0.632293564856806 -4.93532999037664 
! Gamma         0                0                0                0                
! Port Impedance         50               0                50               0                
83.4                           0.620522944115133 -6.38540277520821 0.630152409090761 75.0984797573219 0.630152409090115 75.098479757411  0.621277092061372 -5.81270215003417 
! Gamma         0                0                0                0                
! Port Impedance         50               0                50               0                
83.5                           0.608655818208147 -7.27399262627247 0.636531273600367 73.5698642108253 0.636531273599706 73.5698642109198 0.609481594153719 -6.68733361775719 
! Gamma         0                0                0                0                
! Port Impedance         50               0                50               0                
83.6                           0.595961212491972 -8.15717326284081 0.643102689050953 71.9936701235542 0.643102689050279 71.993670123655  0.596865355173902 -7.55520270818904 
! Gamma         0                0                0                0                
! Port Impedance         50               0                50               0                
83.7                           0.582396678509244 -9.02991633112205 0.649846643696248 70.3673594466241 0.649846643695567 70.3673594467312 0.583386850741411 -8.41114051970929 
! Gamma         0                0                0                0                
! Port Impedance         50               0                50               0                
83.8                           0.567920813896246 -9.88576927056697 0.656738732152176 68.6883824489784 0.656738732151488 68.6883824490917 0.569005757529216 -9.24853766503798 
! Gamma         0                0                0                0                
! Port Impedance         50               0                50               0                
83.9                           0.552494576717438 -10.7164818123156 0.663749581729242 66.9542056523017 0.663749581728556 66.9542056524216 0.553684299315359 -10.0589705161491 
! Gamma         0                0                0                0                
! Port Impedance         50               0                50               0                
84                             0.536083022008588 -11.5115260964563 0.670844261869692 65.1623463769706 0.670844261869011 65.1623463770963 0.537389022542415 -10.831722489717 
! Gamma         0                0                0                0                
! Port Impedance         50               0                50               0                
84.1                           0.51865757840569 -12.2574765970311 0.677981695981281 63.3104146897912 0.677981695980613 63.3104146899236 0.520093120821186 -11.5531677756533 
! Gamma         0                0                0                0                
! Port Impedance         50               0                50               0                
84.2                           0.500199018703726 -12.9372043622947 0.685114102330988 61.3961634542565 0.685114102330339 61.3961634543943 0.501779463795181 -12.2059741096941 
! Gamma         0                0                0                0                
! Port Impedance         50               0                50               0                
84.3                           0.480701328572315 -13.5288245285763 0.692186499174103 59.417547007225  0.692186499173486 59.4175470073697 0.482444535735186 -12.7680671553684 
! Gamma         0                0                0                0                
! Port Impedance         50               0                50               0                
84.4                           0.460176749839914 -14.0043160819436 0.699136318615872 57.3727886976714 0.699136318615288 57.3727886978219 0.462103559957146 -13.2112816850349 
! Gamma         0                0                0                0                
! Port Impedance         50               0                50               0                
84.5                           0.43866237983489 -14.3277090459157 0.705893183201271 55.2604570989238 0.705893183200728 55.260457099079  0.4407971865179  -13.4996054423228 
! Gamma         0                0                0                0                
! Port Impedance         50               0                50               0                
84.6                           0.416228861836984 -14.4527109137026 0.712378907887938 53.0795501256854 0.712378907887452 53.0795501258458 0.418600265734976 -13.5869058648232 
! Gamma         0                0                0                0                
! Port Impedance         50               0                50               0                
84.7                           0.392991922569385 -14.3196350712011 0.718507796421462 50.8295855409582 0.718507796421029 50.8295855411227 0.395633432703037 -13.4140335379269 
! Gamma         0                0                0                0                
! Port Impedance         50               0                50               0                
84.8                           0.369127814061723 -13.8515366658304 0.724187303306708 48.5106954337704 0.724187303306348 48.5106954339382 0.372078491626458 -12.9052591608201 
! Gamma         0                0                0                0                
! Port Impedance         50               0                50               0                
84.9                           0.344894075202608 -12.949648260313 0.729319128325005 46.1237212202506 0.729319128324718 46.1237212204217 0.348198871852987 -11.9642159787252 
! Gamma         0                0                0                0                
! Port Impedance         50               0                50               0                
85                             0.320657289075351 -11.4887495117014 0.733800797571619 43.6703046371284 0.733800797571416 43.670304637302  0.324366548479326 -10.470088769497 
! Gamma         0                0                0                0                
! Port Impedance         50               0                50               0                
85.1                           0.296929152442954 -9.31443638811354 0.73752776131542 41.1529691671687 0.737527761315306 41.1529691673432 0.301096228963211 -8.27610401061327 
! Gamma         0                0                0                0                
! Port Impedance         50               0                50               0                
85.2                           0.274409774197467 -6.24710769154878 0.740396003592093 38.5751855096888 0.740396003592075 38.5751855098636 0.27908492228475 -5.21502651034244 
! Gamma         0                0                0                0                
! Port Impedance         50               0                50               0                
85.3                           0.254029552585243 -2.10248795994187 0.742305111963145 35.9414142650518 0.742305111963218 35.9414142652263 0.259247424503278 -1.12066586087583 
! Gamma         0                0                0                0                
! Port Impedance         50               0                50               0                
85.4                           0.236963526395019 3.25612692606224 0.743161701226505 33.2571191268536 0.743161701226679 33.2571191270265 0.242722113599138 4.12180036890923 
! Gamma         0                0                0                0                
! Port Impedance         50               0                50               0                
85.5                           0.224564702033482 9.82325195934117 0.742883027621002 30.5287447288926 0.742883027621272 30.5287447290621 0.230798492393074 10.4899971459616 
! Gamma         0                0                0                0                
! Port Impedance         50               0                50               0                
85.6                           0.218150705904404 17.3396905404728 0.741400578240452 27.7636549651968 0.741400578240807 27.7636549653619 0.22471240466929 17.7293381118654 
! Gamma         0                0                0                0                
! Port Impedance         50               0                50               0                
85.7                           0.218645947301801 25.2567068012839 0.738663383458471 24.9700300652715 0.738663383458912 24.9700300654316 0.225320012760252 25.3293548030485 
! Gamma         0                0                0                0                
! Port Impedance         50               0                50               0                
85.8                           0.226247634490872 32.8734442798179 0.734640787400512 22.1567237950746 0.734640787401023 22.1567237952278 0.232802566008916 32.6485902721078 
! Gamma         0                0                0                0                
! Port Impedance         50               0                50               0                
85.9                           0.240363076303195 39.5916332443201 0.729324429626033 19.333085552196  0.729324429626614 19.3330855523423 0.246612149648938 39.1362001697826 
! Gamma         0                0                0                0                
! Port Impedance         50               0                50               0                
86                             0.259864354182259 45.0901050153035 0.722729242272501 16.5087554041539 0.722729242273137 16.5087554042922 0.2656959908801  44.4859574630549 
! Gamma         0                0                0                0                
! Port Impedance         50               0                50               0                
86.1                           0.283448688324188 49.3206251212463 0.714893346988064 13.6934428127186 0.714893346988728 13.6934428128474 0.288820359424386 48.6385851272918 
! Gamma         0                0                0                0                
! Port Impedance         50               0                50               0                
86.2                           0.309896499735076 52.4025040049111 0.705876835053634 10.8967014762208 0.705876835054327 10.896701476341  0.314811955980562 51.6929780269008 
! Gamma         0                0                0                0                
! Port Impedance         50               0                50               0                
86.3                           0.338181822198326 54.5199607369727 0.695759517855727 8.12771313081547 0.695759517856425 8.12771313092532 0.342669305798901 53.8145534925636 
! Gamma         0                0                0                0                
! Port Impedance         50               0                50               0                
86.4                           0.367486756217492 55.8609106034264 0.684637827667035 5.39509221242492 0.684637827667726 5.39509221252442 0.371584353450119 55.1775656199848 
! Gamma         0                0                0                0                
! Port Impedance         50               0                50               0                
86.5                           0.39717606024766 56.5908402528196 0.672621116990103 2.70672114926227 0.672621116990786 2.70672114935234 0.400923587911693 55.9386808114792 
! Gamma         0                0                0                0                
! Port Impedance         50               0                50               0                
86.6                           0.426763118373115 56.8461295354937 0.659827639979615 0.0696230722124967 0.659827639980245 0.0696230722904542 0.4301982636713  56.2289624136935 
! Gamma         0                0                0                0                
! Port Impedance         50               0                50               0                
86.7                           0.455879271644376 56.7357253566655 0.64638049961058 -2.51012465264183 0.646380499611179 -2.51012465257314 0.459036089141606 56.1543061399064 
! Gamma         0                0                0                0                
! Port Impedance         50               0                50               0                
86.8                           0.484249242880832 56.3454686104958 0.63240381344608 -5.02743598583852 0.632403813446616 -5.02743598578056 0.487157826121265 55.7988851634185 
! Gamma         0                0                0                0                
! Port Impedance         50               0                50               0                
86.9                           0.511672093446104 55.7426576474985 0.618019297741666 -7.47822365690534 0.618019297742146 -7.47822365685625 0.514358773467308 55.2291480469992 
! Gamma         0                0                0                0                
! Port Impedance         50               0                50               0                
87                             0.538006421308526 54.9800153584228 0.60334340493357 -9.85937343351209 0.603343404933977 -9.85937343347282 0.540494163864751 54.4974405322072 
! Gamma         0                0                0                0                
! Port Impedance         50               0                50               0                
87.1                           0.563158640803212 54.098889218478  0.588485083661163 -12.168691505085 0.588485083661494 -12.1686915050547 0.565467486778381 53.6449998732326 
! Gamma         0                0                0                0                
! Port Impedance         50               0                50               0                
87.2                           0.587073499668155 53.1317515640771 0.573544171596088 -14.4048318162128 0.57354417159634 -14.4048318161907 0.589220981192038 52.704334181555  
! Gamma         0                0                0                0                
! Port Impedance         50               0                50               0                
87.3                           0.609726268829083 52.1041296585962 0.558610384678403 -16.5672100619901 0.558610384678573 -16.5672100619757 0.611727776502946 51.7010820546417 
! Gamma         0                0                0                0                
! Port Impedance         50               0                50               0                
87.4                           0.631116238708892 51.036092611447  0.543762834023416 -18.6559104384278 0.543762834023507 -18.6559104384205 0.632985335175113 50.6554588803843 
! Gamma         0                0                0                0                
! Port Impedance         50               0                50               0                
87.5                           0.651261281530448 49.9434005644641 0.529069983384257 -20.6715903136717 0.529069983384273 -20.6715903136705 0.653009965025437 49.5833829616441 
! Gamma         0                0                0                0                
! Port Impedance         50               0                50               0                
87.6                           0.670193313141294 48.8383979080533 0.51458995359615 -22.6153869190192 0.514589953596087 -22.6153869190243 0.6718322376036  48.4973559808098 
! Gamma         0                0                0                0                
! Port Impedance         50               0                50               0                
87.7                           0.687954529338515 47.7307121090984 0.50037108303207 -24.4888290864129 0.500371083031932 -24.4888290864232 0.68949318808288 47.407155112793  
! Gamma         0                0                0                0                
! Port Impedance         50               0                50               0                
87.8                           0.704594314367415 46.6278040278803 0.48645266177189 -26.2937560740058 0.486452661771683 -26.2937560740209 0.706041193740215 46.3203801376122 
! Gamma         0                0                0                0                
! Port Impedance         50               0                50               0                
87.9                           0.720166732199631 45.5354038735791 0.472865769252492 -28.0322446776527 0.472865769252225 -28.0322446776715 0.72152944069577 45.2428882060772 
! Gamma         0                0                0                0                
! Port Impedance         50               0                50               0                
88                             0.734728519688543 44.4578583460901 0.459634158497418 -29.7065451463567 0.459634158497083 -29.7065451463792 0.736013897047018 44.1791409196838 
! Gamma         0                0                0                0                
! Port Impedance         50               0                50               0                
88.1                           0.748337507598036 43.3984082356356 0.446775143104432 -31.3190259035172 0.446775143104041 -31.3190259035425 0.749551717529952 43.1324824717971 
! Gamma         0                0                0                0                
! Port Impedance         50               0                50               0                
88.2                           0.761051402117089 42.359411160889  0.434300455042374 -32.8721267084787 0.434300455041932 -32.8721267085068 0.762200011594107 42.105363222621  
! Gamma         0                0                0                0                
! Port Impedance         50               0                50               0                
88.3                           0.772926866245442 41.3425207440657 0.422217051473125 -34.3683196519893 0.422217051472637 -34.3683196520195 0.7740149136875  41.0995198275807 
! Gamma         0                0                0                0                
! Port Impedance         50               0                50               0                
88.4                           0.784018847363065 40.3488310042222 0.410527857105418 -35.8100772397785 0.410527857104886 -35.8100772398102 0.78505090159542 40.1161205990499 
! Gamma         0                0                0                0                
! Port Impedance         50               0                50               0                
88.5                           0.794380104195152 39.3789928549477 0.399232435058651 -37.1998467564728 0.39923243505808 -37.199846756506 0.795360315675541 39.1558829326346 
! Gamma         0                0                0                0                
! Port Impedance         50               0                50               0                
88.6                           0.804060893035228 38.4333081489519 0.388327584052133 -38.5400300960154 0.388327584051525 -38.5400300960495 0.804993038562535 38.2191682130612 
! Gamma         0                0                0                0                
! Port Impedance         50               0                50               0                
88.7                           0.813108779304314 37.511805599626  0.377807863183661 -39.832968276828 0.377807863183023 -39.8329682768627 0.813996301193316 37.3060585184205 
! Gamma         0                0                0                0                
! Port Impedance         50               0                50               0                
88.8                           0.821568546174595 36.6143020435141 0.367666047881483 -41.0809299159582 0.367666047880813 -41.0809299159933 0.82241458670327 36.4164185846077 
! Gamma         0                0                0                0                
! Port Impedance         50               0                50               0                
88.9                           0.82948217700239 35.7404518270241 0.357893522051411 -42.2861030056904 0.357893522050721 -42.2861030057257 0.830289608797538 35.5499458162698 
! Gamma         0                0                0                0                
! Port Impedance         50               0                50               0                
89                             0.836888892678047 34.8897865617368 0.348480612214167 -43.4505894107562 0.348480612213455 -43.4505894107914 0.8376603455933  34.7062105941732 
! Gamma         0                0                0                0                
! Port Impedance         50               0                50               0                
89.1                           0.843825228729008 34.0617470630632 0.339416869717868 -44.5764015790374 0.339416869717139 -44.5764015790722 0.844563113679734 33.8846887004011 
! Gamma         0                0                0                0                
! Port Impedance         50               0                50               0                
89.2                           0.850325140149828 33.2557089427987 0.330691307064907 -45.665461029968 0.330691307064166 -45.6654610300024 0.851031670297239 33.0847873388371 
! Gamma         0                0                0                0                
! Port Impedance         50               0                50               0                
89.3                           0.856420124538202 32.4710030491509 0.322292594124331 -46.7195982506695 0.322292594123576 -46.7195982507033 0.857097334156074 32.305865951197  
! Gamma         0                0                0                0                
! Port Impedance         50               0                50               0                
89.4                           0.862139356252914 31.7069317242436 0.314209219597115 -47.7405536891006 0.314209219596354 -47.7405536891335 0.862789117561985 31.5472528048256 
! Gamma         0                0                0                0                
! Port Impedance         50               0                50               0                
89.5                           0.867509826043357 30.9627816681257 0.306429622625002 -48.7299795858172 0.306429622624234 -48.7299795858491 0.868133864258418 30.8082581469309 
! Gamma         0                0                0                0                
! Port Impedance         50               0                50               0                
89.6                           0.872556481992473 30.2378340515441 0.298942298928766 -49.6894424314282 0.298942298927994 -49.6894424314591 0.873156388793695 30.0881845725476 
! Gamma         0                0                0                0                
! Port Impedance         50               0                50               0                
89.7                           0.877302368721773 29.5313724005195 0.291735885359087 -50.6204258758655 0.291735885358315 -50.6204258758953 0.877879614333682 29.3863351337216 
! Gamma         0                0                0                0                
! Port Impedance         50               0                50               0                
89.8                           0.881768762678756 28.8426886787849 0.284799226262351 -51.5243339487571 0.284799226261577 -51.5243339487857 0.882324706716443 28.7020196198792 
! Gamma         0                0                0                0                
! Port Impedance         50               0                50               0                
89.9                           0.885975302006326 28.1710879152122 0.278121424616583 -52.4024944780808 0.278121424615813 -52.4024944781081 0.886511203228191 28.0345593599099 
! Gamma         0                0                0                0                
! Port Impedance         50               0                50               0                
90                             0.889940110017929 27.5158916590161 0.271691880485399 -53.2561626175711 0.271691880484636 -53.2561626175972 0.89045713510686 27.38329083172   
! Gamma         0                0                0                0                
! Port Impedance         50               0                50               0                
90.1                           0.893679911701439 26.876440493093  0.265500318972754 -54.0865244126255 0.265500318971996 -54.0865244126501 0.894179143181406 26.7475683121862 
! Gamma         0                0                0                0                
! Port Impedance         50               0                50               0                
90.2                           0.897210142975201 26.2520957930689 0.259536809538081 -54.8947003503403 0.259536809537332 -54.8947003503636 0.897692586357328 26.126765757318  
! Gamma         0                0                0                0                
! Port Impedance         50               0                50               0                
90.3                           0.900545052641757 25.6422408847273 0.253791778248177 -55.6817488522607 0.253791778247436 -55.6817488522824 0.901011642882727 25.5202780672343 
! Gamma         0                0                0                0                
! Port Impedance         50               0                50               0                
90.4                           0.903697797145707 25.0462817239942 0.248256014296044 -56.4486696789665 0.248256014295313 -56.4486696789867 0.904149404491655 24.9275218618104 
! Gamma         0                0                0                0                
! Port Impedance         50               0                50               0                
90.5                           0.906680528355542 24.4636472003886 0.242920671904461 -57.1964072241071 0.242920671903743 -57.196407224126 0.907117963636099 24.3479358693614 
! Gamma         0                0                0                0                
! Port Impedance         50               0                50               0                
90.6                           0.909504474666113 23.8937891458577 0.237777268549809 -57.9258536822982 0.237777268549104 -57.9258536823157 0.909928494095841 23.7809810115416 
! Gamma         0                0                0                0                
! Port Impedance         50               0                50               0                
90.7                           0.912180015767277 23.3361821153895 0.232817680285968 -58.6378520807018 0.232817680285277 -58.6378520807179 0.91259132530527 23.2261402519564 
! Gamma         0                0                0                0                
! Port Impedance         50               0                50               0                
90.8                           0.91471675145219 22.7903229931372 0.22803413481594 -59.3331991683711 0.228034134815264 -59.3331991683857 0.915116010764892 22.6829182631712 
! Gamma         0                0                0                0                
! Port Impedance         50               0                50               0                
90.9                           0.917123564850897 22.2557304674326 0.223419202846692 -60.0126481607654 0.223419202846031 -60.0126481607787 0.917511390918221 22.1508409563317 
! Gamma         0                0                0                0                
! Port Impedance         50               0                50               0                
91                             0.919408680475748 21.7319444096285 0.218965788168309 -60.6769113394021 0.218965788167666 -60.676911339414 0.919785650876131 21.6294549090574 
! Gamma         0                0                0                0                
! Port Impedance         50               0                50               0                
91.1                           0.921579717457727 21.2185251848092 0.214667116818909 -61.3266625085609 0.214667116818284 -61.3266625085715 0.92194637336391 21.1183267202853 
! Gamma         0                0                0                0                
! Port Impedance         50               0                50               0                
91.2                           0.92364373833976 20.7150529167915 0.210516725630128 -61.9625393124025 0.210516725629521 -61.9625393124118 0.924000587253629 20.617042315038  
! Gamma         0                0                0                0                
! Port Impedance         50               0                50               0                
91.3                           0.9256072937762  20.2211267252522 0.206508450392194 -62.5851454169197 0.206508450391606 -62.5851454169279 0.925954812028013 20.1252062174394 
! Gamma         0                0                0                0                
! Port Impedance         50               0                50               0                
91.4                           0.927476463468564 19.7363639490848 0.202636413830989 -63.195052561873 0.20263641383042 -63.19505256188  0.927815098503183 19.6424408065081 
! Gamma         0                0                0                0                
! Port Impedance         50               0                50               0                
91.5                           0.929256893647112 19.2603993670571 0.198895013550875 -63.7928024883487 0.198895013550327 -63.7928024883545 0.929587066117513 19.168385566172  
! Gamma         0                0                0                0                
! Port Impedance         50               0                50               0                
91.6                           0.930953831387033 18.792884424366  0.195278910064837 -64.3789087478678 0.19527891006431 -64.3789087478726 0.931275937073234 18.7026963384339 
! Gamma         0                0                0                0                
! Port Impedance         50               0                50               0                
91.7                           0.932572156027189 18.3334864716952 0.191783015007006 -64.9538583991126 0.191783015006501 -64.9538583991163 0.932886567596874 18.245044586582  
! Gamma         0                0                0                0                
! Port Impedance         50               0                50               0                
91.8                           0.934116407939117 17.8818880217554 0.188402479600626 -65.5181135983507 0.188402479600143 -65.5181135983535 0.93442347656459 17.7951166736813 
! Gamma         0                0                0                0                
! Port Impedance         50               0                50               0                
91.9                           0.935590814874557 17.4377860269852 0.185132683436608 -66.0721130895781 0.185132683436147 -66.0721130895801 0.935890871719131 17.3526131602544 
! Gamma         0                0                0                0                
! Port Impedance         50               0                50               0                
92                             0.936999316101244 17.0008911810374 0.181969223602979 -66.6162736002546 0.18196922360254 -66.6162736002557 0.937292673686908 16.9172481239726 
! Gamma         0                0                0                0                
! Port Impedance         50               0                50               0                
92.1                           0.938345584519305 16.5709272458354 0.178907904193587 -67.1509911483311 0.178907904193172 -67.1509911483314 0.938632537986312 16.4887485033246 
! Gamma         0                0                0                0                
! Port Impedance         50               0                50               0                
92.2                           0.939633046934368 16.1476304053124 0.17594472621464 -67.6766422660438 0.175944726214248 -67.6766422660435 0.939913875202312 16.0668534665313 
! Gamma         0                0                0                0                
! Port Impedance         50               0                50               0                
92.3                           0.940864902648278 15.7307486464124 0.173075877899782 -68.1935851457183 0.173075877899413 -68.1935851457175 0.941139869487344 15.6513138064275 
! Gamma         0                0                0                0                
! Port Impedance         50               0                50               0                
92.4                           0.942044140514383 15.3200411675175 0.170297725438165 -68.7021607125633 0.17029772543782 -68.7021607125619 0.942313495534579 15.2418913616001 
! Gamma         0                0                0                0                
! Port Impedance         50               0                50               0                
92.5                           0.943173554591414 14.9152778141349 0.167606804114919 -69.202693629184 0.167606804114599 -69.2026936291821 0.943437534156846 14.8383584637291 
! Gamma         0                0                0                0                
! Port Impedance         50               0                50               0                
92.6                           0.944255758518105 14.5162385414302 0.164999809859548 -69.6954932362768 0.164999809859253 -69.6954932362748 0.944514586592702 14.4404974108163 
! Gamma         0                0                0                0                
! Port Impedance         50               0                50               0                
92.7                           0.945293198719858 14.1227129030006 0.162473591194708 -70.1808544337168 0.162473591194437 -70.1808544337144 0.945547087650335 14.0480999657863 
! Gamma         0                0                0                0                
! Port Impedance         50               0                50               0                
92.8                           0.946288166548778 13.7344995651416 0.160025141575516 -70.6590585059855 0.160025141575271 -70.659058505983 0.946537317790084 13.6609668797939 
! Gamma         0                0                0                0                
! Port Impedance         50               0                50               0                
92.9                           0.94724280944932 13.3514058457612 0.157651592107829 -71.1303738956562 0.157651592107609 -71.1303738956535 0.947487414237357 13.2789074394607 
! Gamma         0                0                0                0                
! Port Impedance         50               0                50               0                
93                             0.948159141233537 12.9732472770221 0.155350204632673 -71.5950569284073 0.155350204632479 -71.5950569284047 0.94839938120945 12.9017390371905 
! Gamma         0                0                0                0                
! Port Impedance         50               0                50               0                
93.1                           0.949039051542328 12.5998471907535 0.15311836516318 -72.0533524928168 0.153118365163011 -72.0533524928142 0.949275099332327 12.5292867636598 
! Gamma         0                0                0                0                
! Port Impedance         50               0                50               0                
93.2                           0.949884314562238 12.2310363256471 0.150953577659854 -72.505494677974 0.150953577659711 -72.5054946779717 0.950116334316522 12.1613830215506 
! Gamma         0                0                0                0                
! Port Impedance         50               0                50               0                
93.3                           0.950696597061138 11.866652455244  0.148853458129731 -72.9517073717459 0.148853458129613 -72.9517073717437 0.950924744955178 11.7978671595817 
! Gamma         0                0                0                0                
! Port Impedance         50               0                50               0                
93.4                           0.951477465800387 11.5065400357267 0.146815729034894 -73.3922048223383 0.146815729034802 -73.3922048223365 0.951701890501554 11.4385851258926 
! Gamma         0                0                0                0                
! Port Impedance         50               0                50               0                
93.5                           0.952228394375987 11.1505498725421 0.144838213995974 -73.8271921656236 0.144838213995908 -73.8271921656221 0.952449237478219 11.0833891398448 
! Gamma         0                0                0                0                
! Port Impedance         50               0                50               0                
93.6                           0.952950769536491 10.7985388049033 0.142918832776395 -74.2568659205254 0.142918832776355 -74.2568659205245 0.953168165965494 10.732137381325  
! Gamma         0                0                0                0                
! Port Impedance         50               0                50               0                
93.7                           0.953645897021244 10.4503694072469 0.141055596533504 -74.6814144546031 0.14105559653349 -74.6814144546028 0.953859975412473 10.3846936966559 
! Gamma         0                0                0                0                
! Port Impedance         50               0                50               0                
93.8                           0.954315006958611 10.1059097067503 0.139246603323097 -75.1010184218268 0.139246603323108 -75.1010184218271 0.954525890010113 10.0409273202493 
! Gamma         0                0                0                0                
! Port Impedance         50               0                50               0                
93.9                           0.954959258860397 9.7650329160512  0.137490033844273 -75.5158511743957 0.13749003384431 -75.5158511743967 0.9551670636624  9.70071261116879 
! Gamma         0                0                0                0                
! Port Impedance         50               0                50               0                
94                             0.95557974624544 9.42761718034248 0.135784147412053 -75.9260791503261 0.135784147412116 -75.926079150328 0.955784584588435 9.36392880379937 
! Gamma         0                0                0                0                
! Port Impedance         50               0                50               0                
94.1                           0.956177500922506 9.09354533805538 0.134127278145689 -76.3318622384159 0.134127278145777 -76.3318622384187 0.956379479585399 9.03045977185781 
! Gamma         0                0                0                0                
! Port Impedance         50               0                50               0                
94.2                           0.956753496959959 8.762704694379   0.132517831361096 -76.7333541220766 0.13251783136121 -76.7333541220803 0.956952717979761 8.70019380501157 
! Gamma         0                0                0                0                
! Port Impedance         50               0                50               0                
94.3                           0.957308654367318 8.43498680690024 0.130954280156384 -77.1307026034281 0.130954280156523 -77.1307026034329 0.957505215291716 8.37302339740835 
! Gamma         0                0                0                0                
! Port Impedance         50               0                50               0                
94.4                           0.957843842511637 8.11028728268637 0.12943516217996 -77.5240499089474 0.129435162180125 -77.5240499089534 0.958037836635672 8.04884504745419 
! Gamma         0                0                0                0                
! Port Impedance         50               0                50               0                
94.5                           0.958359883289685 7.78850558616454 0.127959076571203 -77.9135329778783 0.127959076571393 -77.9135329778854 0.958551399877669 7.72755906820972 
! Gamma         0                0                0                0                
! Port Impedance         50               0                50               0                
94.6                           0.958857554075099 7.46954485719015 0.126524681064209 -78.2992837345234 0.126524681064424 -78.2992837345317 0.959046678568815 7.40906940780981 
! Gamma         0                0                0                0                
! Port Impedance         50               0                50               0                
94.7                           0.959337590458068 7.15331173872574 0.125130689245604 -78.6814293454648 0.125130689245844 -78.6814293454743 0.959524404672218 7.09328347934075 
! Gamma         0                0                0                0                
! Port Impedance         50               0                50               0                
94.8                           0.95980068879362 6.83971621358722 0.123775867957874 -79.0600924626851 0.123775867958138 -79.0600924626961 0.9599852710994  6.78011199964295 
! Gamma         0                0                0                0                
! Port Impedance         50               0                50               0                
94.9                           0.96024750857324 6.52867144974124 0.122459034840159 -79.4353914534981 0.122459034840447 -79.4353914535105 0.960429934070854 6.46946883653375 
! Gamma         0                0                0                0                
! Port Impedance         50               0                50               0                
95                             0.960678674633304 6.22009365366993 0.121179055998857 -79.8074406181331 0.121179055999169 -79.8074406181469 0.960859015314188 6.16127086397574 
! Gamma         0                0                0                0                
! Port Impedance         50               0                50               0                
95.1                           0.961094779212727 5.91390193134468 0.119934843800834 -80.1763503957618 0.119934843801169 -80.1763503957773 0.961273104112151 5.85543782474117 
! Gamma         0                0                0                0                
! Port Impedance         50               0                50               0                
95.2                           0.961496383871159 5.61001815637762 0.118725354782427 -80.5422275597053 0.118725354782786 -80.5422275597222 0.961672759211879 5.55189220014924 
! Gamma         0                0                0                0                
! Port Impedance         50               0                50               0                
95.3                           0.961884021278177 5.30836684494544 0.117549587667816 -80.9051754025024 0.117549587668198 -80.9051754025209 0.962058510605711 5.25055908647817 
! Gamma         0                0                0                0                
! Port Impedance         50               0                50               0                
95.4                           0.962258196883044 5.00887503710199 0.1164065814907  -81.2652939114874 0.116406581491104 -81.2652939115077 0.962430861193133 4.95136607767551 
! Gamma         0                0                0                0                
! Port Impedance         50               0                50               0                
95.5                           0.962619390473845 4.71147218412081 0.115295413813561 -81.6226799354686 0.115295413813986 -81.6226799354906 0.962790288332598 4.65424315401389 
! Gamma         0                0                0                0                
! Port Impedance         50               0                50               0                
95.6                           0.962968057634085 4.41609004152739 0.114215199039139 -81.9774273430708 0.114215199039587 -81.9774273430944 0.963137245291298 4.35912257635799 
! Gamma         0                0                0                0                
! Port Impedance         50               0                50               0                
95.7                           0.963304631104224 4.12266256750341 0.113165086809042 -82.329627173265 0.11316508680951 -82.3296271732905 0.963472162600294 4.06593878573028 
! Gamma         0                0                0                0                
! Port Impedance         50               0                50               0                
95.8                           0.963629522054986 3.83112582636188 0.112144260484687 -82.6793677785708 0.112144260485176 -82.679367778598 0.963795449321831 3.77462830787929 
! Gamma         0                0                0                0                
! Port Impedance         50               0                50               0                
95.9                           0.963943121278777 3.54141789681144 0.111151935706115 -83.0267349613926 0.111151935706623 -83.0267349614216 0.964107494235147 3.48512966257339 
! Gamma         0                0                0                0                
! Port Impedance         50               0                50               0                
96                             0.964245800305031 3.25347878474383 0.110187359024391 -83.3718121039167 0.110187359024918 -83.3718121039474 0.964408666946549 3.19738327735821 
! Gamma         0                0                0                0                
! Port Impedance         50               0                50               0                
96.1                           0.964537912444859 2.96725034029433 0.109249806603635 -83.7146802919707 0.109249806604181 -83.7146802920032 0.964699318929121 2.9113314055314  
! Gamma         0                0                0                0                
! Port Impedance         50               0                50               0                
96.2                           0.964819793769947 2.68267617894046 0.108338582988904 -84.0554184332219 0.108338582989467 -84.0554184332563 0.964979784496998 2.62691804810373 
! Gamma         0                0                0                0                
! Port Impedance         50               0                50               0                
96.3                           0.965091764030306 2.39970160641688 0.107453019936386 -84.3941033700686 0.107453019936966 -84.3941033701048 0.965250381718745 2.34408887952763 
! Gamma         0                0                0                0                
! Port Impedance         50               0                50               0                
96.4                           0.965354127515065 2.11827354723885 0.106592475302592 -84.730809987554 0.106592475303189 -84.730809987592 0.965511413274069 2.06279117698894 
! Gamma         0                0                0                0                
! Port Impedance         50               0                50               0                
96.5                           0.965607173860241 1.83834047663731 0.105756331989388 -85.0656113166169 0.10575633199    -85.0656113166565 0.965763167257744 1.78297375306743 
! Gamma         0                0                0                0                
! Port Impedance         50               0                50               0                
96.6                           0.965851178807097 1.55985235572205 0.104943996941928 -85.3985786329698 0.104943996942554 -85.3985786330112 0.966005917934338 1.50458689158565 
! Gamma         0                0                0                0                
! Port Impedance         50               0                50               0                
96.7                           0.966086404914406 1.28276056969799 0.104154900196699 -85.7297815518818 0.104154900197339 -85.7297815519249 0.966239926447082 1.22758228647318 
! Gamma         0                0                0                0                
! Port Impedance         50               0                50               0                
96.8                           0.966313102227751 1.00701786897195 0.103388493977071 -86.0592881191241 0.103388493977723 -86.0592881191689 0.966465441483955 0.951912983486507 
! Gamma         0                0                0                0                
! Port Impedance         50               0                50               0                
96.9                           0.966531508908697 0.732578312994897 0.102644251833876 -86.3871648983258 0.102644251834539 -86.387164898372 0.966682699903836 0.677533324631042 
! Gamma         0                0                0                0                
! Port Impedance         50               0                50               0                
97                             0.966741851826508 0.45939721669527 0.101921667828705 -86.7134770549663 0.101921667829379 -86.7134770550141 0.966891927325371 0.404398895143412 
! Gamma         0                0                0                0                
! Port Impedance         50               0                50               0                
97.1                           0.966944347114862 0.187431099366053 0.101220255757736 -87.0382884372287 0.101220255758419 -87.0382884372779 0.967093338680997 0.132466472898315 
! Gamma         0                0                0                0                
! Port Impedance         50               0                50               0                
97.2                           0.967139200695855 -0.083362364123474 0.100539548414028 -87.3616616539138 0.100539548414718 -87.3616616539644 0.96728713873841 -0.138306019887414 
! Gamma         0                0                0                0                
! Port Impedance         50               0                50               0                
97.3                           0.967326608773409 -0.353024389912114 0.0998790968863565 -87.6836581496158 0.0998790968870528 -87.6836581496676 0.967473522591577 -0.407959562772543 
! Gamma         0                0                0                0                
! Port Impedance         50               0                50               0                
97.4                           0.967506758298045 -0.621595129642757 0.099238469892757 -88.00433827734  0.099238469893458 -88.004338277393 0.967652676123249 -0.676534081145217 
! Gamma         0                0                0                0                
! Port Impedance         50               0                50               0                
97.5                           0.967679827404873 -0.889113712977217 0.0986172531470619 -88.3237613687421 0.0986172531477665 -88.3237613687961 0.967824776440806 -0.944068488318257 
! Gamma         0                0                0                0                
! Port Impedance         50               0                50               0                
97.6                           0.967845985826471 -1.15561828823269 0.0980150487568112 -88.6419858021528 0.0980150487575177 -88.6419858022077 0.967989992287113 -1.21060072576779 
! Gamma         0                0                0                0                
! Port Impedance         50               0                50               0                
97.7                           0.968005395282247 -1.42114606123514 0.0974314746510143 -88.9590690685488 0.0974314746517207 -88.9590690686044 0.968148484427972 -1.47616780160897 
! Gamma         0                0                0                0                
! Port Impedance         50               0                50               0                
97.8                           0.968158209845759 -1.68573333248136 0.0968661640363262 -89.2750678356202 0.0968661640370312 -89.2750678356765 0.968300406017626 -1.74080582739959 
! Gamma         0                0                0                0                
! Port Impedance         50               0                50               0                
97.9                           0.968304576291345 -1.94941553269436 0.0963187648802883 -89.5900380100794 0.0963187648809899 -89.5900380101362 0.968445902943673 -2.00455005335508 
! Gamma         0                0                0                0                
! Port Impedance         50               0                50               0                
98                             0.968444634421362 -2.21222725685392 0.0957889394203591 -89.9040347983494 0.0957889394210553 -89.9040347984065 0.968585114152674 -2.26743490205577 
! Gamma         0                0                0                0                
! Port Impedance         50               0                50               0                
98.1                           0.968578517375191 -2.47420229677835 0.0952763636975367 -90.2171127657641 0.0952763636982257 -90.2171127658213 0.96871817195762 -2.5294940007214 
! Gamma         0                0                0                0                
! Port Impedance         50               0                50               0                
98.2                           0.968706351921141 -2.73537367232953 0.0947807271134446 -90.5293258944074 0.094780727114124 -90.5293258944645 0.968845202328372 -2.79076021212416 
! Gamma         0                0                0                0                
! Port Impedance         50               0                50               0                
98.3                           0.968828258732278 -2.99577366130988 0.0943017320098159 -90.8407276397138 0.0943017320104838 -90.8407276397706 0.968966325166095 -3.05126566420815 
! Gamma         0                0                0                0                
! Port Impedance         50               0                50               0                
98.4                           0.968944352647121 -3.25543382811545 0.0938390932693792 -91.1513709859468 0.0938390932700331 -91.1513709860031 0.969081654562644 -3.31104177847842 
! Gamma         0                0                0                0                
! Port Impedance         50               0                50               0                
98.5                           0.969054742916144 -3.51438505120652 0.0933925379372002 -91.4613085006715 0.0933925379378376 -91.461308500727 0.9691912990458  -3.57011929722053 
! Gamma         0                0                0                0                
! Port Impedance         50               0                50               0                
98.6                           0.969159533434876 -3.77265754945282 0.0929618048615947 -91.7705923883283 0.092961804862213 -91.7705923883827 0.969295361811189 -3.82852830960691 
! Gamma         0                0                0                0                
! Port Impedance         50               0                50               0                
98.7                           0.969258822964431 -4.03028090740883 0.0925466443537783 -92.0792745430171 0.092546644354375 -92.07927454307  0.969393940941671 -4.08629827674478 
! Gamma         0                0                0                0                
! Port Impedance         50               0                50               0                
98.8                           0.969352705340153 -4.2872840995701 0.0921468178654701 -92.3874066005944 0.0921468178660422 -92.3874066006458 0.969487129614909 -4.34345805571613 
! Gamma         0                0                0                0                
! Port Impedance         50               0                50               0                
98.9                           0.969441269669106 -4.54369551365976 0.0917620976837089 -92.6950399901858 0.0917620976842536 -92.6950399902352 0.969575016299831 -4.60003592265824 
! Gamma         0                0                0                0                
! Port Impedance         50               0                50               0                
99                             0.969524600517016 -4.79954297299201 0.0913922666421955 -93.0022259852123 0.0913922666427094 -93.0022259852593 0.969657684942591 -4.85605959493099 
! Gamma         0                0                0                0                
! Port Impedance         50               0                50               0                
99.1                           0.969602778085278 -5.05485375795555 0.0910371178484999 -93.3090157540274 0.0910371178489801 -93.3090157540718 0.969735215142646 -5.11155625241349 
! Gamma         0                0                0                0                
! Port Impedance         50               0                50               0                
99.2                           0.969675878378599 -5.30965462665968 0.090696454426533 -93.6154604102623 0.0906964544269758 -93.6154604103036 0.969807682319503 -5.36655255797221 
! Gamma         0                0                0                0                
! Port Impedance         50               0                50               0                
99.3                           0.969743973363778 -5.56397183478128 0.0903700892737005 -93.9216110629711 0.0903700892741024 -93.921611063009 0.969875157870655 -5.62107467713846 
! Gamma         0                0                0                0                
! Port Impedance         50               0                50               0                
99.4                           0.969807131120141 -5.81783115465131 0.0900578448322059 -94.227518866672 0.090057844832563 -94.2275188667059 0.969937709321203 -5.87514829703334 
! Gamma         0                0                0                0                
! Port Impedance         50               0                50               0                
99.5                           0.969865415982078 -6.07125789361504 0.089759552873995 -94.5332350713739 0.0897595528743039 -94.5332350714036 0.969995400465615 -6.12879864457401 
! Gamma         0                0                0                0                
! Port Impedance         50               0                50               0                
99.6                           0.969918888674121 -6.32427691170073 0.0894750542988748 -94.8388110726849 0.0894750542991308 -94.8388110727096 0.970048291502062 -6.3820505039957 
! Gamma         0                0                0                0                
! Port Impedance         50               0                50               0                
99.7                           0.969967606438959 -6.57691263862786 0.0892041989453586 -95.1442984620892 0.0892041989455576 -95.1442984621086 0.970096439159728 -6.63492823372007 
! Gamma         0                0                0                0                
! Port Impedance         50               0                50               0                
99.8                           0.97001162315879 -6.8291890901855 0.0889468454138326 -95.4497490774897 0.08894684541397 -95.4497490775033 0.970139896819482 -6.88745578260029 
! Gamma         0                0                0                0                
! Port Impedance         50               0                50               0                
99.9                           0.97005098947035 -7.08112988400997 0.0887028609016537 -95.7552150541057 0.0887028609017251 -95.7552150541128 0.970178714628252 -7.13965670557165 
! Gamma         0                0                0                0                
! Port Impedance         50               0                50               0                
100                            0.970085752873961 -7.33275825478806 0.0884721210498237 -96.060748875818 0.0884721210498237 -96.060748875818 0.970212939607455 -7.39155417873358 
! Gamma         -0               -0               0                0                
! Port Impedance         50               0                50               0                
