! Touchstone file exported from HFSS 2026.1.0
!        File:           C:/ffzhzh/LocalFiles/Ansys_Project_Files/temp_train_TSV_RDL_130_1783049056_36532.aedt
!        Generated:      11:38:16 AM Jul  3, 2026
!        Design:         TSV_RDL
!        Project:        temp_train_TSV_RDL_130_1783049056_36532
!
! Variables:
!        h_bsmrdl = 3.24um
!        h_ox = 20um
!        h_rdl = 5um
!        h_sub = 52.27um
!        h_tmrdl = 2.61um
!        h_tsv = 52.27um
!        h_via = 3um
!        l_bsmrdl = 961.91um
!        l_sub = 7333.42um
!        l_tmrdl = 981.21um
!        m_sub = 200um
!        pitch = 41.85um
!        r_tsv = 7um
!        s_tmrdl = 10um
!        w_bsmrdl = 11.68um
!        w_sub = 500um
!        w_tmrdl = 29.27um
!        x_tsv_center1 = 995.845um
!        x_tsv_center2 = 1969.435um
!        x_tsv_center3 = 2979.915um
!        x_tsv_center4 = 3953.505um
!        x_tsv_center5 = 4963.985um
!        x_tsv_center6 = 5937.575um
!
# GHz S MA R 50.000000
! Terminal data exported
! Port[1] = TM_RDL1_1_T1
! Port[2] = TM_RDL5_1_T1
0.1                            0.0509668235584745 25.6301460561276 0.954796680551252 -2.58716573385075 0.954796680551251 -2.58716573385076 0.0509667646754635 25.6303735917712 
! Gamma         0                0                0                0                
! Port Impedance         50               0                50               0                
0.2                            0.0662316299909898 40.4429542680653 0.952497955797886 -5.11966016407439 0.952497955797887 -5.11966016407358 0.0662312725587882 40.4434609633159 
! Gamma         0                0                0                0                
! Port Impedance         50               0                50               0                
0.3                            0.0843586284534118 47.69970158635   0.949608411214131 -7.59118379732549 0.949608411214148 -7.59118379732449 0.0843577581942363 47.7007257313237 
! Gamma         0                0                0                0                
! Port Impedance         50               0                50               0                
0.4                            0.103145464720966 51.3056793960706 0.946502396367978 -10.0182509153734 0.946502396368005 -10.018250915373 0.103144129846467 51.3073545537893 
! Gamma         0                0                0                0                
! Port Impedance         50               0                50               0                
0.5                            0.121999022453147 53.0621412732804 0.943269557121222 -12.4143888841684 0.943269557121248 -12.4143888841688 0.121997403004677 53.0644768491658 
! Gamma         0                0                0                0                
! Port Impedance         50               0                50               0                
0.6                            0.140755396959592 53.7581025029706 0.939913265062818 -14.7868875759198 0.939913265062837 -14.7868875759207 0.140753679992121 53.761055736749  
! Gamma         0                0                0                0                
! Port Impedance         50               0                50               0                
0.7                            0.159339714659133 53.7799395904905 0.936423793515151 -17.1393748048837 0.936423793515162 -17.1393748048847 0.15933805093471 53.7834591020408 
! Gamma         0                0                0                0                
! Port Impedance         50               0                50               0                
0.8                            0.17769309599959 53.3426936601894 0.932793948782501 -19.4736414442346 0.932793948782505 -19.4736414442355 0.177691597412875 53.3467347206991 
! Gamma         0                0                0                0                
! Port Impedance         50               0                50               0                
0.9                            0.195762091560128 52.578660006173  0.929020937704446 -21.7904928473772 0.929020937704445 -21.7904928473779 0.195760839284919 52.5831872518938 
! Gamma         0                0                0                0                
! Port Impedance         50               0                50               0                
1                              0.213498779214639 51.5750403661285 0.925106245795955 -24.090150663992 0.925106245795952 -24.0901506639925 0.21349783192025 51.5800265821045 
! Gamma         0                0                0                0                
! Port Impedance         50               0                50               0                
1.1                            0.230861285347876 50.3920876411063 0.921055396009348 -26.3724791184769 0.921055396009346 -26.3724791184772 0.23086068529786 50.3975118543813 
! Gamma         0                0                0                0                
! Port Impedance         50               0                50               0                
1.2                            0.24781361569313 49.0728776492805 0.916877629979576 -28.6371350339808 0.916877629979574 -28.637135033981 0.247813392963406 49.0787234680941 
! Gamma         0                0                0                0                
! Port Impedance         50               0                50               0                
1.3                            0.264325119827618 47.6490318547402 0.912585458814659 -30.883674522612 0.912585458814658 -30.8836745226121 0.264325295247643 47.6552862073728 
! Gamma         0                0                0                0                
! Port Impedance         50               0                50               0                
1.4                            0.280369886173609 46.1442723905352 0.908194113684768 -33.1116291977624 0.908194113684768 -33.1116291977624 0.280370473460209 46.1509246046747 
! Gamma         0                0                0                0                
! Port Impedance         50               0                50               0                
1.5                            0.295926197388679 44.5767241964183 0.903720956676355 -35.3205592867629 0.903720956676357 -35.3205592867629 0.29592720476572 44.5837653289576 
! Gamma         0                0                0                0                
! Port Impedance         50               0                50               0                
1.6                            0.310976075465573 42.9604525680862 0.899184904206874 -37.5100892152306 0.899184904206876 -37.5100892152306 0.310977506938824 42.9678749110419 
! Gamma         0                0                0                0                
! Port Impedance         50               0                50               0                
1.7                            0.325504904553478 41.306515779368  0.894605896614923 -39.6799301432255 0.894605896614926 -39.6799301432255 0.325506760937309 41.3143124889631 
! Gamma         0                0                0                0                
! Port Impedance         50               0                50               0                
1.8                            0.339501109221187 39.6237012578137 0.890004430993999 -41.8298929848153 0.890004430994002 -41.8298929848153 0.339503388974454 39.6318660706865 
! Gamma         0                0                0                0                
! Port Impedance         50               0                50               0                
1.9                            0.35295586818318 37.9190505521205 0.885401162964211 -43.9598946098289 0.885401162964214 -43.9598946098289 0.352958568091178 37.9275775642822 
! Gamma         0                0                0                0                
! Port Impedance         50               0                50               0                
2                              0.365862849329012 36.1982406093614 0.880816576273417 -46.069959241673 0.880816576273419 -46.069959241673 0.365865965057707 36.2071241011828 
! Gamma         0                0                0                0                
! Port Impedance         50               0                50               0                
2.1                            0.37821795752025 34.4658655972624 0.876270715493592 -48.1602165322107 0.876270715493594 -48.1602165322107 0.378221484063158 34.4750998927535 
! Gamma         0                0                0                0                
! Port Impedance         50               0                50               0                
2.2                            0.390019090894834 32.7256487649428 0.871782975418283 -50.2308973948354 0.871782975418284 -50.2308973948355 0.390023022929322 32.7352281168685 
! Gamma         0                0                0                0                
! Port Impedance         50               0                50               0                
2.3                            0.401265904257265 30.9806043139321 0.867371940235982 -52.2823283828616 0.867371940235983 -52.2823283828616 0.401270236424522 30.990522808512  
! Gamma         0                0                0                0                
! Port Impedance         50               0                50               0                
2.4                            0.411959579804384 29.2331629992336 0.86305526563357 -54.3149251860255 0.863055265633571 -54.3149251860255 0.411964306925305 29.2434144756969 
! Gamma         0                0                0                0                
! Port Impedance         50               0                50               0                
2.5                            0.422102606272057 27.4852710155047 0.858849597372188 -56.3291856616813 0.858849597372188 -56.3291856616813 0.42210772350956 27.4958489968526 
! Gamma         0                0                0                0                
! Port Impedance         50               0                50               0                
2.6                            0.431698567874366 25.7384689125423 0.854770520407496 -58.3256827028004 0.854770520407496 -58.3256827028004 0.431704070851142 25.7493665446535 
! Gamma         0                0                0                0                
! Port Impedance         50               0                50               0                
2.7                            0.440751944360191 23.9939553635794 0.850832533206881 -60.305057160246 0.850832533206881 -60.305057160246 0.440757829239535 24.0051653603762 
! Gamma         0                0                0                0                
! Port Impedance         50               0                50               0                
2.8                            0.449267923283792 22.2526392819085 0.847049042500305 -62.2680109735617 0.847049042500304 -62.2680109735616 0.449274186819951 22.2641538747332 
! Gamma         0                0                0                0                
! Port Impedance         50               0                50               0                
2.9                            0.457252225276416 20.5151828525585 0.843432374264572 -64.2153006168198 0.843432374264571 -64.2153006168197 0.457258864839868 20.5269937422387 
! Gamma         0                0                0                0                
! Port Impedance         50               0                50               0                
3                              0.464710942778196 18.7820373888537 0.839993797270393 -66.1477309297892 0.839993797270392 -66.1477309297891 0.464717956360308 18.7941356991803 
! Gamma         0                0                0                0                
! Port Impedance         50               0                50               0                
3.1                            0.471650392381032 17.0534734539207 0.836743556011474 -68.0661493769404 0.836743556011473 -68.0661493769403 0.471657778581792 17.0658496854477 
! Gamma         0                0                0                0                
! Port Impedance         50               0                50               0                
3.2                            0.47807698066388 15.3296063476183 0.833690910282391 -69.9714407555422 0.83369091028239 -69.9714407555421 0.478084738665669 15.3422503308284 
! Gamma         0                0                0                0                
! Port Impedance         50               0                50               0                
3.3                            0.483997083180918 13.6104178112086 0.830844179076266 -71.8645223578424 0.830844179076265 -71.8645223578422 0.484005212710708 13.623318658183  
! Gamma         0                0                0                0                
! Port Impedance         50               0                50               0                
3.4                            0.489416936092249 11.8957746188323 0.828210786834841 -73.7463395799528 0.82821078683484 -73.7463395799526 0.489425437374101 11.9089206726297 
! Gamma         0                0                0                0                
! Port Impedance         50               0                50               0                
3.5                            0.49434253980416 10.1854445881012 0.825797310403713 -75.6178619607495 0.825797310403713 -75.6178619607493 0.494351413503439 10.1988233690839 
! Gamma         0                0                0                0                
! Port Impedance         50               0                50               0                
3.6                            0.498779573906828 8.4791104390408  0.823609525326249 -77.4800796271942 0.823609525326249 -77.480079627194 0.498788821067164 8.49270858740073 
! Gamma         0                0                0                0                
! Port Impedance         50               0                50               0                
3.7                            0.502733322656355 6.77638185216294 0.821652450353505 -79.3340001174739 0.821652450353504 -79.3340001174737 0.502742944630065 6.79018506588823 
! Gamma         0                0                0                0                
! Port Impedance         50               0                50               0                
3.8                            0.506208610239414 5.07680601619604 0.81993038925721 -81.1806455498298 0.81993038925721 -81.1806455498296 0.506218608611759 5.09079898369228 
! Gamma         0                0                0                0                
! Port Impedance         50               0                50               0                
3.9                            0.509209745076878 3.37987690936155 0.818446969211579 -83.0210501025631 0.81844696921158 -83.0210501025629 0.509220121584309 3.39404323589063 
! Gamma         0                0                0                0                
! Port Impedance         50               0                50               0                
4                              0.511740472462751 1.68504352174481 0.817205175160622 -84.8562577691984 0.817205175160622 -84.8562577691982 0.511751228905014 1.69936564877617 
! Gamma         0                0                0                0                
! Port Impedance         50               0                50               0                
4.1                            0.513803934891847 -0.00828280212684513 0.816207379714101 -86.687320351926 0.816207379714101 -86.6873203519258 0.513815073037617 0.00617631435147166 
! Gamma         0                0                0                0                
! Port Impedance         50               0                50               0                
4.2                            0.515402639500355 -1.70072174366533 0.81545536822054 -88.5152956560567 0.815455368220541 -88.5152956560565 0.515414160985849 -1.68614579924478 
! Gamma         0                0                0                0                
! Port Impedance         50               0                50               0                
4.3                            0.516538432124402 -3.39291797412313 0.814950358752991 -90.3412458481535 0.814950358752991 -90.3412458481533 0.516550338344203 -3.37824682207922 
! Gamma         0                0                0                0                
! Port Impedance         50               0                50               0                
4.4                            0.517212477570464 -5.08553557602015 0.814693016815769 -92.1662359406525 0.814693016815769 -92.1662359406524 0.517224769559581 -5.07079241570627 
! Gamma         0                0                0                0                
! Port Impedance         50               0                50               0                
4.5                            0.517425245785914 -6.77925280626556 0.814683464641117 -93.9913323660471 0.814683464641118 -93.991332366047 0.51743792409189 -6.76446254976348 
! Gamma         0                0                0                0                
! Port Impedance         50               0                50               0                
4.6                            0.517176503716437 -8.47475709251389 0.814921284996575 -95.81760160403  0.814921284996576 -95.81760160403  0.517189568260076 -8.45994651366024 
! Gamma         0                0                0                0                
! Port Impedance         50               0                50               0                
4.7                            0.51646531273825 -10.1727401591969 0.815405519469642 -97.646108825325 0.815405519469642 -97.6461088253249 0.516478762661286 -10.157938060091 
! Gamma         0                0                0                0                
! Port Impedance         50               0                50               0                
4.8                            0.515290031655882 -11.8738931823172 0.816134661238699 -99.4779165162577 0.816134661238699 -99.4779165162577 0.515303865153623 -11.8591305798047 
! Gamma         0                0                0                0                
! Port Impedance         50               0                50               0                
4.9                            0.51364832535976 -13.5789018725762 0.817106642380753 -101.314083048426 0.817106642380753 -101.314083048426 0.513662539496438 -13.5642122076179 
! Gamma         0                0                0                0                
! Port Impedance         50               0                50               0                
5                              0.511537179341174 -15.2884413847444 0.818318815809813 -103.15566115812 0.818318815809814 -103.15566115812 0.511551769845335 -15.273860758077 
! Gamma         0                0                0                0                
! Port Impedance         50               0                50               0                
5.1                            0.508952920364278 -17.0031709472645 0.819767931987123 -105.003696300465 0.819767931987123 -105.003696300465 0.508967881401144 -16.9887383853615 
! Gamma         0                0                0                0                
! Port Impedance         50               0                50               0                
5.2                            0.505891243694654 -18.7237280997153 0.82145011059822 -106.859224843629 0.82145011059822 -106.859224843629 0.505906567611865 -18.7094858557796 
! Gamma         0                0                0                0                
! Port Impedance         50               0                50               0                
5.3                            0.502347247380172 -20.4507224166074 0.823360807454324 -108.723272068952 0.823360807454324 -108.723272068952 0.502362924422717 -20.4367163122097 
! Gamma         0                0                0                0                
! Port Impedance         50               0                50               0                
5.4                            0.498315474170917 -22.1847285835605 0.82549477694873 -110.596849943508 0.825494776948729 -110.596849943508 0.498331492160338 -22.1710083976122 
! Gamma         0                0                0                0                
! Port Impedance         50               0                50               0                
5.5                            0.49378996174864 -23.9262786755181 0.827846030484864 -112.480954632655 0.827846030484863 -112.480954632655 0.493806305720704 -23.9128985885793 
! Gamma         0                0                0                0                
! Port Impedance         50               0                50               0                
5.6                            0.488764302010199 -25.6758534653234 0.830407791393012 -114.376563721422 0.830407791393011 -114.376563721422 0.488780953804173 -25.6628725688708 
! Gamma         0                0                0                0                
! Port Impedance         50               0                50               0                
5.7                            0.483231710210752 -27.4338725633889 0.833172446968844 -116.284633115545 0.833172446968843 -116.284633115545 0.483248648002071 -27.4213554456692 
! Gamma         0                0                0                0                
! Port Impedance         50               0                50               0                
5.8                            0.47718510481759 -29.2006831534899 0.836131498399736 -118.206093595462 0.836131498399735 -118.206093595462 0.477202302584086 -29.1887005760817 
! Gamma         0                0                0                0                
! Port Impedance         50               0                50               0                
5.9                            0.470617198950622 -30.9765470433847 0.839275509494667 -120.141846999956 0.839275509494665 -120.141846999956 0.470634625860416 -30.965176725713 
! Gamma         0                0                0                0                
! Port Impedance         50               0                50               0                
6                              0.4635206042863  -32.7616256884944 0.842594055299854 -122.092762020449 0.842594055299852 -122.092762020449 0.46353822399287 -32.7509532214803 
! Gamma         0                0                0                0                
! Port Impedance         50               0                50               0                
6.1                            0.4558879482739  -34.5559627673996 0.84607567186358 -124.059669592395 0.846075671863578 -124.059669592396 0.455905718100557 -34.5460826824199 
! Gamma         0                0                0                0                
! Port Impedance         50               0                50               0                
6.2                            0.447712005452205 -36.3594637825975 0.849707808607275 -126.043357876991 0.849707808607273 -126.043357876991 0.447729875444006 -36.3504808083041 
! Gamma         0                0                0                0                
! Port Impedance         50               0                50               0                
6.3                            0.438985843557396 -38.1718720191757 0.853476784961436 -128.044566834597 0.853476784961434 -128.044566834597 0.439003755373063 -38.1639025669377 
! Gamma         0                0                0                0                
! Port Impedance         50               0                50               0                
6.4                            0.429702984977028 -39.9927400041001 0.857367753128514 -130.063982401064 0.857367753128512 -130.063982401064 0.429720870586381 -39.985913933476 
! Gamma         0                0                0                0                
! Port Impedance         50               0                50               0                
6.5                            0.419857583930972 -41.8213953499877 0.861364669032396 -132.102230289599 0.861364669032393 -132.102230289599 0.419875364074055 -41.8158580795708 
! Gamma         0                0                0                0                
! Port Impedance         50               0                50               0                
6.6                            0.409444619552448 -43.6568995109786 0.865450273695471 -134.159869453973 0.865450273695469 -134.159869453973 0.409462201904128 -43.6528145583475 
! Gamma         0                0                0                0                
! Port Impedance         50               0                50               0                
6.7                            0.398460104811569 -45.4979974826954 0.869606087437185 -136.237385263746 0.869606087437182 -136.237385263746 0.398477381778817 -45.4955495417163 
! Gamma         0                0                0                0                
! Port Impedance         50               0                50               0                
6.8                            0.386901310990557 -47.3430557809331 0.873812419397913 -138.335182458597 0.873812419397911 -138.335182458597 0.386918157047029 -47.3424544776614 
! Gamma         0                0                0                0                
! Port Impedance         50               0                50               0                
6.9                            0.374767007218302 -49.1899850406922 0.878048394942739 -140.453577966586 0.878048394942735 -140.453577966586 0.374783275649961 -49.1914695540454 
! Gamma         0                0                0                0                
! Port Impedance         50               0                50               0                
7                              0.36205771445862 -51.0361421446239 0.882292003473392 -142.592793689931 0.88229200347339 -142.592793689931 0.362073233351114 -51.0399869398544 
! Gamma         0                0                0                0                
! Port Impedance         50               0                50               0                
7.1                            0.348775973410092 -52.8782046941074 0.886520169055199 -144.752949380991 0.886520169055196 -144.752949380992 0.3487905406481  -52.8847267033496 
! Gamma         0                0                0                0                
! Port Impedance         50               0                50               0                
7.2                            0.334926626156295 -54.7120075224348 0.890708846031387 -146.934055750148 0.890708846031385 -146.934055750149 0.334940003118538 -54.7215752284552 
! Gamma         0                0                0                0                
! Port Impedance         50               0                50               0                
7.3                            0.320517112326271 -56.5323262448173 0.894833141434126 -149.136007965062 0.894833141434124 -149.136007965062 0.320529015834321 -56.5453712987085 
! Gamma         0                0                0                0                
! Port Impedance         50               0                50               0                
7.4                            0.305557782346282 -58.3325855976713 0.898867465497791 -151.358579716657 0.898867465497788 -151.358579716657 0.305567874239797 -58.3496178552779 
! Gamma         0                0                0                0                
! Port Impedance         50               0                50               0                
7.5                            0.290062233681079 -60.1044589394172 0.902785710929249 -153.601418039766 0.902785710929247 -153.601418039766 0.290070107112888 -60.126086176859 
! Gamma         0                0                0                0                
! Port Impedance         50               0                50               0                
7.6                            0.274047681793038 -61.8373069896668 0.906561460793342 -155.864039084647 0.90656146079334 -155.864039084647 0.274052842908339 -61.8642611230661 
! Gamma         0                0                0                0                
! Port Impedance         50               0                50               0                
7.7                            0.25753538768805 -63.5173737155336 0.91016822394049 -158.14582503824 0.910168223940489 -158.14582503824 0.257537230676983 -63.5505462142925 
! Gamma         0                0                0                0                
! Port Impedance         50               0                50               0                
7.8                            0.240551181667645 -65.126606102361 0.913579695859369 -160.446022389969 0.913579695859367 -160.446022389969 0.240548954091647 -65.1670966316576 
! Gamma         0                0                0                0                
! Port Impedance         50               0                50               0                
7.9                            0.223126154580395 -66.6408749670592 0.916770041715234 -162.763741725073 0.916770041715233 -162.763741725074 0.223118908066095 -66.6900594284909 
! Gamma         0                0                0                0                
! Port Impedance         50               0                50               0                
8                              0.205297646082878 -68.0272115250333 0.919714197180234 -165.0979592082  0.919714197180234 -165.0979592082  0.205284164385487 -68.0868390925865 
! Gamma         0                0                0                0                
! Port Impedance         50               0                50               0                
8.1                            0.187110770658032 -69.2393679540965 0.922388181533116 -167.447519890892 0.922388181533115 -167.447519890892 0.187089461621547 -69.3117022481726 
! Gamma         0                0                0                0                
! Port Impedance         50               0                50               0                
8.2                            0.168620944964807 -70.2104058851776 0.924769416468505 -169.811142938857 0.924769416468504 -169.811142938857 0.168589672848184 -70.298434285861 
! Gamma         0                0                0                0                
! Port Impedance         50               0                50               0                
8.3                            0.149898351971147 -70.8397651171073 0.926837043180699 -172.187428829105 0.926837043180696 -172.187428829105 0.149854167402617 -70.9475134600319 
! Gamma         0                0                0                0                
! Port Impedance         50               0                50               0                
8.4                            0.13103634299351 -70.9695302525453 0.928572229644332 -174.574868514524 0.928572229644332 -174.574868514524 0.13097502976053 -71.1025351187705 
! Gamma         0                0                0                0                
! Port Impedance         50               0                50               0                
8.5                            0.112168368377473 -70.3383030968614 0.929958459668055 -176.971854496038 0.929958459668055 -176.971854496038 0.112083648995068 -70.5042848918515 
! Gamma         0                0                0                0                
! Port Impedance         50               0                50               0                
8.6                            0.0935048489683866 -68.4858662879949 0.930981795298884 -179.37669368257 0.930981795298884 -179.37669368257 0.0933869378295908 -68.6954646839055 
! Gamma         0                0                0                0                
! Port Impedance         50               0                50               0                
8.7                            0.0754208399332779 -64.5453883013255 0.931631104536709 178.212378140633 0.931631104536708 178.212378140633 0.0752537977221769 -64.8116673105123 
! Gamma         0                0                0                0                
! Port Impedance         50               0                50               0                
8.8                            0.0586826771805187 -56.7949875552356 0.931898247089422 175.797180471082 0.931898247089422 175.797180471082 0.0584403291411623 -57.1241188248071 
! Gamma         0                0                0                0                
! Port Impedance         50               0                50               0                
8.9                            0.0450348629835127 -42.0110235442718 0.931778212041633 173.379571161277 0.931778212041633 173.379571161277 0.0446818510221837 -42.3498391025242 
! Gamma         0                0                0                0                
! Port Impedance         50               0                50               0                
9                              0.0381153011191579 -17.3494824504565 0.931269202778735 170.961428730593 0.931269202778735 170.961428730592 0.0376531585835858 -17.4681758720964 
! Gamma         0                0                0                0                
! Port Impedance         50               0                50               0                
9.1                            0.0414791187073006 9.82538542500029 0.930372666232772 168.544634272407 0.930372666232772 168.544634272407 0.0410135575463926 10.0634984922004 
! Gamma         0                0                0                0                
! Port Impedance         50               0                50               0                
9.2                            0.0531621844779885 28.113143987005  0.929093265406166 166.131053327803 0.929093265406165 166.131053327803 0.0527673376838659 28.4851008061137 
! Gamma         0                0                0                0                
! Port Impedance         50               0                50               0                
9.3                            0.0689694919670389 37.9519244457461 0.92743879607882 163.722518098452 0.92743879607882 163.722518098452 0.0686405666335482 38.3201101636334 
! Gamma         0                0                0                0                
! Port Impedance         50               0                50               0                
9.4                            0.0865535462959624 43.0158256279893 0.925420050504222 161.320810358197 0.925420050504221 161.320810358197 0.0862717366334522 43.3508542871304 
! Gamma         0                0                0                0                
! Port Impedance         50               0                50               0                
9.5                            0.104892797015755 45.507190861355  0.923050632644615 158.927645396035 0.923050632644615 158.927645396035 0.104643994712342 45.8093602367797 
! Gamma         0                0                0                0                
! Port Impedance         50               0                50               0                
9.6                            0.12351215629279 46.5318887568869 0.920346730991674 156.54465728441  0.920346730991676 156.54465728441  0.123287122881461 46.8067185995537 
! Gamma         0                0                0                0                
! Port Impedance         50               0                50               0                
9.7                            0.142159754218214 46.6635421805815 0.917326856193983 154.173385718235 0.917326856193984 154.173385718235 0.141952422990752 46.9164080589911 
! Gamma         0                0                0                0                
! Port Impedance         50               0                50               0                
9.8                            0.160684237298032 46.2200933692429 0.914011551518499 151.81526461463  0.914011551518502 151.81526461463  0.160490502982205 46.4553310082044 
! Gamma         0                0                0                0                
! Port Impedance         50               0                50               0                
9.9                            0.178984760354154 45.3894746221117 0.910423084588822 149.471612604084 0.910423084588822 149.471612604084 0.178801751232492 45.6104382933515 
! Gamma         0                0                0                0                
! Port Impedance         50               0                50               0                
10                             0.196988665690191 44.2891248829949 0.90658512887565 147.143625483634 0.906585128875652 147.143625483634 0.196814310794567 44.4983997797865 
! Gamma         0                0                0                0                
! Port Impedance         50               0                50               0                
10.1                           0.214640649161051 42.9959478857639 0.902522443094   144.832370644581 0.902522443094   144.832370644581 0.214473414723735 43.1955435622154 
! Gamma         0                0                0                0                
! Port Impedance         50               0                50               0                
10.2                           0.231897095818997 41.562314849677  0.898260556037949 142.538783433645 0.898260556037951 142.538783433645 0.231735819591722 41.7538131601781 
! Gamma         0                0                0                0                
! Port Impedance         50               0                50               0                
10.3                           0.248722909006933 40.0250792191876 0.893825463520085 140.26366535935  0.893825463520085 140.26366535935  0.24856669271215 40.2097422615292 
! Gamma         0                0                0                0                
! Port Impedance         50               0                50               0                
10.4                           0.265089612565837 38.4108963953262 0.889243343049568 138.007684016082 0.889243343049571 138.007684016082 0.264937749972232 38.5897445156448 
! Gamma         0                0                0                0                
! Port Impedance         50               0                50               0                
10.5                           0.28097413385082 36.7394926589233 0.884540290751572 135.771374567572 0.884540290751574 135.771374567572 0.280826061362083 36.9133610682704 
! Gamma         0                0                0                0                
! Port Impedance         50               0                50               0                
10.6                           0.296357964960506 35.0257463184182 0.879742083868465 133.555142609642 0.879742083868468 133.555142609642 0.296213226846619 35.1953265989406 
! Gamma         0                0                0                0                
! Port Impedance         50               0                50               0                
10.7                           0.311226541191956 33.2810547086213 0.874873971048655 131.359268218735 0.87487397104866 131.359268218736 0.311084764597764 33.4469256150613 
! Gamma         0                0                0                0                
! Port Impedance         50               0                50               0                
10.8                           0.325568748439542 31.5142574173179 0.869960491570163 129.183910987285 0.869960491570162 129.183910987285 0.325429625079589 31.6769080284581 
! Gamma         0                0                0                0                
! Port Impedance         50               0                50               0                
10.9                           0.339376510139443 29.7322755740152 0.8650253236986  127.02911584845  0.865025323698605 127.02911584845  0.339239782665052 29.8921229151709 
! Gamma         0                0                0                0                
! Port Impedance         50               0                50               0                
11                             0.352644425837746 27.9405646635368 0.860091161566671 124.894819500041 0.860091161566672 124.894819500041 0.352509877533392 28.0979672842805 
! Gamma         0                0                0                0                
! Port Impedance         50               0                50               0                
11.1                           0.3653694456006  26.1434419607001 0.855179619296296 122.78085724931  0.855179619296304 122.78085724931  0.365236892494915 26.2987105172095 
! Gamma         0                0                0                0                
! Port Impedance         50               0                50               0                
11.2                           0.377550571438569 24.3443278458842 0.850311160567828 120.686970115523 0.850311160567835 120.686970115523 0.377419856194922 24.4977334385177 
! Gamma         0                0                0                0                
! Port Impedance         50               0                50               0                
11.3                           0.389188580905284 22.5459267988007 0.845505051466623 118.612812044752 0.845505051466625 118.612812044752 0.389059568043097 22.6977076081921 
! Gamma         0                0                0                0                
! Port Impedance         50               0                50               0                
11.4                           0.400285770285813 20.7503653682468 0.840779334194918 116.557957110011 0.84077933419492 116.557957110011 0.400158342410249 20.9007319878023 
! Gamma         0                0                0                0                
! Port Impedance         50               0                50               0                
11.5                           0.410845716020246 18.9592989329198 0.836150819109743 114.521906588982 0.836150819109748 114.521906588982 0.410719770825258 19.1084386924391 
! Gamma         0                0                0                0                
! Port Impedance         50               0                50               0                
11.6                           0.420873053630059 17.1739954621237 0.831635092518437 112.504095830283 0.831635092518441 112.504095830283 0.420748501501148 17.3220759632472 
! Gamma         0                0                0                0                
! Port Impedance         50               0                50               0                
11.7                           0.430373273680508 15.3954020707365 0.827246537713317 110.503900837097 0.827246537713322 110.503900837097 0.430250035767274 15.5425741012212 
! Gamma         0                0                0                0                
! Port Impedance         50               0                50               0                
11.8                           0.439352534375857 13.6241985198331 0.822998366838299 108.520644513529 0.822998366838299 108.520644513529 0.439230541036041 13.7705984742766 
! Gamma         0                0                0                0                
! Port Impedance         50               0                50               0                
11.9                           0.447817490340635 11.8608406795397 0.818902661335874 106.55360253405  0.818902661335881 106.55360253405  0.447696679880517 12.0065925850045 
! Gamma         0                0                0                0                
! Port Impedance         50               0                50               0                
12                             0.455775137047925 10.1055961759741 0.81497041890853 104.602008809742 0.814970418908533 104.602008809742 0.455655454701122 10.2508133991401 
! Gamma         0                0                0                0                
! Port Impedance         50               0                50               0                
12.1                           0.463232670250065 8.35857388035308 0.811211605130868 102.665060536589 0.811211605130875 102.665060536589 0.463114067349666 8.50336057635887 
! Gamma         0                0                0                0                
! Port Impedance         50               0                50               0                
12.2                           0.470197359668679 6.61974849355586 0.807635208057898 100.741922820975 0.8076352080579  100.741922820975 0.470079792977408 6.76420084414764 
! Gamma         0                0                0                0                
! Port Impedance         50               0                50               0                
12.3                           0.476676436120447 4.88898118543788 0.804249294382025 98.8317328857613 0.80424929438203 98.8317328857614 0.476559867291079 5.03318846442389 
! Gamma         0                0                0                0                
! Port Impedance         50               0                50               0                
12.4                           0.4826769911976  3.16603703234632 0.801061065890633 96.9336038671076 0.801061065890639 96.9336038671077 0.482561386341602 3.31008252891292 
! Gamma         0                0                0                0                
! Port Impedance         50               0                50               0                
12.5                           0.48820588858868 1.45059983616322 0.798076915162611 95.0466282175404 0.798076915162615 95.0466282175404 0.488091217935629 1.5945616608191  
! Gamma         0                0                0                0                
! Port Impedance         50               0                50               0                
12.6                           0.493269686114756 -0.257715211754723 0.795302479613536 93.16988073503   0.795302479613541 93.16988073503   0.493155923748624 -0.113763418375246 
! Gamma         0                0                0                0                
! Port Impedance         50               0                50               0                
12.7                           0.49787456756651 -1.95935064907599 0.792742693152982 91.3024212409793 0.792742693152985 91.3024212409794 0.497761691227776 -1.81533908788877 
! Gamma         0                0                0                0                
! Port Impedance         50               0                50               0                
12.8                           0.502026283455608 -3.65479733994642 0.79040183485344 89.4432969323493 0.790401834853444 89.4432969323493 0.501914274400425 -3.51065949173284 
! Gamma         0                0                0                0                
! Port Impedance         50               0                50               0                
12.9                           0.505730099836382 -5.344586301065  0.788283574148508 87.5915444347395 0.788283574148512 87.5915444347395 0.505618942745893 -5.20025841982468 
! Gamma         0                0                0                0                
! Port Impedance         50               0                50               0                
13                             0.508990754408257 -7.02928154716587 0.786391012178835 85.7461915842613 0.786391012178838 85.7461915842613 0.508880437342671 -6.88470219868075 
! Gamma         0                0                0                0                
! Port Impedance         50               0                50               0                
13.1                           0.511812419172831 -8.70947377862031 0.784726718989272 83.9062589666163 0.784726718989277 83.9062589666163 0.511702933566138 -8.56458341581302 
! Gamma         0                0                0                0                
! Port Impedance         50               0                50               0                
13.2                           0.514198668989814 -10.3857747587183 0.783292766350682 82.0707612420346 0.783292766350684 82.0707612420346 0.514090009682081 -10.2405153265003 
! Gamma         0                0                0                0                
! Port Impedance         50               0                50               0                
13.3                           0.51615245545135 -12.0588122474716 0.782090756036967 80.238708284731  0.782090756036969 80.2387082847311 0.516044620756442 -11.9131268106474 
! Gamma         0                0                0                0                
! Port Impedance         50               0                50               0                
13.4                           0.517676085572964 -13.7292253736223 0.781121843433196 78.4091061653971 0.781121843433197 78.4091061653971 0.517569077380349 -13.583057762085 
! Gamma         0                0                0                0                
! Port Impedance         50               0                50               0                
13.5                           0.518771204880513 -15.3976603377425 0.780386756386477 76.580958005018  0.780386756386482 76.580958005018  0.518665028790507 -15.2509548036962 
! Gamma         0                0                0                0                
! Port Impedance         50               0                50               0                
13.6                           0.51943878455522 -17.0647663474674 0.779885809238665 74.7532647280637 0.77988580923867 74.7532647280638 0.51933345004767 -16.9174672297632 
! Gamma         0                0                0                0                
! Port Impedance         50               0                50               0                
13.7                           0.519679112382584 -18.7311916914123 0.779618912001141 72.925025742879  0.779618912001144 72.925025742879  0.519574633019631 -18.5832430823045 
! Gamma         0                0                0                0                
! Port Impedance         50               0                50               0                
13.8                           0.519491787335496 -20.3975798614495 0.779585574648142 71.0952395769425 0.779585574648143 71.0952395769426 0.51938818099963 -20.2489252711767 
! Gamma         0                0                0                0                
! Port Impedance         50               0                50               0                
13.9                           0.518875717707041 -22.0645656339241 0.779784906518244 69.2629044945951 0.779784906518243 69.2629044945951 0.518773006876287 -21.9151476485002 
! Gamma         0                0                0                0                
! Port Impedance         50               0                50               0                
14                             0.517829122794346 -23.7327710190912 0.780215610825154 67.4270191248617 0.780215610825157 67.4270191248617 0.517727334857041 -23.5825309465578 
! Gamma         0                0                0                0                
! Port Impedance         50               0                50               0                
14.1                           0.516349538221486 -25.4028009845365 0.780875974290417 65.5865831271468 0.780875974290414 65.5865831271468 0.516248705833778 -25.2516784846676 
! Gamma         0                0                0                0                
! Port Impedance         50               0                50               0                
14.2                           0.514433825077059 -27.0752388524149 0.781763851923749 63.7405979228199 0.78176385192375 63.7405979228199 0.514333986567029 -26.9231715444805 
! Gamma         0                0                0                0                
! Port Impedance         50               0                50               0                
14.3                           0.512078183130764 -28.7506412617667 0.782876646993151 61.8880675210626 0.78287664699315 61.8880675210626 0.511979382953893 -28.5975643044271 
! Gamma         0                0                0                0                
! Port Impedance         50               0                50               0                
14.4                           0.5092781684832  -30.4295325755469 0.784211286247767 60.0279994677653 0.784211286247766 60.0279994677653 0.509180457734902 -30.2753782122506 
! Gamma         0                0                0                0                
! Port Impedance         50               0                50               0                
14.5                           0.506028716094221 -32.112398596774 0.785764190484393 58.1594059467255 0.785764190484394 58.1594059467255 0.505932153086301 -31.9570956591362 
! Gamma         0                0                0                0                
! Port Impedance         50               0                50               0                
14.6                           0.502324167727363 -33.7996794386372 0.787531240584123 56.2813050628631 0.787531240584122 56.2813050628632 0.502228818636639 -33.6431527991498 
! Gamma         0                0                0                0                
! Port Impedance         50               0                50               0                
14.7                           0.49815830594093 -35.4917613684673 0.789507739191505 54.3927223375734 0.789507739191504 54.3927223375733 0.49806424553991 -35.3339313324804 
! Gamma         0                0                0                0                
! Port Impedance         50               0                50               0                
14.8                           0.493524394849723 -37.1889674138428 0.791688368266084 52.4926924466185 0.791688368266082 52.4926924466185 0.493431707331255 -37.0297490390032 
! Gamma         0                0                0                0                
! Port Impedance         50               0                50               0                
14.9                           0.488415228474661 -38.8915464789459 0.794067142807009 50.5802612310401 0.794067142807008 50.5802612310401 0.488324008384966 -38.7308488080929 
! Gamma         0                0                0                0                
! Port Impedance         50               0                50               0                
15                             0.482823187589752 -40.5996606681763 0.796637361137627 48.6544880113262 0.796637361137624 48.6544880113263 0.482733540887349 -40.4373858589757 
! Gamma         0                0                0                0                
! Port Impedance         50               0                50               0                
15.1                           0.476740306066337 -42.3133704486877 0.799391552239321 46.7144482344269 0.799391552239317 46.7144482344271 0.476652351328235 -42.149412779891 
! Gamma         0                0                0                0                
! Port Impedance         50               0                50               0                
15.2                           0.470158347802237 -44.0326171994678 0.802321420744469 44.7592364819869 0.802321420744466 44.7592364819869 0.470072217603674 -43.8668619294265 
! Gamma         0                0                0                0                
! Port Impedance         50               0                50               0                
15.3                           0.463068895408032 -45.7572025857294 0.805417790337267 42.7879698662554 0.805417790337263 42.7879698662555 0.462984737908224 -45.5895246334475 
! Gamma         0                0                0                0                
! Port Impedance         50               0                50               0                
15.4                           0.455463451904063 -47.486764055307 0.808670546469012 40.7997918373534 0.80867054646901 40.7997918373534 0.455381432678373 -47.3170264675487 
! Gamma         0                0                0                0                
! Port Impedance         50               0                50               0                
15.5                           0.447333556761253 -49.220745566761 0.812068579470587 38.7938764217442 0.812068579470584 38.7938764217442 0.44725386093039 -49.0487977261327 
! Gamma         0                0                0                0                
! Port Impedance         50               0                50               0                
15.6                           0.438670917699778 -50.9583624105742 0.815599729337623 36.7694329067157 0.815599729337619 36.7694329067158 0.438593752419873 -50.7840379285056 
! Gamma         0                0                0                0                
! Port Impedance         50               0                50               0                
15.7                           0.42946755974881 -52.6985586519863 0.819250733670494 34.7257109792038 0.819250733670488 34.7257109792039 0.429393157143495 -52.5216728763905 
! Gamma         0                0                0                0                
! Port Impedance         50               0                50               0                
15.8                           0.419715993180271 -54.4399552734483 0.82300718046723 32.6620063192445 0.823007180467226 32.6620063192446 0.419644613818658 -54.2603023225179 
! Gamma         0                0                0                0                
! Port Impedance         50               0                50               0                
15.9                           0.409409402080863 -56.1807864784414 0.826853467686449 30.5776666385351 0.826853467686444 30.5776666385353 0.40934133913548 -55.9981356881415 
! Gamma         0                0                0                0                
! Port Impedance         50               0                50               0                
16                             0.398541855553963 -57.9188207663563 0.830772771711023 28.4720981429088 0.83077277171102 28.472098142909  0.398477439813191 -57.7329124077841 
! Gamma         0                0                0                0                
! Port Impedance         50               0                50               0                
16.1                           0.387108543901986 -59.6512621964628 0.834747027040722 26.3447723839088 0.834747027040717 26.3447723839091 0.387048149866154 -59.4618022777161 
! Gamma         0                0                0                0                
! Port Impedance         50               0                50               0                
16.2                           0.375106042718622 -61.3746255719902 0.838756919710015 24.1952334490843 0.838756919710011 24.1952334490844 0.375050096083616 -61.1812794838372 
! Gamma         0                0                0                0                
! Port Impedance         50               0                50               0                
16.3                           0.362532608759093 -63.0845768560106 0.842781897050541 22.0231054232191 0.842781897050539 22.0231054232192 0.362481595694392 -62.886961546375 
! Gamma         0                0                0                0                
! Port Impedance         50               0                50               0                
16.4                           0.34938851297718 -64.7757266130671 0.846800196478095 19.8281000336704 0.846800196478091 19.8281000336707 0.349342991749297 -64.5734008750116 
! Gamma         0                0                0                0                
! Port Impedance         50               0                50               0                
16.5                           0.335676418576076 -66.4413590793764 0.85078889596262 17.6100243726895 0.850788895962617 17.6100243726896 0.335637034272228 -66.2338114010019 
! Gamma         0                0                0                0                
! Port Impedance         50               0                50               0                
16.6                           0.321401815892315 -68.0730716812281 0.854723988716134 15.3687885685665 0.854723988716129 15.3687885685668 0.321369319291576 -67.8597049202006 
! Gamma         0                0                0                0                
! Port Impedance         50               0                50               0                
16.7                           0.306573532367898 -69.6602879504526 0.858580484388285 13.104413256382  0.858580484388284 13.1044132563821 0.306548804432709 -69.4403998427467 
! Gamma         0                0                0                0                
! Port Impedance         50               0                50               0                
16.8                           0.291204346362539 -71.1895883452208 0.862332538674744 10.8170366789613 0.862332538674742 10.8170366789614 0.291188430452379 -70.9623465147472 
! Gamma         0                0                0                0                
! Port Impedance         50               0                50               0                
16.9                           0.275311750865345 -72.6437742682911 0.865953612705881 8.50692123040274 0.865953612705879 8.50692123040296 0.275305895718588 -72.4081839476788 
! Gamma         0                0                0                0                
! Port Impedance         50               0                50               0                
17                             0.258918942143591 -74.0005333053203 0.869416662885001 6.17445923949584 0.869416662884999 6.17445923949602 0.258924660113834 -73.7553953957608 
! Gamma         0                0                0                0                
! Port Impedance         50               0                50               0                
17.1                           0.242056157853991 -75.2304955186276 0.872694360987018 3.82017777983247 0.872694360987018 3.82017777983256 0.242075305118317 -74.9743519461526 
! Gamma         0                0                0                0                
! Port Impedance         50               0                50               0                
17.2                           0.224762575712051 -76.2943383247081 0.875759343321755 1.44474228880681 0.875759343321756 1.44474228880672 0.224797464671495 -76.0254010925767 
! Gamma         0                0                0                0                
! Port Impedance         50               0                50               0                
17.3                           0.207089139550235 -77.1383685036076 0.878584486634571 -0.951041219657763 0.878584486634572 -0.951041219657719 0.207142699188749 -76.8544290793974 
! Gamma         0                0                0                0                
! Port Impedance         50               0                50               0                
17.4                           0.189102968644873 -77.6876055450428 0.881143207198304 -3.36622555271016 0.881143207198305 -3.36622555271007 0.189178977368978 -77.3859243285466 
! Gamma         0                0                0                0                
! Port Impedance         50               0                50               0                
17.5                           0.170894560801402 -77.8346670744947 0.883409778295845 -5.79972353014165 0.883409778295846 -5.79972353014181 0.170997989700459 -77.5118547336433 
! Gamma         0                0                0                0                
! Port Impedance         50               0                50               0                
17.6                           0.152590099048619 -77.4214688451061 0.885359660065598 -8.25031112326034 0.885359660065601 -8.25031112326053 0.152727622023677 -77.0734099693679 
! Gamma         0                0                0                0                
! Port Impedance         50               0                50               0                
17.7                           0.134373407972517 -76.2085775619258 0.886969834556352 -10.7166326542981 0.886969834556357 -10.7166326542983 0.134554151584438 -75.8305641811544 
! Gamma         0                0                0                0                
! Port Impedance         50               0                50               0                
17.8                           0.116526671510955 -73.8241310241608 0.888219137892542 -13.1972081202794 0.888219137892545 -13.1972081202796 0.116763248751763 -73.4117189965397 
! Gamma         0                0                0                0                
! Port Impedance         50               0                50               0                
17.9                           0.0995077654606165 -69.6844636029387 0.889088580764339 -15.6904426481141 0.889088580764343 -15.6904426481143 0.0998173761730726 -69.2365352999515 
! Gamma         0                0                0                0                
! Port Impedance         50               0                50               0                
18                             0.0840939058177509 -62.9053597057266 0.889561648101   -18.1946380246475 0.889561648101004 -18.1946380246478 0.0844981086595741 -62.4331404059945 
! Gamma         0                0                0                0                
! Port Impedance         50               0                50               0                
18.1                           0.071606124237815 -52.3705261000041 0.889624568817456 -20.7080061791383 0.88962456881746 -20.7080061791388 0.0721241745641283 -51.9179526555924 
! Gamma         0                0                0                0                
! Port Impedance         50               0                50               0                
18.2                           0.0640344590266272 -37.5312483975753 0.889266546979351 -23.22868442924  0.889266546979357 -23.2286844292405 0.0646609594255264 -37.1929221489079 
! Gamma         0                0                0                0                
! Port Impedance         50               0                50               0                
18.3                           0.063359192901182 -20.2372432199183 0.888479946619054 -25.7547522384835 0.88847994661906 -25.7547522384841 0.0640391271144496 -20.1013206847361 
! Gamma         0                0                0                0                
! Port Impedance         50               0                50               0                
18.4                           0.0698896649847155 -4.58071511089974 0.887260423733309 -28.2842491769715 0.887260423733316 -28.284249176972 0.0705477303542183 -4.62252267977895 
! Gamma         0                0                0                0                
! Port Impedance         50               0                50               0                
18.5                           0.0819594202225388 6.90334639302083 0.885607000649093 -30.8151937307642 0.885607000649099 -30.8151937307648 0.0825550243383164 6.77499756632695 
! Gamma         0                0                0                0                
! Port Impedance         50               0                50               0                
18.6                           0.0975201759605236 14.3961988523501 0.883522079876347 -33.3456025721049 0.883522079876354 -33.3456025721055 0.0980483969453498 14.2463557812522 
! Gamma         0                0                0                0                
! Port Impedance         50               0                50               0                
18.7                           0.115115707835651 18.9998310331557 0.881011396669998 -35.8735098842175 0.881011396670005 -35.8735098842182 0.11558535349368 18.8572205654643 
! Gamma         0                0                0                0                
! Port Impedance         50               0                50               0                
18.8                           0.133871340100811 21.6696913760941 0.878083911679347 -38.3969863321303 0.878083911679353 -38.396986332131 0.134293085274184 21.5438570899977 
! Gamma         0                0                0                0                
! Port Impedance         50               0                50               0                
18.9                           0.153269366010828 23.0503553447974 0.874751647146306 -40.9141572849298 0.874751647146312 -40.9141572849305 0.153652303203675 22.9430330863544 
! Gamma         0                0                0                0                
! Port Impedance         50               0                50               0                
19                             0.17298955183627 23.5535260835418 0.871029472006275 -43.4232199241765 0.87102947200628 -43.4232199241772 0.173340760149005 23.4636594068422 
! Gamma         0                0                0                0                
! Port Impedance         50               0                50               0                
19.1                           0.192821306360778 23.4433540035537 0.866934842843941 -45.922458916063 0.866934842843947 -45.9224589160638 0.193146174309536 23.3690652835705 
! Gamma         0                0                0                0                
! Port Impedance         50               0                50               0                
19.2                           0.212617463059757 22.8933723660916 0.862487508882015 -48.4102603786316 0.862487508882018 -48.4102603786325 0.212920094943144 22.8326963764235 
! Gamma         0                0                0                0                
! Port Impedance         50               0                50               0                
19.3                           0.232269604037141 22.0209043715204 0.85770918998406 -50.8851239368522 0.857709189984065 -50.8851239368528 0.232553154740936 21.9720390225389 
! Gamma         0                0                0                0                
! Port Impedance         50               0                50               0                
19.4                           0.251694439880634 20.9075712980558 0.85262323701568 -53.3456727240877 0.852623237015683 -53.3456727240884 0.25196136362094 20.8689432092219 
! Gamma         0                0                0                0                
! Port Impedance         50               0                50               0                
19.5                           0.270825996356408 19.6116863918979 0.84725428384383 -55.7906612550173 0.847254283843834 -55.7906612550179 0.271078225970099 19.5819480779259 
! Gamma         0                0                0                0                
! Port Impedance         50               0                50               0                
19.6                           0.289610948889553 18.1759212016514 0.841627899802201 -58.2189811591892 0.841627899802204 -58.2189811591898 0.289850024496927 18.1539257710712 
! Gamma         0                0                0                0                
! Port Impedance         50               0                50               0                
19.7                           0.308005718157028 16.6321718202969 0.835770250672356 -60.6296648232828 0.835770250672359 -60.6296648232832 0.308232880069539 16.6169429798645 
! Gamma         0                0                0                0                
! Port Impedance         50               0                50               0                
19.8                           0.32597457941333 15.0047281847711 0.829707775200788 -63.0218870416737 0.829707775200791 -63.021887041674 0.326190835945825 14.9954320657388 
! Gamma         0                0                0                0                
! Port Impedance         50               0                50               0                
19.9                           0.343488369847218 13.3123893651106 0.823466882972901 -65.394964817512 0.823466882972902 -65.3949648175122 0.343694547433838 13.3083101650063 
! Gamma         0                0                0                0                
! Port Impedance         50               0                50               0                
20                             0.360523556320627 11.5699081251627 0.817073678177211 -67.7483554894214 0.817073678177211 -67.7483554894214 0.360720337032519 11.5704277952286 
! Gamma         -0               -0               -0               -0               
! Port Impedance         50               0                50               0                
