! Touchstone file exported from HFSS 2026.1.0
!        File:           C:/ffzhzh/LocalFiles/Ansys_Project_Files/temp_train_TSV_RDL_145_1783051314_46780.aedt
!        Generated:      12:13:00 PM Jul  3, 2026
!        Design:         TSV_RDL
!        Project:        temp_train_TSV_RDL_145_1783051314_46780
!
! Variables:
!        h_bsmrdl = 5.14um
!        h_ox = 20um
!        h_rdl = 5um
!        h_sub = 92.28um
!        h_tmrdl = 5.57um
!        h_tsv = 92.28um
!        h_via = 3um
!        l_bsmrdl = 211.5um
!        l_sub = 3585.26um
!        l_tmrdl = 601.99um
!        m_sub = 200um
!        pitch = 56.74um
!        r_tsv = 13.97um
!        s_tmrdl = 10um
!        w_bsmrdl = 29.79um
!        w_sub = 500um
!        w_tmrdl = 17.81um
!        x_tsv_center1 = 610.895um
!        x_tsv_center2 = 852.185um
!        x_tsv_center3 = 1471.985um
!        x_tsv_center4 = 1713.275um
!        x_tsv_center5 = 2333.075um
!        x_tsv_center6 = 2574.365um
!
# GHz S MA R 50.000000
! Terminal data exported
! Port[1] = TM_RDL1_1_T1
! Port[2] = TM_RDL5_1_T1
0.1                            0.0173922650991189 48.8775961956389 0.988792818765036 -1.38875739651182 0.988792818765036 -1.38875739651182 0.0173922703840483 48.8776443319857 
! Gamma         0                0                0                0                
! Port Impedance         50               0                50               0                
0.2                            0.0287388772791802 63.2764279471197 0.987981856775295 -2.7492053192623 0.98798185677529 -2.74920531926261 0.0287389016610468 63.276487683943  
! Gamma         0                0                0                0                
! Port Impedance         50               0                50               0                
0.3                            0.0406979294004531 68.5586227031187 0.987120013330665 -4.09373210144569 0.987120013330657 -4.09373210144579 0.0406979674979645 68.5586750482648 
! Gamma         0                0                0                0                
! Port Impedance         50               0                50               0                
0.4                            0.0528062180432811 70.8834821649506 0.98619703636591 -5.43180983010425 0.986197036365902 -5.43180983010408 0.0528062535561559 70.8835314692271 
! Gamma         0                0                0                0                
! Port Impedance         50               0                50               0                
0.5                            0.0649578431960633 71.8715981903323 0.985172011298957 -6.76581494724297 0.985172011298952 -6.7658149472427 0.064957857906721 71.8716537444715 
! Gamma         0                0                0                0                
! Port Impedance         50               0                50               0                
0.6                            0.0770979299242639 72.139210758981  0.984025284922958 -8.09605222230771 0.984025284922956 -8.09605222230748 0.0770979065211826 72.1392816248622 
! Gamma         0                0                0                0                
! Port Impedance         50               0                50               0                
0.7                            0.089191696784765 71.9759691114784 0.982749357536898 -9.42238344631792 0.982749357536898 -9.42238344631781 0.0891916198490693 71.9760629999604 
! Gamma         0                0                0                0                
! Port Impedance         50               0                50               0                
0.8                            0.101215250706289 71.5361092901263 0.981341922564017 -10.7445636853347 0.981341922564017 -10.7445636853347 0.101215106958066 71.5362324093161 
! Gamma         0                0                0                0                
! Port Impedance         50               0                50               0                
0.9                            0.113150672866535 70.9090769206111 0.979803145338085 -12.0622996215862 0.979803145338084 -12.0622996215863 0.113150451007346 70.909234110886  
! Gamma         0                0                0                0                
! Port Impedance         50               0                50               0                
1                              0.124983353622174 70.1502403691832 0.978134736846664 -13.375265206312 0.978134736846662 -13.3752652063122 0.12498304398566 70.150435331607  
! Gamma         0                0                0                0                
! Port Impedance         50               0                50               0                
1.1                            0.136700627116506 69.2957359850952 0.976339609791177 -14.6831148080707 0.976339609791175 -14.6831148080708 0.136700221268743 69.2959715234789 
! Gamma         0                0                0                0                
! Port Impedance         50               0                50               0                
1.2                            0.148291106865517 68.3702105965064 0.974421690989965 -15.985496376206 0.974421690989962 -15.9854963762061 0.148290597233693 68.3704888364701 
! Gamma         0                0                0                0                
! Port Impedance         50               0                50               0                
1.3                            0.159744376573095 67.3911086660103 0.972385768035394 -17.2820628260666 0.97238576803539 -17.2820628260667 0.159743756135584 67.3914312373663 
! Gamma         0                0                0                0                
! Port Impedance         50               0                50               0                
1.4                            0.171050851528281 66.3711679778091 0.9702373448762  -18.5724807995237 0.970237344876195 -18.5724807995238 0.171050113572604 66.3715361588956 
! Gamma         0                0                0                0                
! Port Impedance         50               0                50               0                
1.5                            0.182201717138493 65.3199367925341 0.967982505831389 -19.8564368719787 0.967982505831384 -19.8564368719787 0.182200855081004 65.3203516207816 
! Gamma         0                0                0                0                
! Port Impedance         50               0                50               0                
1.6                            0.193188899254532 64.2447320446621 0.965627791087816 -21.1336416516162 0.965627791087811 -21.1336416516162 0.193187906511194 64.2451943995108 
! Gamma         0                0                0                0                
! Port Impedance         50               0                50               0                
1.7                            0.204005045191202 63.1512653945804 0.963180085458765 -22.403832270898 0.963180085458761 -22.403832270898 0.204003915088481 63.1517760587992 
! Gamma         0                0                0                0                
! Port Impedance         50               0                50               0                
1.8                            0.214643506176556 62.0440648205171 0.96064652063812 -23.6667736997493 0.960646520638116 -23.6667736997493 0.214642231892844 62.044624525138  
! Gamma         0                0                0                0                
! Port Impedance         50               0                50               0                
1.9                            0.225098317570304 60.9267662919339 0.958034390244259 -24.9222592123588 0.958034390244255 -24.9222592123587 0.225096892100093 60.9273757489798 
! Gamma         0                0                0                0                
! Port Impedance         50               0                50               0                
2                              0.235364175765289 59.8023204971022 0.95535107653452 -26.1701102522644 0.955351076534518 -26.1701102522644 0.235362591900112 59.8029804233287 
! Gamma         0                0                0                0                
! Port Impedance         50               0                50               0                
2.1                            0.245436411811701 58.6731425818548 0.952603987571199 -27.4101758727842 0.952603987571197 -27.4101758727841 0.245434662133298 58.6738537159222 
! Gamma         0                0                0                0                
! Port Impedance         50               0                50               0                
2.2                            0.255310962253101 57.54122275783   0.949800503671355 -28.6423318806813 0.949800503671353 -28.6423318806813 0.255309039135435 57.5419858726929 
! Gamma         0                0                0                0                
! Port Impedance         50               0                50               0                
2.3                            0.264984337804832 56.4082094728543 0.946947932080781 -29.8664797761874 0.946947932080779 -29.8664797761874 0.264982233422466 56.4090253846791 
! Gamma         0                0                0                0                
! Port Impedance         50               0                50               0                
2.4                            0.27445359051164 55.2754729725101 0.94405346893031 -31.0825455580861 0.944053468930309 -31.0825455580861 0.274451296852614 55.2763425470767 
! Gamma         0                0                0                0                
! Port Impedance         50               0                50               0                
2.5                            0.283716279971851 54.1441546025324 0.941124167640665 -32.2904784452851 0.941124167640664 -32.2904784452851 0.283713788853704 54.1450787598142 
! Gamma         0                0                0                0                
! Port Impedance         50               0                50               0                
2.6                            0.292770439146158 53.015205575515  0.93816691303459 -33.4902495538628 0.938166913034589 -33.4902495538629 0.292767742234059 53.0161852929455 
! Gamma         0                0                0                0                
! Port Impedance         50               0                50               0                
2.7                            0.301614540195461 51.8894178374764 0.935188400492534 -34.6818505594043 0.935188400492533 -34.6818505594043 0.301611629021681 51.8904541522695 
! Gamma         0                0                0                0                
! Port Impedance         50               0                50               0                
2.8                            0.310247460721   50.7674489286827 0.932195119553471 -35.8652923674876 0.932195119553471 -35.8652923674877 0.310244326705137 50.7685429394788 
! Gamma         0                0                0                0                
! Port Impedance         50               0                50               0                
2.9                            0.318668450713783 49.6498422198363 0.929193341418454 -37.0406038097812 0.929193341418454 -37.0406038097813 0.318665085183289 49.6509950878726 
! Gamma         0                0                0                0                
! Port Impedance         50               0                50               0                
3                              0.32687710046004 48.5370435438525 0.926189109863968 -38.2078303789138 0.926189109863967 -38.207830378914 0.32687349467069 48.5382564938038 
! Gamma         0                0                0                0                
! Port Impedance         50               0                50               0                
3.1                            0.334873309595286 47.429414986202  0.9231882351168  -39.3670330118131 0.923188235116799 -39.3670330118133 0.334869454751321 47.4306893068027 
! Gamma         0                0                0                0                
! Port Impedance         50               0                50               0                
3.2                            0.342657257451641 46.327246411085  0.920196290283445 -40.5182869283773 0.920196290283444 -40.5182869283775 0.342653144725356 46.328583455615  
! Gamma         0                0                0                0                
! Port Impedance         50               0                50               0                
3.3                            0.350229374801034 45.230765165055  0.917218609965648 -41.6616805300296 0.917218609965646 -41.6616805300297 0.350224995351652 45.2321663517518 
! Gamma         0                0                0                0                
! Port Impedance         50               0                50               0                
3.4                            0.357590317060627 44.140144299528  0.914260290730069 -42.7973143608142 0.914260290730068 -42.7973143608143 0.35758566205231 44.1416111119748 
! Gamma         0                0                0                0                
! Port Impedance         50               0                50               0                
3.5                            0.364740938995891 43.0555095788694 0.911326193134395 -43.9253001321629 0.911326193134394 -43.9253001321631 0.364735999614793 43.0570435663959 
! Gamma         0                0                0                0                
! Port Impedance         50               0                50               0                
3.6                            0.371682270930857 41.9769454844212 0.908420945044441 -45.0457598112336 0.908420945044439 -45.0457598112338 0.371677038401128 41.9785482625488 
! Gamma         0                0                0                0                
! Port Impedance         50               0                50               0                
3.7                            0.378415496453763 40.9045003819884 0.905548946007043 -46.1588247717617 0.905548946007041 -46.1588247717619 0.378409962052462 40.9061736329439 
! Gamma         0                0                0                0                
! Port Impedance         50               0                50               0                
3.8                            0.384941931589187 39.8381909874092 0.902714372471571 -47.2646350056264 0.902714372471568 -47.2646350056265 0.384936086660054 39.839936460728  
! Gamma         0                0                0                0                
! Port Impedance         50               0                50               0                
3.9                            0.391263005394312 38.7780062393552 0.899921183678755 -48.3633383927869 0.899921183678753 -48.363338392787 0.391256841360381 38.7798257525905 
! Gamma         0                0                0                0                
! Port Impedance         50               0                50               0                
4                              0.397380241926788 37.7239106685964 0.897173128059225 -49.4550900268576 0.897173128059223 -49.4550900268577 0.397373750301838 37.7258061081503 
! Gamma         0                0                0                0                
! Port Impedance         50               0                50               0                
4.1                            0.403295243524274 36.6758473372734 0.894473750005564 -50.5400515933381 0.894473750005562 -50.5400515933382 0.403288415923121 36.6778206593623 
! Gamma         0                0                0                0                
! Port Impedance         50               0                50               0                
4.2                            0.409009675330807 35.6337404092388 0.891826396901041 -51.6183907973703 0.891826396901038 -51.6183907973704 0.409002503478455 35.6357936410061 
! Gamma         0                0                0                0                
! Port Impedance         50               0                50               0                
4.3                            0.414525251002104 34.5974974025309 0.889234226305383 -52.6902808378408 0.88923422630538 -52.6902808378409 0.414517726741793 34.5996326433161 
! Gamma         0                0                0                0                
! Port Impedance         50               0                50               0                
4.4                            0.419843719520651 33.5670111669536 0.886700213213244 -53.7558999246583 0.886700213213241 -53.7558999246583 0.419835834820828 33.5692305897302 
! Gamma         0                0                0                0                
! Port Impedance         50               0                50               0                
4.5                            0.424966853051399 32.542161623154  0.88422715731443 -54.815430836104 0.884227157314427 -54.815430836104 0.424958600011662 32.5444674761436 
! Gamma         0                0                0                0                
! Port Impedance         50               0                50               0                
4.6                            0.429896435769956 31.5228172941759 0.881817690196675 -55.8690605132584 0.881817690196673 -55.8690605132585 0.429887806626025 31.5252119026499 
! Gamma         0                0                0                0                
! Port Impedance         50               0                50               0                
4.7                            0.434634253597039 30.5088366559999 0.879474282441919 -56.9169796886408 0.879474282441916 -56.9169796886408 0.434625240724808 30.5113224242762 
! Gamma         0                0                0                0                
! Port Impedance         50               0                50               0                
4.8                            0.439182084775416 29.5000693298537 0.877199250575795 -57.9593825463481 0.877199250575792 -57.9593825463481 0.43917268069415 29.5026487434986 
! Gamma         0                0                0                0                
! Port Impedance         50               0                50               0                
4.9                            0.443541691228487 28.4963571359569 0.874994763837523 -58.9964664111446 0.874994763837521 -58.9964664111445 0.443531888603223 28.499032764202  
! Gamma         0                0                0                0                
! Port Impedance         50               0                50               0                
5                              0.447714810642806 27.4975350257356 0.872862850743779 -60.0284314641138 0.872862850743777 -60.0284314641137 0.447704602286032 27.5003095241168 
! Gamma         0                0                0                0                
! Port Impedance         50               0                50               0                
5.1                            0.451703149220253 26.5034319073089 0.870805405425469 -61.0554804826543 0.870805405425468 -61.0554804826542 0.451692528092924 26.5063080205406 
! Gamma         0                0                0                0                
! Port Impedance         50               0                50               0                
5.2                            0.45550837504896 25.5138713771572 0.868824193720893 -62.0778186027561 0.868824193720891 -62.077818602756 0.455497334260935 25.5168519422495 
! Gamma         0                0                0                0                
! Port Impedance         50               0                50               0                
5.3                            0.459132112045588 24.5286723692551 0.866920859012494 -63.0956531016517 0.866920859012493 -63.0956531016516 0.459120644855542 24.5317603188854 
! Gamma         0                0                0                0                
! Port Impedance         50               0                50               0                
5.4                            0.462575934424902 23.5476497315605 0.865096927797562 -64.1091931990753 0.865096927797561 -64.1091931990752 0.462564034239786 23.5508480977121 
! Gamma         0                0                0                0                
! Port Impedance         50               0                50               0                
5.5                            0.465841361655951 22.570614738554  0.863353814985759 -65.1186498755023 0.863353814985758 -65.1186498755021 0.465829022030084 22.5739266564329 
! Gamma         0                0                0                0                
! Port Impedance         50               0                50               0                
5.6                            0.468929853867344 21.5973755474868 0.861692828918481 -66.1242357058596 0.861692828918481 -66.1242357058595 0.468917068501174 21.6008042597301 
! Gamma         0                0                0                0                
! Port Impedance         50               0                50               0                
5.7                            0.471842807667166 20.6277376051005 0.860115176106711 -67.1261647073134 0.860115176106711 -67.1261647073133 0.471829570405799 20.6312864662916 
! Gamma         0                0                0                0                
! Port Impedance         50               0                50               0                
5.8                            0.474581552346048 19.6615040108089 0.858621965685382 -68.1246521998381 0.858621965685383 -68.1246521998379 0.474567857177592 19.6651764923144 
! Gamma         0                0                0                0                
! Port Impedance         50               0                50               0                
5.9                            0.477147346434659 18.6984758416582 0.857214213583333 -69.1199146783631 0.857214213583333 -69.1199146783629 0.47713318748844 18.7022755368027 
! Gamma         0                0                0                0                
! Port Impedance         50               0                50               0                
6                              0.479541374589525 17.7384524437992 0.855892846408763 -70.112169695374 0.855892846408764 -70.1121696953739 0.479526746134252 17.7423830733984 
! Gamma         0                0                0                0                
! Port Impedance         50               0                50               0                
6.1                            0.481764744783617 16.7812316947004 0.854658705050718 -71.1016357529132 0.854658705050719 -71.1016357529131 0.481749641225546 16.7852971129703 
! Gamma         0                0                0                0                
! Port Impedance         50               0                50               0                
6.2                            0.483818485780478 15.8266102398911 0.853512547997615 -72.0885322029874 0.853512547997616 -72.0885322029873 0.483802901661634 15.8308144407565 
! Gamma         0                0                0                0                
! Port Impedance         50               0                50               0                
6.3                            0.485703544872935 14.874383707642  0.852455054374146 -73.0730791554434 0.852455054374148 -73.0730791554433 0.485687474869441 14.8787308314677 
! Gamma         0                0                0                0                
! Port Impedance         50               0                50               0                
6.4                            0.487420785869544 13.924346904665  0.851486826698149 -74.0554973924169 0.851486826698152 -74.0554973924168 0.487404224790122 13.9288412454358 
! Gamma         0                0                0                0                
! Port Impedance         50               0                50               0                
6.5                            0.488970987313971 12.9762939956254 0.850608393359149 -75.0360082884981 0.850608393359152 -75.036008288498 0.488953930098661 12.9809400086038 
! Gamma         0                0                0                0                
! Port Impedance         50               0                50               0                
6.6                            0.490354840924423 12.0300186690209 0.849820210820404 -76.0148337357899 0.849820210820407 -76.0148337357897 0.490337282643563 12.0348209789127 
! Gamma         0                0                0                0                
! Port Impedance         50               0                50               0                
6.7                            0.491572950242104 11.0853142917659 0.849122665546284 -76.9921960730597 0.849122665546287 -76.9921960730596 0.491554886095634 11.090277701429  
! Gamma         0                0                0                0                
! Port Impedance         50               0                50               0                
6.8                            0.49262582947943 10.141974054648  0.848516075656836 -77.968318018207 0.848516075656839 -77.968318018207 0.492607254796557 10.1471035543812 
! Gamma         0                0                0                0                
! Port Impedance         50               0                50               0                
6.9                            0.493513902560485 9.1997911106685  0.848000692311356 -78.9434226032848 0.848000692311359 -78.9434226032848 0.493494812799758 9.20509188812123 
! Gamma         0                0                0                0                
! Port Impedance         50               0                50               0                
7                              0.494237502347809 8.25855870815476 0.847576700822765 -79.9177331113244 0.847576700822768 -79.9177331113244 0.494217893097652 8.26403615890256 
! Gamma         0                0                0                0                
! Port Impedance         50               0                50               0                
7.1                            0.494796870051263 7.31807032043007 0.847244221504537 -80.8914730142207 0.84724422150454 -80.8914730142206 0.494776737031016 7.32373005926558 
! Gamma         0                0                0                0                
! Port Impedance         50               0                50               0                
7.2                            0.495192154816277 6.3781197737413  0.84700331025193 -81.8648659109422 0.847003310251933 -81.8648659109422 0.495171493877773 6.38396764673411 
! Gamma         0                0                0                0                
! Port Impedance         50               0                50               0                
7.3                            0.495423413490305 5.43850137508187 0.846853958859222 -82.8381354653264 0.846853958859225 -82.8381354653264 0.495402220620053 5.44454347246699 
! Gamma         0                0                0                0                
! Port Impedance         50               0                50               0                
7.4                            0.495490610567868 4.49901004149861 0.846796095074716 -83.8115053427256 0.846796095074719 -83.8115053427256 0.495468881889869 4.50525271145852 
! Gamma         0                0                0                0                
! Port Impedance         50               0                50               0                
7.5                            0.495393618316038 3.55944143243948 0.846829582395295 -84.7851991447618 0.846829582395298 -84.7851991447618 0.495371350095288 3.56589129585162 
! Gamma         0                0                0                0                
! Port Impedance         50               0                50               0                
7.6                            0.495132217083683 2.61959208668163 0.846954219602417 -85.7594403414442 0.84695421960242 -85.7594403414442 0.495109405730412 2.62625605290998 
! Gamma         0                0                0                0                
! Port Impedance         50               0                50               0                
7.7                            0.494706095799298 1.67925956537543 0.847169740041579 -86.7344521998975 0.847169740041582 -86.7344521998975 0.494682737873989 1.68614484919333 
! Gamma         0                0                0                0                
! Port Impedance         50               0                50               0                
7.8                            0.494114852663654 0.738242602750556 0.847475810647488 -87.7104577089394 0.847475810647491 -87.7104577089395 0.4940909448829  0.745356742490373 
! Gamma         0                0                0                0                
! Port Impedance         50               0                50               0                
7.9                            0.493357996044989 -0.203658733947332 0.847872030717427 -88.6876794987369 0.847872030717429 -88.6876794987369 0.493333535288233 -0.196307856911688 
! Gamma         0                0                0                0                
! Port Impedance         50               0                50               0                
8                              0.492434945585864 -1.14664287368435 0.848357930435676 -89.6663397547614 0.848357930435679 -89.6663397547615 0.492409928903082 -1.13904701400538 
! Gamma         0                0                0                0                
! Port Impedance         50               0                50               0                
8.1                            0.491345033532243 -2.09090655837664 0.848932969152256 -90.6466601252535 0.848932969152259 -90.6466601252535 0.491319458152632 -2.08305708422218 
! Gamma         0                0                0                0                
! Port Impedance         50               0                50               0                
8.2                            0.490087506296779 -3.03664464542264 0.849596533419789 -91.628861621395 0.849596533419791 -91.628861621395 0.490061369638507 -3.02853251424261 
! Gamma         0                0                0                0                
! Port Impedance         50               0                50               0                
8.3                            0.488661526269661 -3.98404989423589 0.850347934792916 -92.61316450938  0.850347934792918 -92.6131645093801 0.488634825950742 -3.9756656266478 
! Gamma         0                0                0                0                
! Port Impedance         50               0                50               0                
8.4                            0.487066173891758 -4.93331273489331 0.851186407395428 -93.5997881935662 0.851186407395429 -93.5997881935663 0.487038907742137 -4.92464638651015 
! Gamma         0                0                0                0                
! Port Impedance         50               0                50               0                
8.5                            0.485300450006131 -5.88462101690605 0.852111105261148 -94.5889510898788 0.85211110526115 -94.5889510898789 0.485272616081034 -5.87566214791001 
! Gamma         0                0                0                0                
! Port Impedance         50               0                50               0                
8.6                            0.48336327850529 -6.83815973599378 0.853121099455602 -95.5808704886376 0.853121099455604 -95.5808704886376 0.483334875099944 -6.82889737823729 
! Gamma         0                0                0                0                
! Port Impedance         50               0                50               0                
8.7                            0.481253509292813 -7.79411073659831 0.854215374986635 -96.5757624059699 0.854215374986637 -96.57576240597  0.481224534958607 -7.78453335798797 
! Gamma         0                0                0                0                
! Port Impedance         50               0                50               0                
8.8                            0.478969921579148 -8.75265238770404 0.855392827513457 -97.5738414229779 0.855392827513459 -97.5738414229779 0.478940375141342 -8.74274785359496 
! Gamma         0                0                0                0                
! Port Impedance         50               0                50               0                
8.9                            0.476511227532518 -9.71395922933946 0.856652259865044 -98.5753205118229 0.856652259865046 -98.5753205118229 0.4764811081096  -9.70371476063429 
! Gamma         0                0                0                0                
! Port Impedance         50               0                50               0                
9                              0.473876076306865 -10.6782015869117 0.857992378380434 -99.5804108479091 0.857992378380435 -99.5804108479091 0.473845383331677 -10.6676037145219 
! Gamma         0                0                0                0                
! Port Impedance         50               0                50               0                
9.1                            0.471063058469686 -11.6455451502682 0.859411789085294 -100.589321607352 0.859411789085295 -100.589321607352 0.471031791712439 -11.6345796655528 
! Gamma         0                0                0                0                
! Port Impedance         50               0                50               0                
9.2                            0.468070710853367 -12.6161505140853 0.860908993721117 -101.602259748938 0.860908993721118 -101.602259748938 0.468038870446692 -12.6048024148332 
! Gamma         0                0                0                0                
! Port Impedance         50               0                50               0                
9.3                            0.46489752185424 -13.5901726758359 0.862482385645573 -102.619429779814 0.862482385645573 -102.619429779814 0.464865108320426 -13.5784261073039 
! Gamma         0                0                0                0                
! Port Impedance         50               0                50               0                
9.4                            0.461541937203997 -14.567760487194 0.864130245624969 -103.641033504162 0.864130245624969 -103.641033504162 0.461508951484586 -14.5555986776476 
! Gamma         0                0                0                0                
! Port Impedance         50               0                50               0                
9.5                            0.458002366238314 -15.5490560542638 0.865850737542283 -104.66726975418 0.865850737542283 -104.66726975418 0.457968809726256 -15.536461244394 
! Gamma         0                0                0                0                
! Port Impedance         50               0                50               0                
9.6                            0.454277188687499 -16.5341940814766 0.867641904047088 -105.698334102717 0.867641904047087 -105.698334102717 0.454243063262059 -16.521147446984 
! Gamma         0                0                0                0                
! Port Impedance         50               0                50               0                
9.7                            0.45036476201362 -17.5233011533584 0.869501662176557 -106.734418556988 0.869501662176558 -106.734418556988 0.450330070078307 -17.5097827198941 
! Gamma         0                0                0                0                
! Port Impedance         50               0                50               0                
9.8                            0.44626342931799 -18.5164949476097 0.871427798979988 -107.775711232864 0.871427798979988 -107.775711232864 0.446228173841755 -18.5024834971524 
! Gamma         0                0                0                0                
! Port Impedance         50               0                50               0                
9.9                            0.441971527841832 -19.5138833720432 0.873417967182485 -108.822396009312 0.873417967182485 -108.822396009312 0.441935712403855 -19.4993563396572 
! Gamma         0                0                0                0                
! Port Impedance         50               0                50               0                
10                             0.437487398081601 -20.5155636168521 0.875469680927027 -109.874652162673 0.875469680927027 -109.874652162673 0.437451026920011 -20.5004969766158 
! Gamma         0                0                0                0                
! Port Impedance         50               0                50               0                
10.1                           0.432809393538613 -21.5216211123981 0.877580311637629 -110.932653980574 0.877580311637629 -110.932653980574 0.432772471603548 -21.5059892511165 
! Gamma         0                0                0                0                
! Port Impedance         50               0                50               0                
10.2                           0.427935891120346 -22.5321283811737 0.879747084050092 -111.996570355391 0.879747084050092 -111.996570355391 0.427898424131793 -22.5159039582679 
! Gamma         0                0                0                0                
! Port Impedance         50               0                50               0                
10.3                           0.422865302208005 -23.5471437707276 0.881967072460538 -113.066564357355 0.881967072460538 -113.066564357355 0.422827296718969 -23.5302975624532 
! Gamma         0                0                0                0                
! Port Impedance         50               0                50               0                
10.4                           0.417596084401617 -24.5667100520976 0.884237197245714 -114.142792787523 0.884237197245713 -114.142792787523 0.417557547867203 -24.5492107779397 
! Gamma         0                0                0                0                
! Port Impedance         50               0                50               0                
10.5                           0.412126753950049 -25.5908528655477 0.886554221712802 -115.225405711057 0.886554221712802 -115.225405711057 0.412087694803176 -25.5726669942955 
! Gamma         0                0                0                0                
! Port Impedance         50               0                50               0                
10.6                           0.406455898868885 -26.6195789920624 0.888914749340123 -116.314545971423 0.888914749340124 -116.314545971423 0.406416326603454 -26.6006705246448 
! Gamma         0                0                0                0                
! Port Impedance         50               0                50               0                
10.7                           0.400582192744048 -27.6528744249404 0.891315221473566 -117.410348686368 0.891315221473567 -117.410348686368 0.400542118006517 -27.6332046506034 
! Gamma         0                0                0                0                
! Port Impedance         50               0                50               0                
10.8                           0.394504409213422 -28.6907022107566 0.893751915546871 -118.512940726765 0.893751915546871 -118.512940726765 0.394463843903934 -28.6702294325668 
! Gamma         0                0                0                0                
! Port Impedance         50               0                50               0                
10.9                           0.388221437112532 -29.7330000226974 0.896220943896757 -119.622440179669 0.896220943896757 -119.622440179669 0.388180394496924 -29.7116792476282 
! Gamma         0                0                0                0                
! Port Impedance         50               0                50               0                
11                             0.381732296263625 -30.779677421462 0.898718253246405 -120.73895579722 0.898718253246404 -120.73895579722 0.381690791097904 -30.7574600094458 
! Gamma         0                0                0                0                
! Port Impedance         50               0                50               0                
11.1                           0.375036153880286 -31.8306127491759 0.901239624932746 -121.86258643331 0.901239624932747 -121.862586433309 0.374994202549477 -31.8074460144376 
! Gamma         0                0                0                0                
! Port Impedance         50               0                50               0                
11.2                           0.368132341552243 -32.8856495895076 0.903780675954295 -122.993420470247 0.903780675954295 -122.993420470247 0.368089962225871 -32.8614763461925 
! Gamma         0                0                0                0                
! Port Impedance         50               0                50               0                
11.3                           0.361020372767244 -33.9445927117203 0.90633686091687 -124.131535237986 0.90633686091687 -124.131535237986 0.360977585574182 -33.9193507542278 
! Gamma         0                0                0                0                
! Port Impedance         50               0                50               0                
11.4                           0.353699960919152 -35.0072033967515 0.908903474954156 -125.276996428792 0.908903474954156 -125.276996428792 0.353656788145145 -34.9808249032074 
! Gamma         0                0                0                0                
! Port Impedance         50               0                50               0                
11.5                           0.346171037743945 -36.0731940183496 0.911475657698771 -126.429857510593 0.91147565769877 -126.429857510593 0.346127504055833 -36.0456048631888 
! Gamma         0                0                0                0                
! Port Impedance         50               0                50               0                
11.6                           0.338433772118418 -37.1422217200835 0.914048398376989 -127.590159142594 0.914048398376989 -127.590159142594 0.338389904819981 -37.1133406786454 
! Gamma         0                0                0                0                
! Port Impedance         50               0                50               0                
11.7                           0.330488589150645 -38.2138809873945 0.916616542096591 -128.757928597076 0.916616542096591 -128.757928597076 0.330444418476129 -38.1836188115628 
! Gamma         0                0                0                0                
! Port Impedance         50               0                50               0                
11.8                           0.322336189487201 -39.2876948596113 0.919174797392193 -129.933179191633 0.919174797392193 -129.933179191633 0.322291748940006 -39.2559531986355 
! Gamma         0                0                0                0                
! Port Impedance         50               0                50               0                
11.9                           0.313977568760603 -40.3631044556781 0.921717745085887 -131.115909736461 0.921717745085887 -131.115909736461 0.313932895506483 -40.3297745900667 
! Gamma         0                0                0                0                
! Port Impedance         50               0                50               0                
12                             0.305414037102643 -41.4394563932006 0.92423984851291 -132.306104001568 0.92423984851291 -132.306104001568 0.305369172429105 -41.4044177415496 
! Gamma         0                0                0                0                
! Port Impedance         50               0                50               0                
12.1                           0.296647238656512 -42.5159875548323 0.926735465152346 -133.503730209104 0.926735465152346 -133.503730209104 0.296602228513204 -42.4791059030521 
! Gamma         0                0                0                0                
! Port Impedance         50               0                50               0                
12.2                           0.287679171035183 -43.5918064869141 0.929198859691532 -134.708740556237 0.929198859691532 -134.708740556237 0.287634066674065 -43.5529318757334 
! Gamma         0                0                0                0                
! Port Impedance         50               0                50               0                
12.3                           0.278512204698106 -44.6658704853357 0.931624218539731 -135.921070774211 0.93162421853973 -135.921070774211 0.278467063437516 -44.6248346740448 
! Gamma         0                0                0                0                
! Port Impedance         50               0                50               0                
12.4                           0.269149102257001 -45.7369571075282 0.934005665792116 -137.140639729388 0.934005665792116 -137.140639729388 0.269103988400851 -45.6935705080695 
! Gamma         0                0                0                0                
! Port Impedance         50               0                50               0                
12.5                           0.259593037780395 -46.8036284100896 0.936337280628714 -138.367349072173 0.936337280628716 -138.367349072173 0.25954802373324 -46.7576763535177 
! Gamma         0                0                0                0                
! Port Impedance         50               0                50               0                
12.6                           0.249847616253999 -47.864185592995 0.938613116115505 -139.601082939774 0.938613116115505 -139.601082939774 0.24980278388583 -47.8154237466635 
! Gamma         0                0                0                0                
! Port Impedance         50               0                50               0                
12.7                           0.239916893483362 -48.916610848872 0.940827219355683 -140.841707718682 0.940827219355683 -140.841707718682 0.239872335815913 -48.8647595425912 
! Gamma         0                0                0                0                
! Port Impedance         50               0                50               0                
12.8                           0.229805396916166 -49.9584919383838 0.942973652919303 -142.089071872686 0.942973652919303 -142.089071872686 0.229761220227781 -49.9032290739201 
! Gamma         0                0                0                0                
! Port Impedance         50               0                50               0                
12.9                           0.219518148145674 -50.9869231340814 0.945046517458539 -143.343005841992 0.945046517458537 -143.343005841992 0.219474474627491 -50.927875233724 
! Gamma         0                0                0                0                
! Port Impedance         50               0                50               0                
13                             0.209060688284063 -51.9983733641756 0.947039975394523 -144.603322018768 0.947039975394523 -144.603322018768 0.209017659431894 -51.9351041436631 
! Gamma         0                0                0                0                
! Port Impedance         50               0                50               0                
13.1                           0.198439108047073 -52.988508101887 0.948948275540377 -145.869814803997 0.948948275540378 -145.869814803997 0.198396889049115 -52.9205037040528 
! Gamma         0                0                0                0                
! Port Impedance         50               0                50               0                
13.2                           0.187660085407636 -53.9519448746334 0.950765778503657 -147.142260750104 0.950765778503657 -147.142260750104 0.187618870901386 -53.8785945299971 
! Gamma         0                0                0                0                
! Port Impedance         50               0                50               0                
13.3                           0.176730935294057 -54.881911642565 0.952486982691253 -148.420418793168 0.952486982691253 -148.420418793168 0.176690957039042 -54.8024819616611 
! Gamma         0                0                0                0                
! Port Impedance         50               0                50               0                
13.4                           0.165659678451533 -55.7697599409775 0.9541065507204  -149.704030577926 0.9541065507204  -149.704030577926 0.165621215735191 -55.6833601731364 
! Gamma         0                0                0                0                
! Port Impedance         50               0                50               0                
13.5                           0.154455141030498 -56.6042555215824 0.955619336021797 -150.992820877943 0.955619336021797 -150.992820877943 0.15441853505949 -56.5097897340653 
! Gamma         0                0                0                0                
! Port Impedance         50               0                50               0                
13.6                           0.143127104189454 -57.3705186597928 0.957020409405622 -152.286498112532 0.957020409405622 -152.286498112532 0.143092778437427 -57.2666185422488 
! Gamma         0                0                0                0                
! Port Impedance         50               0                50               0                
13.7                           0.131686536928424 -58.0483954172127 0.958305085348301 -153.584754961031 0.958305085348301 -153.584754961031 0.131655026639233 -57.9333236480093 
! Gamma         0                0                0                0                
! Port Impedance         50               0                50               0                
13.8                           0.120145971568115 -58.6098710733334 0.959468947748347 -154.887269074089 0.959468947748347 -154.887269074089 0.120117967790774 -58.4813786722867 
! Gamma         0                0                0                0                
! Port Impedance         50               0                50               0                
13.9                           0.108520133010897 -59.0148035437109 0.960507874893239 -156.193703880554 0.960507874893239 -156.193703880554 0.108496550570299 -58.869913007967 
! Gamma         0                0                0                0                
! Port Impedance         50               0                50               0                
14                             0.0968270409220074 -59.2035651465417 0.961418063377367 -157.503709487491 0.961418063377367 -157.503709487491 0.0968091275505496 -59.038229703811 
! Gamma         0                0                0                0                
! Port Impedance         50               0                50               0                
14.1                           0.0850900448652641 -59.0836639274067 0.962196050712514 -158.816923669755 0.962196050712514 -158.816923669755 0.0850795647753205 -58.8922124542619 
! Gamma         0                0                0                0                
! Port Impedance         50               0                50               0                
14.2                           0.0733418335663503 -58.5038261874644 0.962838736378701 -160.132972944486 0.962838736378701 -160.132972944486 0.0733413938462847 -58.2780249085515 
! Gamma         0                0                0                0                
! Port Impedance         50               0                50               0                
14.3                           0.061633000192395 -57.1997813684236 0.963343401074007 -161.451473724771 0.963343401074008 -161.451473724771 0.0616466706649818 -56.9272004579999 
! Gamma         0                0                0                0                
! Port Impedance         50               0                50               0                
14.4                           0.0500523251658735 -54.669824591293 0.963707723936537 -162.772033545771 0.963707723936538 -162.772033545771 0.0500869083679414 -54.3310263320018 
! Gamma         0                0                0                0                
! Port Impedance         50               0                50               0                
14.5                           0.0387815363556338 -49.8569037433895 0.963929797531294 -164.094252355571 0.963929797531295 -164.094252355571 0.038849371029792 -49.4216275056872 
! Gamma         0                0                0                0                
! Port Impedance         50               0                50               0                
14.6                           0.0282684910361538 -40.2588262390121 0.96400814041792 -165.41772386221 0.96400814041792 -165.41772386221 0.0283936366204784 -39.6917389726427 
! Gamma         0                0                0                0                
! Port Impedance         50               0                50               0                
14.7                           0.0198412462387694 -19.8233301025931 0.963941707141966 -166.742036927517 0.963941707141967 -166.742036927517 0.0200651405715604 -19.2013140542587 
! Gamma         0                0                0                0                
! Port Impedance         50               0                50               0                
14.8                           0.017023575163156 16.8862137859937 0.963729895522876 -168.066776997763 0.963729895522877 -168.066776997763 0.0173377141749775 16.9994011848213 
! Gamma         0                0                0                0                
! Port Impedance         50               0                50               0                
14.9                           0.0221024372405607 49.16812592053   0.963372551144141 -169.391527560598 0.963372551144142 -169.391527560598 0.0223871317149199 48.7896297676457 
! Gamma         0                0                0                0                
! Port Impedance         50               0                50               0                
15                             0.031460770480572 65.2806673601685 0.962869968986128 -170.715871617379 0.962869968986129 -170.715871617379 0.0316911136384869 64.865233886125  
! Gamma         0                0                0                0                
! Port Impedance         50               0                50               0                
15.1                           0.042337654266538 72.9605384842046 0.962222892177842 -172.039393159767 0.962222892177843 -172.039393159767 0.0425312805342813 72.601188088582  
! Gamma         0                0                0                0                
! Port Impedance         50               0                50               0                
15.2                           0.0537999478783672 76.8899935601912 0.961432507880634 -173.361678639412 0.961432507880635 -173.361678639412 0.053969951741931 76.5849796251831 
! Gamma         0                0                0                0                
! Port Impedance         50               0                50               0                
15.3                           0.0655166618704761 78.9604976590008 0.960500440353016 -174.682318419642 0.960500440353017 -174.682318419642 0.0656707053315243 78.6979574213886 
! Gamma         0                0                0                0                
! Port Impedance         50               0                50               0                
15.4                           0.0773448911882334 79.9997959029002 0.959428741280976 -176.000908198335 0.959428741280977 -176.000908198335 0.0774875697155523 79.7697661126645 
! Gamma         0                0                0                0                
! Port Impedance         50               0                50               0                
15.5                           0.0892109960862977 80.4146478828513 0.958219877492096 -177.31705039156 0.958219877492097 -177.31705039156 0.0893452177673984 80.2098383371968 
! Gamma         0                0                0                0                
! Port Impedance         50               0                50               0                
15.6                           0.101071066420623 80.4254078881008 0.956876716202774 -178.630355468104 0.956876716202775 -178.630355468104 0.101198766315315 80.2405552903186 
! Gamma         0                0                0                0                
! Port Impedance         50               0                50               0                
15.7                           0.112895617026464 80.1610423575475 0.955402507976166 -179.940443225733 0.955402507976167 -179.940443225733 0.113018138290746 79.9922931490718 
! Gamma         0                0                0                0                
! Port Impedance         50               0                50               0                
15.8                           0.124662896983463 79.7018179826194 0.953800867593277 178.753055999214 0.953800867593278 178.753055999214 0.124781204916668 79.5462925929618 
! Gamma         0                0                0                0                
! Port Impedance         50               0                50               0                
15.9                           0.136355672500778 79.1002363794338 0.952075753060567 177.450500196387 0.952075753060568 177.450500196387 0.136470480995136 78.9557378065839 
! Gamma         0                0                0                0                
! Port Impedance         50               0                50               0                
16                             0.147959559500294 78.3920704277112 0.950231442993805 176.152234626631 0.950231442993806 176.152234626631 0.148071409193757 78.2568896049779 
! Gamma         0                0                0                0                
! Port Impedance         50               0                50               0                
16.1                           0.159462106007615 77.6025411765906 0.948272512630599 174.858590853332 0.9482725126306  174.858590853332 0.159571414524109 77.4753250845979 
! Gamma         0                0                0                0                
! Port Impedance         50               0                50               0                
16.2                           0.170852261956044 76.7499523321567 0.946203808731531 173.569885864287 0.946203808731532 173.569885864287 0.170959357321511 76.6296128922747 
! Gamma         0                0                0                0                
! Port Impedance         50               0                50               0                
16.3                           0.182120060137455 75.8479212076851 0.944030423633236 172.286421287416 0.944030423633237 172.286421287416 0.182225203673188 75.7335710728484 
! Gamma         0                0                0                0                
! Port Impedance         50               0                50               0                
16.4                           0.193256417318822 74.9067986035523 0.941757668715987 171.008482702518 0.941757668715988 171.008482702518 0.19335981973604 74.7977050221936 
! Gamma         0                0                0                0                
! Port Impedance         50               0                50               0                
16.5                           0.204253006147023 73.9346011907297 0.939391047543582 169.736339050235 0.939391047543594 169.736339050236 0.204354839121285 73.8301522521219 
! Gamma         0                0                0                0                
! Port Impedance         50               0                50               0                
16.6                           0.215102169876337 72.9376407091395 0.936936228924237 168.470242138329 0.936936228924238 168.470242138329 0.215202574539668 72.8373202323481 
! Gamma         0                0                0                0                
! Port Impedance         50               0                50               0                
16.7                           0.225796863496099 71.920958889992  0.934399020129687 167.210426244395 0.934399020129687 167.210426244395 0.225895956779348 71.8243274554843 
! Gamma         0                0                0                0                
! Port Impedance         50               0                50               0                
16.8                           0.236330611316032 70.8886345656458 0.931785340494963 165.957107813262 0.931785340494964 165.957107813262 0.236428490761392 70.795314985276  
! Gamma         0                0                0                0                
! Port Impedance         50               0                50               0                
16.9                           0.246697474837477 69.8440047023236 0.929101195603763 164.710485246447 0.929101195603764 164.710485246447 0.246794222302322 69.753670745901  
! Gamma         0                0                0                0                
! Port Impedance         50               0                50               0                
17                             0.256892027003766 68.7898262384924 0.926352652245479 163.470738780305 0.92635265224548 163.470738780305 0.256987711547718 68.702193783926  
! Gamma         0                0                0                0                
! Port Impedance         50               0                50               0                
17.1                           0.266909330322407 67.7283964442513 0.923545814309566 162.238030448865 0.923545814309567 162.238030448865 0.267004010483694 67.643216455076  
! Gamma         0                0                0                0                
! Port Impedance         50               0                50               0                
17.2                           0.276744917238846 66.6616437181665 0.920686799761287 161.012504126761 0.920686799761288 161.012504126761 0.276838642847664 66.5786966156493 
! Gamma         0                0                0                0                
! Port Impedance         50               0                50               0                
17.3                           0.286394771715812 65.5911969877245 0.9177817188214  159.794285647228 0.9177817188214  159.794285647228 0.28648758535235 65.5102880991841 
! Gamma         0                0                0                0                
! Port Impedance         50               0                50               0                
17.4                           0.295855311351435 64.518439404923  0.914836653450075 158.583482989741 0.914836653450075 158.583482989741 0.295947249527942 64.4393952511938 
! Gamma         0                0                0                0                
! Port Impedance         50               0                50               0                
17.5                           0.305123369623278 63.4445503653821 0.911857638214149 157.38018653161  0.911857638214148 157.38018653161  0.305214463749612 63.3672156088626 
! Gamma         0                0                0                0                
! Port Impedance         50               0                50               0                
17.6                           0.31419617801748 62.3705387427026 0.90885064259617 156.184469357678 0.90885064259617 156.184469357678 0.314286455195003 62.2947736600667 
! Gamma         0                0                0                0                
! Port Impedance         50               0                50               0                
17.7                           0.323071347919299 61.2972694409009 0.905821554783411 154.996387622136 0.905821554783411 154.996387622137 0.323160831597517 61.2229478159781 
! Gamma         0                0                0                0                
! Port Impedance         50               0                50               0                
17.8                           0.331746852221273 60.225484812398  0.902776166957035 153.815980956476 0.902776166957034 153.815980956476 0.331835562743728 60.1524921681436 
! Gamma         0                0                0                0                
! Port Impedance         50               0                50               0                
17.9                           0.340221006658884 59.1558220929428 0.899720162084537 152.643272917644 0.899720162084535 152.643272917644 0.340308961719016 59.0840541990418 
! Gamma         0                0                0                0                
! Port Impedance         50               0                50               0                
18                             0.348492450919357 58.0888277188845 0.896659102202381 151.478271470572 0.896659102202381 151.478271470572 0.348579665942579 58.0181893249233 
! Gamma         0                0                0                0                
! Port Impedance         50               0                50               0                
18.1                           0.356560129591496 57.0249691834513 0.89359841816289 150.320969499416 0.89359841816289 150.320969499416 0.35664661805645 56.9553729378517 
! Gamma         0                0                0                0                
! Port Impedance         50               0                50               0                
18.2                           0.36442327303781 55.9646449346663 0.890543400806488 149.171345342087 0.890543400806487 149.171345342087 0.364509046747069 55.8960104575107 
! Gamma         0                0                0                0                
! Port Impedance         50               0                50               0                
18.3                           0.372081378276283 54.9081927028196 0.887499193510274 148.029363342862 0.887499193510273 148.029363342862 0.37216644758487 54.8404457868711 
! Gamma         0                0                0                0                
! Port Impedance         50               0                50               0                
18.4                           0.379534189960711 53.8558965591743 0.884470786055331 146.894974418195 0.88447078605533 146.894974418195 0.379618563969135 53.7889684782504 
! Gamma         0                0                0                0                
! Port Impedance         50               0                50               0                
18.5                           0.386781681546388 52.8079929422329 0.88146300974753 145.768116631128 0.881463009747529 145.768116631128 0.386865368263734 52.7418198499178 
! Gamma         0                0                0                0                
! Port Impedance         50               0                50               0                
18.6                           0.393824036723325 51.7646758379593 0.878480533721451 144.648715770036 0.878480533721444 144.648715770036 0.393907043204876 51.6991982426913 
! Gamma         0                0                0                0                
! Port Impedance         50               0                50               0                
18.7                           0.400661631192978 50.7261012619334 0.87552786235257 143.536685927784 0.875527862352563 143.536685927784 0.400743963656132 50.6612635669427 
! Gamma         0                0                0                0                
! Port Impedance         50               0                50               0                
18.8                           0.407295014857053 49.6923911616507 0.872609333700296 142.431930077708 0.872609333700295 142.431930077709 0.407376678778607 49.6281412601881 
! Gamma         0                0                0                0                
! Port Impedance         50               0                50               0                
18.9                           0.413724894479055 48.6636368339702 0.869729118902464 141.334340643174 0.869729118902463 141.334340643174 0.413805894676437 48.5999257518577 
! Gamma         0                0                0                0                
! Port Impedance         50               0                50               0                
19                             0.419952116870914 47.6399019345124 0.866891222441637 140.2438000578   0.866891222441636 140.2438000578   0.42003245756952 47.5766835133421 
! Gamma         0                0                0                0                
! Port Impedance         50               0                50               0                
19.1                           0.425977652648822 46.6212251414514 0.864099483203892 139.160181313779 0.864099483203891 139.16018131378  0.426057337537265 46.5584557568176 
! Gamma         0                0                0                0                
! Port Impedance         50               0                50               0                
19.2                           0.43180258059431 45.6076225247583 0.861357576251775 138.083348496022 0.861357576251774 138.083348496023 0.431881612869115 45.5452608347802 
! Gamma         0                0                0                0                
! Port Impedance         50               0                50               0                
19.3                           0.437428072648928 44.5990896628825 0.858669015235291 137.013157300163 0.85866901523529 137.013157300164 0.437506455049949 44.5370963829923 
! Gamma         0                0                0                0                
! Port Impedance         50               0                50               0                
19.4                           0.442855379563591 43.5956035415912 0.856037155367226 135.949455532762 0.856037155367225 135.949455532763 0.442933114401251 43.5339412421609 
! Gamma         0                0                0                0                
! Port Impedance         50               0                50               0                
19.5                           0.448085817216973 42.5971242638468 0.853465196891781 134.892083592291 0.85346519689178 134.892083592292 0.448162906392242 42.5357571877231 
! Gamma         0                0                0                0                
! Port Impedance         50               0                50               0                
19.6                           0.453120753611187 41.6035965948794 0.850956188979112 133.840874929752 0.85095618897911 133.840874929752 0.453197198629086 41.5424904923094 
! Gamma         0                0                0                0                
! Port Impedance         50               0                50               0                
19.7                           0.457961596547457 40.6149513627849 0.84851303398199 132.795656488005 0.84851303398199 132.795656488005 0.458037398524753 40.5540733415676 
! Gamma         0                0                0                0                
! Port Impedance         50               0                50               0                
19.8                           0.46260978197961 39.631106731857  0.84613849199418 131.756249119099 0.84613849199418 131.756249119099 0.462684941647253 39.5704251208468 
! Gamma         0                0                0                0                
! Port Impedance         50               0                50               0                
19.9                           0.467066763038884 38.6519693633152 0.843835185654328 130.722467979083 0.843835185654328 130.722467979083 0.467141280739674 38.591453587651  
! Gamma         0                0                0                0                
! Port Impedance         50               0                50               0                
20                             0.471333999719903 37.6774354759936 0.841605605143026 129.694122899962 0.841605605143026 129.694122899962 0.471407875401777 37.6170559426388 
! Gamma         -0               -0               0                0                
! Port Impedance         50               0                50               0                
