! Touchstone file exported from HFSS 2026.1.0
!        File:           C:/ffzhzh/LocalFiles/Ansys_Project_Files/temp_train_TSV_RDL_373_1783041056_46388.aedt
!        Generated:      09:30:48 AM Jul  3, 2026
!        Design:         TSV_RDL
!        Project:        temp_train_TSV_RDL_373_1783041056_46388
!
! Variables:
!        h_bsmrdl = 3.91um
!        h_ox = 20um
!        h_rdl = 5um
!        h_sub = 95.22um
!        h_tmrdl = 3.27um
!        h_tsv = 95.22um
!        h_via = 3um
!        l_bsmrdl = 447.21um
!        l_sub = 2553.66um
!        l_tmrdl = 166.94um
!        m_sub = 200um
!        pitch = 39.76um
!        r_tsv = 3.77um
!        s_tmrdl = 10um
!        w_bsmrdl = 19.99um
!        w_sub = 500um
!        w_tmrdl = 28.1um
!        x_tsv_center1 = 180.99um
!        x_tsv_center2 = 648.19um
!        x_tsv_center3 = 843.23um
!        x_tsv_center4 = 1310.43um
!        x_tsv_center5 = 1505.47um
!        x_tsv_center6 = 1972.67um
!
# GHz S MA R 50.000000
! Terminal data exported
! Port[1] = TM_RDL1_1_T1
! Port[2] = TM_RDL5_1_T1
0.1                            0.0168983763248746 28.5540254168036 0.985264324093788 -0.992988315393941 0.985264324093786 -0.992988315393943 0.0168983781051656 28.554136645167  
! Gamma         0                0                0                0                
! Port Impedance         50               0                50               0                
0.2                            0.0223257948728438 44.8953916241726 0.984602412554696 -1.96541901630224 0.984602412554696 -1.96541901630237 0.0223258070277309 44.8956139323397 
! Gamma         0                0                0                0                
! Port Impedance         50               0                50               0                
0.3                            0.0286599607735744 53.5995067385353 0.983888691109678 -2.91798325662013 0.98388869110968 -2.91798325662051 0.0286599877207075 53.5998110925877 
! Gamma         0                0                0                0                
! Port Impedance         50               0                50               0                
0.4                            0.0352955780736773 58.7513795311987 0.983239087680806 -3.85979336481302 0.983239087680808 -3.85979336481368 0.035295614445438 58.7517607240584 
! Gamma         0                0                0                0                
! Port Impedance         50               0                50               0                
0.5                            0.042094129883528 62.0379671211052 0.982646204105598 -4.79712957933033 0.982646204105598 -4.79712957933125 0.0420941710423662 62.038430757579  
! Gamma         0                0                0                0                
! Port Impedance         50               0                50               0                
0.6                            0.0490038517792006 64.2032655935599 0.982076485841655 -5.73280236251933 0.982076485841653 -5.73280236252045 0.0490038959340621 64.2038164864759 
! Gamma         0                0                0                0                
! Port Impedance         50               0                50               0                
0.7                            0.0559903159650087 65.6338732416322 0.98150189398936 -6.66779474840614 0.981501893989354 -6.66779474840739 0.0559903627512992 65.6345135428087 
! Gamma         0                0                0                0                
! Port Impedance         50               0                50               0                
0.8                            0.0630268303450657 66.5563135263954 0.980903761222144 -7.6023186965246 0.980903761222135 -7.60231869652592 0.0630268794607033 66.5570437031914 
! Gamma         0                0                0                0                
! Port Impedance         50               0                50               0                
0.9                            0.0700926126631026 67.1136672087291 0.980270536855846 -8.53629349818985 0.980270536855835 -8.53629349819119 0.0700926631902689 67.1144870889427 
! Gamma         0                0                0                0                
! Port Impedance         50               0                50               0                
1                              0.0771715511996134 67.4009109082647 0.979595322014728 -9.46954090140948 0.979595322014714 -9.46954090141077 0.0771716014331959 67.4018202916708 
! Gamma         0                0                0                0                
! Port Impedance         50               0                50               0                
1.1                            0.0842510630244422 67.4834380432956 0.978874149299951 -10.401860958551 0.978874149299934 -10.4018609585522 0.0842511105666635 67.4844369626134 
! Gamma         0                0                0                0                
! Port Impedance         50               0                50               0                
1.2                            0.0913211547454576 67.4076154928418 0.978104900155206 -11.3330597988003 0.978104900155188 -11.3330597988014 0.0913211967026543 67.4087042723249 
! Gamma         0                0                0                0                
! Port Impedance         50               0                50               0                
1.3                            0.0983737133846475 67.207148255268  0.977286640570421 -12.2629583755564 0.977286640570402 -12.2629583755574 0.0983737465750835 67.2083274739796 
! Gamma         0                0                0                0                
! Port Impedance         50               0                50               0                
1.4                            0.105401995032553 66.9070758335696 0.976419212763376 -13.1913939066493 0.976419212763357 -13.1913939066501 0.105402016163115 66.9083462555276 
! Gamma         0                0                0                0                
! Port Impedance         50               0                50               0                
1.5                            0.112400264310467 66.5263628224181 0.975502981086731 -14.1182187309644 0.975502981086713 -14.1182187309651 0.112400270108642 66.5277253249808 
! Gamma         0                0                0                0                
! Port Impedance         50               0                50               0                
1.6                            0.11936354245402 66.0796234230759 0.974538671230991 -15.0432984653724 0.974538671230974 -15.043298465373 0.119363529756234 66.0810789368224 
! Gamma         0                0                0                0                
! Port Impedance         50               0                50               0                
1.7                            0.126287431452354 65.5782962182118 0.9735272664957  -15.9665101811068 0.973527266495684 -15.9665101811073 0.126287397255973 65.5798456819822 
! Gamma         0                0                0                0                
! Port Impedance         50               0                50               0                
1.8                            0.133167990728871 65.0314610717975 0.972469939424292 -16.8877408398738 0.972469939424277 -16.8877408398742 0.133167932216764 65.0331054020558 
! Gamma         0                0                0                0                
! Port Impedance         50               0                50               0                
1.9                            0.140001649934433 64.4464178442492 0.971368005631406 -17.8068860367819 0.971368005631393 -17.8068860367822 0.140001564480333 64.4481579162084 
! Gamma         0                0                0                0                
! Port Impedance         50               0                50               0                
2                              0.146785146559479 63.8291034069389 0.970222891719781 -18.7238490242607 0.970222891719769 -18.723849024261 0.14678503172087 63.8309400445709 
! Gamma         0                0                0                0                
! Port Impedance         50               0                50               0                
2.1                            0.153515480656692 63.184396879608  0.969036112239365 -19.6385399687273 0.969036112239356 -19.6385399687274 0.153515334160298 63.1863308519514 
! Gamma         0                0                0                0                
! Port Impedance         50               0                50               0                
2.2                            0.160189881421029 62.51634630692   0.967809252512182 -20.550875389913 0.967809252512174 -20.5508753899131 0.160189701144524 62.5183783286005 
! Gamma         0                0                0                0                
! Port Impedance         50               0                50               0                
2.3                            0.166805782040004 61.8283392645336 0.966543955308393 -21.4607777385589 0.966543955308387 -21.460777738559 0.166805565992366 61.8304699989233 
! Gamma         0                0                0                0                
! Port Impedance         50               0                50               0                
2.4                            0.173360800354013 61.1232328709444 0.96524191008936 -22.3681750760658 0.965241910089356 -22.3681750760658 0.173360546656092 61.1254629348294 
! Gamma         0                0                0                0                
! Port Impedance         50               0                50               0                
2.5                            0.179852723629547 60.4034540160795 0.963904843996869 -23.2730008273909 0.963904843996866 -23.273000827391 0.17985243049577 60.4057839850544 
! Gamma         0                0                0                0                
! Port Impedance         50               0                50               0                
2.6                            0.186279496266523 59.6710774655201 0.962534514063621 -24.1751935851728 0.96253451406362 -24.1751935851729 0.186279161988223 59.6735078795936 
! Gamma         0                0                0                0                
! Port Impedance         50               0                50               0                
2.7                            0.192639209615188 58.9278873380257 0.961132700309885 -25.0746969485596 0.961132700309885 -25.0746969485596 0.192638832545774 58.9304187071117 
! Gamma         0                0                0                0                
! Port Impedance         50               0                50               0                
2.8                            0.198930093321765 58.1754259517015 0.959701199512912 -25.9714593845675 0.959701199512913 -25.9714593845675 0.198929671863764 58.1780587608028 
! Gamma         0                0                0                0                
! Port Impedance         50               0                50               0                
2.9                            0.205150507791026 57.41503297621   0.958241819513791 -26.8654341031774 0.958241819513792 -26.8654341031774 0.205150040384911 57.4177676901925 
! Gamma         0                0                0                0                
! Port Impedance         50               0                50               0                
3                              0.211298937472183 56.6478770742852 0.956756373976044 -27.756578939951 0.956756373976046 -27.756578939951 0.211298422586848 56.6507141422017 
! Gamma         0                0                0                0                
! Port Impedance         50               0                50               0                
3.1                            0.217373984757862 55.874981671983  0.955246677541636 -28.6448562418939 0.955246677541639 -28.644856241894 0.217373420882593 55.8779215309403 
! Gamma         0                0                0                0                
! Port Impedance         50               0                50               0                
3.2                            0.223374364345281 55.0972461006524 0.953714541349495 -29.5302327537375 0.953714541349499 -29.5302327537375 0.223373749983039 55.100289179243  
! Gamma         0                0                0                0                
! Port Impedance         50               0                50               0                
3.3                            0.229298897951269 54.3154630616124 0.952161768893475 -30.4126795028769 0.952161768893479 -30.4126795028769 0.229298231613125 54.3186097829394 
! Gamma         0                0                0                0                
! Port Impedance         50               0                50               0                
3.4                            0.235146509303486 53.5303331473436 0.950590152203521 -31.2921716819784 0.950590152203524 -31.2921716819785 0.235145789504049 53.5335839316785 
! Gamma         0                0                0                0                
! Port Impedance         50               0                50               0                
3.5                            0.24091621935251 52.742476989995  0.949001468337602 -32.1686885288227 0.949001468337606 -32.1686885288228 0.240915444606222 52.7458322571065 
! Gamma         0                0                0                0                
! Port Impedance         50               0                50               0                
3.6                            0.246607141665706 51.9524454845785 0.947397476173773 -33.0422132033416 0.947397476173778 -33.0422132033417 0.246606310483863 51.955905655771  
! Gamma         0                0                0                0                
! Port Impedance         50               0                50               0                
3.7                            0.252218477975674 51.1607284400049 0.945779913492395 -33.9127326620718 0.945779913492399 -33.9127326620719 0.252217588864075 51.1642939399038 
! Gamma         0                0                0                0                
! Port Impedance         50               0                50               0                
3.8                            0.257749513864692 50.3677619386244 0.944150494338513 -34.7802375304246 0.944150494338517 -34.7802375304247 0.257748565321824 50.3714331967404 
! Gamma         0                0                0                0                
! Port Impedance         50               0                50               0                
3.9                            0.263199614572909 49.5739346287563 0.942510906654031 -35.6447219732768 0.942510906654035 -35.6447219732769 0.263198605088585 49.5777120808595 
! Gamma         0                0                0                0                
! Port Impedance         50               0                50               0                
4                              0.268568220922517 48.7795931308491 0.940862810168774 -36.5061835644462 0.940862810168778 -36.5061835644463 0.268567148976897 48.7834772201791 
! Gamma         0                0                0                0                
! Port Impedance         50               0                50               0                
4.1                            0.273854845353367 47.9850467034722 0.939207834539008 -37.3646231556371 0.939207834539012 -37.3646231556372 0.27385370941631 47.9890378818077 
! Gamma         0                0                0                0                
! Port Impedance         50               0                50               0                
4.2                            0.279059068067715 47.1905712881179 0.937547577721446 -38.2200447454358 0.937547577721449 -38.2200447454359 0.279057866598409 47.1946700167258 
! Gamma         0                0                0                0                
! Port Impedance         50               0                50               0                
4.3                            0.284180533283258 46.3964130301436 0.935883604570402 -39.0724553489153 0.935883604570405 -39.0724553489154 0.284179264730086 46.4006197806258 
! Gamma         0                0                0                0                
! Port Impedance         50               0                50               0                
4.4                            0.289218945594585 45.6027913558789 0.93421744564543 -39.921864868373 0.934217445645433 -39.9218648683731 0.289217608395195 45.607106610932  
! Gamma         0                0                0                0                
! Port Impedance         50               0                50               0                
4.5                            0.294174066443647 44.8099016720085 0.932550596216619 -40.7682859656835 0.932550596216621 -40.7682859656836 0.294172659025193 44.8143259261094 
! Gamma         0                0                0                0                
! Port Impedance         50               0                50               0                
4.6                            0.299045710700131 44.0179177421001 0.930884515454654 -41.6117339367011 0.930884515454656 -41.6117339367011 0.299044231479664 44.0224515021285 
! Gamma         0                0                0                0                
! Port Impedance         50               0                50               0                
4.7                            0.303833743352589 43.2269937860224 0.929220625792824 -42.4522265880969 0.929220625792826 -42.452226588097 0.303832190737571 43.2316375718309 
! Gamma         0                0                0                0                
! Port Impedance         50               0                50               0                
4.8                            0.308538076311034 42.4372663405536 0.92756031244828 -43.2897841169684 0.927560312448282 -43.2897841169684 0.308536448699964 42.4420206854931 
! Gamma         0                0                0                0                
! Port Impedance         50               0                50               0                
4.9                            0.313158665321498 41.6488559133866 0.925904923090126 -44.124428993504 0.925904923090127 -44.124428993504 0.313156961104629 41.6537213647941 
! Gamma         0                0                0                0                
! Port Impedance         50               0                50               0                
5                              0.317695506992668 40.8618684577165 0.924255767642222 -44.9561858469469 0.924255767642223 -44.9561858469468 0.317693724552803 40.866845577372  
! Gamma         0                0                0                0                
! Port Impedance         50               0                50               0                
5.1                            0.322148635934435 40.0763966904574 0.922614118208983 -45.7850813550482 0.922614118208984 -45.7850813550481 0.322146773647794 40.0814860550148 
! Gamma         0                0                0                0                
! Port Impedance         50               0                50               0                
5.2                            0.326518122007765 39.2925212736943 0.920981209112885 -46.6111441371652 0.920981209112886 -46.6111441371651 0.326516178244909 39.2977234750916 
! Gamma         0                0                0                0                
! Port Impedance         50               0                50               0                
5.3                            0.330804067684975 38.5103118761188 0.91935823703287 -47.4344046511162 0.919358237032871 -47.4344046511162 0.330802040811779 38.5156275219709 
! Gamma         0                0                0                0                
! Port Impedance         50               0                50               0                
5.4                            0.335006605519117 37.7298281288046 0.917746361233376 -48.2548950938712 0.917746361233376 -48.2548950938711 0.335004493897788 37.7352578427822 
! Gamma         0                0                0                0                
! Port Impedance         50               0                50               0                
5.5                            0.339125895720869 36.951120487674  0.916146703874213 -49.0726493061231 0.916146703874213 -49.0726493061231 0.339123697710997 36.9566649098726 
! Gamma         0                0                0                0                
! Port Impedance         50               0                50               0                
5.6                            0.34316212384102 36.17423101332   0.914560350392106 -49.8877026807576 0.914560350392106 -49.8877026807575 0.343159837800663 36.1798908006203 
! Gamma         0                0                0                0                
! Port Impedance         50               0                50               0                
5.7                            0.347115498556359 35.3991940774234 0.912988349945229 -50.7000920752105 0.912988349945229 -50.7000920752104 0.34711312284315 35.404969903847  
! Gamma         0                0                0                0                
! Port Impedance         50               0                50               0                
5.8                            0.350986249556568 34.6260370037959 0.911431715912648 -51.5098557276836 0.911431715912648 -51.5098557276835 0.350983782528843 34.6319295608568 
! Gamma         0                0                0                0                
! Port Impedance         50               0                50               0                
5.9                            0.354774625529496 33.8547806510539 0.909891426441134 -52.3170331771649 0.909891426441133 -52.3170331771648 0.354772065547438 33.8607906481093 
! Gamma         0                0                0                0                
! Port Impedance         50               0                50               0                
6                              0.358480892242038 33.0854399430519 0.90836842503231 -53.1216651871868 0.90836842503231 -53.1216651871867 0.358478237668839 33.0915681076529 
! Gamma         0                0                0                0                
! Port Impedance         50               0                50               0                
6.1                            0.362105330713719 32.3180243524546 0.906863621163697 -53.9237936732382 0.906863621163697 -53.9237936732381 0.362102579916741 32.3242714306983 
! Gamma         0                0                0                0                
! Port Impedance         50               0                50               0                
6.2                            0.365648235479954 31.5525383421812 0.905377890937632 -54.7234616337365 0.905377890937632 -54.7234616337364 0.365645386831907 31.558905099067  
! Gamma         0                0                0                0                
! Port Impedance         50               0                50               0                
6.3                            0.36910991294192 30.7889817689044 0.903912077752621 -55.5207130844542 0.903912077752621 -55.5207130844541 0.369106964822038 30.7954689886939 
! Gamma         0                0                0                0                
! Port Impedance         50               0                50               0                
6.4                            0.372490679799907 30.0273502523041 0.902466992992075 -56.3155929962884 0.902466992992075 -56.3155929962883 0.372487630595125 30.0339587388873 
! Gamma         0                0                0                0                
! Port Impedance         50               0                50               0                
6.5                            0.375790861566998 29.2676355133617 0.901043416725874 -57.108147236254 0.901043416725874 -57.1081472362539 0.375787709673132 29.2743660906299 
! Gamma         0                0                0                0                
! Port Impedance         50               0                50               0                
6.6                            0.379010791159942 28.5098256846202 0.899642098420587 -57.8984225115777 0.899642098420587 -57.8984225115776 0.379007534982863 28.5166791968471 
! Gamma         0                0                0                0                
! Port Impedance         50               0                50               0                
6.7                            0.38215080756409 27.7539055950203 0.898263757654605 -58.6864663167671 0.898263757654605 -58.686466316767 0.382147445520898 27.7608829072521 
! Gamma         0                0                0                0                
! Port Impedance         50               0                50               0                
6.8                            0.385211254569323 26.9998570316456 0.896909084834775 -59.4723268835272 0.896909084834774 -59.472326883527 0.38520778508951 27.0069590301013 
! Gamma         0                0                0                0                
! Port Impedance         50               0                50               0                
6.9                            0.388192479573913 26.2476589804716 0.895578741911508 -60.2560531333947 0.895578741911508 -60.2560531333945 0.388188901100522 26.2548865729544 
! Gamma         0                0                0                0                
! Port Impedance         50               0                50               0                
7                              0.391094832453391 25.4972878479984 0.894273363089629 -61.037694632964 0.894273363089629 -61.0376946329639 0.391091143444168 25.5046419643188 
! Gamma         0                0                0                0                
! Port Impedance         50               0                50               0                
7.1                            0.393918664491494 24.7487176654592 0.892993555532536 -61.8173015515754 0.892993555532536 -61.8173015515754 0.39391486342003 24.7561992578719 
! Gamma         0                0                0                0                
! Port Impedance         50               0                50               0                
7.2                            0.396664327370413 24.0019202771337 0.891739900057533 -62.5949246213419 0.891739900057533 -62.5949246213419 0.396660412727277 24.0095303207877 
! Gamma         0                0                0                0                
! Port Impedance         50               0                50               0                
7.3                            0.399332172217614 23.2568655141465 0.890512951820417 -63.3706150993905 0.890512951820417 -63.3706150993904 0.399328142511473 23.2646050075505 
! Gamma         0                0                0                0                
! Port Impedance         50               0                50               0                
7.4                            0.40192254870662 22.5135213550002 0.889313240987679 -64.1444247321982 0.889313240987679 -64.1444247321981 0.401918402465354 22.5213913205036 
! Gamma         0                0                0                0                
! Port Impedance         50               0                50               0                
7.5                            0.404435804209233 21.7718540739774 0.888141273394832 -64.916405721906 0.888141273394832 -64.9164057219059 0.404431539981039 21.7798555582685 
! Gamma         0                0                0                0                
! Port Impedance         50               0                50               0                
7.6                            0.4068722829968  21.0318283784423 0.886997531189633 -65.6866106944963 0.886997531189633 -65.6866106944962 0.406867899351279 21.0399624530639 
! Gamma         0                0                0                0                
! Port Impedance         50               0                50               0                
7.7                            0.409232325488183 20.2934075359786 0.885882473459095 -66.4550926697242 0.885882473459096 -66.4550926697242 0.409227821017424 20.3016752978624 
! Gamma         0                0                0                0                
! Port Impedance         50               0                50               0                
7.8                            0.411516267542269 19.5565534922179 0.884796536839367 -67.2219050326973 0.884796536839368 -67.2219050326973 0.411511640861919 19.5649560642389 
! Gamma         0                0                0                0                
! Port Impedance         50               0                50               0                
7.9                            0.41372443979289 18.8212269801391 0.883740136107695 -67.9871015070001 0.883740136107695 -67.9871015070001 0.413719689543217 18.8297655116905 
! Gamma         0                0                0                0                
! Port Impedance         50               0                50               0                
8                              0.415857167024193 18.0873876215493 0.882713664755806 -68.7507361292667 0.882713664755807 -68.7507361292667 0.415852291871134 18.0960632891393 
! Gamma         0                0                0                0                
! Port Impedance         50               0                50               0                
8.1                            0.41791476758454 17.3549940214001 0.881717495544185 -69.5128632251059 0.881717495544186 -69.5128632251059 0.417909766220748 17.3638080292715 
! Gamma         0                0                0                0                
! Port Impedance         50               0                50               0                
8.2                            0.419897552837185 16.6240038555348 0.880751981036787 -70.2735373862892 0.880751981036787 -70.2735373862892 0.419892423983062 16.6329574363087 
! Gamma         0                0                0                0                
! Port Impedance         50               0                50               0                
8.3                            0.421805826646021 15.8943739524151 0.879817454115856 -71.0328134491151 0.879817454115857 -71.0328134491151 0.421800569050743 15.9034683677597 
! Gamma         0                0                0                0                
! Port Impedance         50               0                50               0                
8.4                            0.423639884894814 15.1660603693302 0.878914228476578 -71.7907464738663 0.878914228476578 -71.7907464738663 0.423634497337359 15.175296910656  
! Gamma         0                0                0                0                
! Port Impedance         50               0                50               0                
8.5                            0.425400015038443 14.4390184635518 0.878042599101372 -72.547391725282 0.878042599101373 -72.547391725282 0.425394496328599 14.4483984527343 
! Gamma         0                0                0                0                
! Port Impedance         50               0                50               0                
8.6                            0.427086495684726 13.7132029588598 0.877202842713705 -73.3028046539683 0.877202842713705 -73.3028046539683 0.427080844664109 13.7227277489909 
! Gamma         0                0                0                0                
! Port Impedance         50               0                50               0                
8.7                            0.428699596205539 12.9885680078332 0.876395218211332 -74.0570408786756 0.876395218211333 -74.0570408786757 0.428693811748597 12.9982389840032 
! Gamma         0                0                0                0                
! Port Impedance         50               0                50               0                
8.8                            0.430239576375992 12.2650672502672 0.875619967078965 -74.8101561693738 0.875619967078966 -74.8101561693739 0.430233657391014 12.2748858303782 
! Gamma         0                0                0                0                
! Port Impedance         50               0                50               0                
8.9                            0.431706686040526 11.5426538680539 0.87487731378037 -75.5622064310593 0.874877313780371 -75.5622064310594 0.431700631470646 11.5526215036659 
! Gamma         0                0                0                0                
! Port Impedance         50               0                50               0                
9                              0.433101164804865 10.8212806368353 0.874167466129949 -76.3132476882309 0.874167466129949 -76.313247688231 0.43309497362907 10.8313988140472 
! Gamma         0                0                0                0                
! Port Impedance         50               0                50               0                
9.1                            0.43442324175285 10.1008999747169 0.873490615643908 -77.0633360699752 0.873490615643908 -77.0633360699752 0.434416912986984 10.1111702150839 
! Gamma         0                0                0                0                
! Port Impedance         50               0                50               0                
9.2                            0.435673135187225 9.38146398830965 0.872846937871108 -77.8125277956029 0.872846937871109 -77.812527795603 0.435666667885009 9.39188784979812 
! Gamma         0                0                0                0                
! Port Impedance         50               0                50               0                
9.3                            0.436851052393569 8.66292451634904 0.872236592703751 -78.5608791607822 0.872236592703752 -78.5608791607823 0.436844445647611 8.67350359433114 
! Gamma         0                0                0                0                
! Port Impedance         50               0                50               0                
9.4                            0.437957189426573 7.9452331711213  0.871659724668055 -79.3084465241151 0.871659724668056 -79.3084465241152 0.437950442369395 7.95596909941107 
! Gamma         0                0                0                0                
! Port Impedance         50               0                50               0                
9.5                            0.438991730917985 7.22834137791487 0.871116463195094 -80.0552862941074 0.871116463195095 -80.0552862941075 0.438984842723056 7.23923582984778 
! Gamma         0                0                0                0                
! Port Impedance         50               0                50               0                
9.6                            0.439954849905576 6.51220041269814 0.870606922872001 -80.801454916483 0.870606922872002 -80.8014549164831 0.439947819788349 6.52325510225606 
! Gamma         0                0                0                0                
! Port Impedance         50               0                50               0                
9.7                            0.440846707682542 5.79676143821323 0.870131203673732 -81.5470088617957 0.870131203673733 -81.5470088617958 0.440839534901516 5.80797812119709 
! Gamma         0                0                0                0                
! Port Impedance         50               0                50               0                
9.8                            0.44166745366685 5.08197553866402 0.869689391175615 -82.2920046132939 0.869689391175616 -82.292004613294 0.441660137524632 5.09335601391633 
! Gamma         0                0                0                0                
! Port Impedance         50               0                50               0                
9.9                            0.442417225290037 4.36779375316566 0.8692815567469  -83.0364986549942 0.869281556746901 -83.0364986549943 0.442409765134427 4.37933986384541 
! Gamma         0                0                0                0                
! Port Impedance         50               0                50               0                
10                             0.443096147905089 3.65416710811419 0.868907757725561 -83.7805474599225 0.868907757725562 -83.7805474599226 0.443088543130182 3.66588074302659 
! Gamma         0                0                0                0                
! Port Impedance         50               0                50               0                
10.1                           0.443704334713021 2.94104664862593 0.868568037574572 -84.5242074784808 0.868568037574572 -84.5242074784809 0.443696584760325 2.95292974360974 
! Gamma         0                0                0                0                
! Port Impedance         50               0                50               0                
10.2                           0.444241886707878 2.22838346918879 0.868262426019922 -85.2675351269019 0.868262426019923 -85.267535126902 0.444233991067456 2.24043800856404 
! Gamma         0                0                0                0                
! Port Impedance         50               0                50               0                
10.3                           0.444708892639895 1.51612874366123 0.867990939170628 -86.0105867757517 0.86799093917063 -86.0105867757518 0.444700850851528 1.52835676174033 
! Gamma         0                0                0                0                
! Port Impedance         50               0                50               0                
10.4                           0.44510542899662 0.804233754748229 0.867753579620989 -86.7534187384435 0.86775357962099 -86.7534187384436 0.445097240651   0.816637337413762 
! Gamma         0                0                0                0                
! Port Impedance         50               0                50               0                
10.5                           0.445431560001834 0.0926499230784833 0.867550336535372 -87.4960872597272 0.867550336535372 -87.4960872597273 0.44542322474178 0.105231209430889 
! Gamma         0                0                0                0                
! Port Impedance         50               0                50               0                
10.6                           0.445687337632173 -0.618671163997584 0.867381185715795 -88.2386485041171 0.867381185715796 -88.2386485041172 0.445678855153879 -0.605909979918684 
! Gamma         0                0                0                0                
! Port Impedance         50               0                50               0                
10.7                           0.445872801651362 -1.32977772377341 0.867246089652597 -88.9811585442254 0.867246089652598 -88.9811585442255 0.445864171705678 -1.31683439119056 
! Gamma         0                0                0                0                
! Port Impedance         50               0                50               0                
10.8                           0.445987979662053 -2.04071774960362 0.867144997558475 -89.7236733489658 0.867144997558476 -89.7236733489659 0.445979202055796 -2.02758995912144 
! Gamma         0                0                0                0                
! Port Impedance         50               0                50               0                
10.9                           0.446032887175265 -2.75153898226361 0.867077845386195 -90.4662487715945 0.867077845386195 -90.4662487715946 0.446023961772574 -2.73822436390308 
! Gamma         0                0                0                0                
! Port Impedance         50               0                50               0                
11                             0.446007527697495 -3.46228888114477 0.867044555830286 -91.2089405375555 0.867044555830287 -91.2089405375556 0.445998454421223 -3.44878500228716 
! Gamma         0                0                0                0                
! Port Impedance         50               0                50               0                
11.1                           0.445911892835575 -4.17301459518021 0.867045038313028 -91.9518042320992 0.867045038313029 -91.9518042320993 0.445902671668715 -4.15931895841605 
! Gamma         0                0                0                0                
! Port Impedance         50               0                50               0                
11.2                           0.445745962419409 -4.88376293339752 0.867079188955068 -92.6948952876406 0.867079188955069 -92.6948952876407 0.445736593406581 -4.8698729742752 
! Gamma         0                0                0                0                
! Port Impedance         50               0                50               0                
11.3                           0.445509704642756 -5.59458033499577 0.867146890530994 -93.4382689708282 0.867146890530995 -93.4382689708283 0.445500187891727 -5.58049341966451 
! Gamma         0                0                0                0                
! Port Impedance         50               0                50               0                
11.4                           0.445203076222252 -6.30551283884437 0.867248012410238 -94.1819803692911 0.867248012410239 -94.1819803692912 0.445193411905513 -6.29122626158557 
! Gamma         0                0                0                0                
! Port Impedance         50               0                50               0                
11.5                           0.444826022574892 -7.01660605230154 0.867382410483653 -94.9260843780356 0.867382410483654 -94.9260843780357 0.444816210931287 -7.00211703294229 
! Gamma         0                0                0                0                
! Port Impedance         50               0                50               0                
11.6                           0.444378478014252 -7.72790511924947 0.867549927076162 -95.6706356854602 0.867549927076163 -95.6706356854602 0.444368519350667 -7.71321080045166 
! Gamma         0                0                0                0                
! Port Impedance         50               0                50               0                
11.7                           0.443860365965719 -8.43945468724231 0.867750390845877 -96.4156887589606 0.867750390845878 -96.4156887589606 0.443850260658825 -8.42455213166018 
! Gamma         0                0                0                0                
! Port Impedance         50               0                50               0                
11.8                           0.443271599201069 -9.15129887366184 0.867983616670099 -97.1612978300958 0.8679836166701  -97.1612978300958 0.443261347699132 -9.1361850609604 
! Gamma         0                0                0                0                
! Port Impedance         50               0                50               0                
11.9                           0.442612080092722 -9.86348123077349 0.868249405518645 -97.9075168792864 0.868249405518646 -97.9075168792865 0.442601682917482 -9.84815305449975 
! Gamma         0                0                0                0                
! Port Impedance         50               0                50               0                
12                             0.441881700888061 -10.5760447095733 0.868547544314955 -98.6543996200179 0.868547544314956 -98.6543996200179 0.441871158636677 -10.5604989738716 
! Gamma         0                0                0                0                
! Port Impedance         50               0                50               0                
12.1                           0.441080344004202 -11.2890316223129 0.868877805785476 -99.40199948252  0.868877805785477 -99.40199948252  0.441069657351273 -11.2732650384752 
! Gamma         0                0                0                0                
! Port Impedance         50               0                50               0                
12.2                           0.440207882343638 -12.0024836035873 0.869239948297811 -100.150369596898 0.869239948297812 -100.150369596898 0.440197052043307 -11.9864927864285 
! Gamma         0                0                0                0                
! Port Impedance         50               0                50               0                
12.3                           0.439264179631198 -12.7164415698645 0.869633715688195 -100.899562775686 0.869633715688195 -100.899562775686 0.439253206519334 -12.7002230339119 
! Gamma         0                0                0                0                
! Port Impedance         50               0                50               0                
12.4                           0.438249090772776 -13.4309456773334 0.870058837078837 -101.649631495801 0.870058837078839 -101.649631495801 0.438237975769246 -13.4144958328195 
! Gamma         0                0                0                0                
! Port Impedance         50               0                50               0                
12.5                           0.437162462236315 -14.1460352779388 0.870515026685749 -102.400627879868 0.87051502668575 -102.400627879868 0.437151206347347 -14.1293504265846 
! Gamma         0                0                0                0                
! Port Impedance         50               0                50               0                
12.6                           0.43600413245552 -14.861748873469 0.871001983617661 -103.152603676893 0.871001983617662 -103.152603676893 0.435992736776171 -14.8448252040451 
! Gamma         0                0                0                0                
! Port Impedance         50               0                50               0                
12.7                           0.434773932256829 -15.5781240675521 0.871519391666722 -103.905610242267 0.871519391666723 -103.905610242267 0.434762397973543 -15.5609576512039 
! Gamma         0                0                0                0                
! Port Impedance         50               0                50               0                
12.8                           0.433471685310126 -16.2951975154122 0.87206691909165 -104.659698517063 0.872066919091651 -104.659698517063 0.433460013703415 -16.2777843007326 
! Gamma         0                0                0                0                
! Port Impedance         50               0                50               0                
12.9                           0.432097208603747 -17.0130048712253 0.872644218394093 -105.414919006626 0.872644218394094 -105.414919006626 0.432085401050983 -16.995340679061 
! Gamma         0                0                0                0                
! Port Impedance         50               0                50               0                
13                             0.430650312944287 -17.7315807329089 0.873250926088972 -106.171321758411 0.873250926088973 -106.171321758411 0.43063837092261 -17.71366125088  
! Gamma         0                0                0                0                
! Port Impedance         50               0                50               0                
13.1                           0.429130803481741 -18.4509585841644 0.873886662469622 -106.928956339071 0.873886662469623 -106.928956339071 0.429118728571104 -18.4327793608812 
! Gamma         0                0                0                0                
! Port Impedance         50               0                50               0                
13.2                           0.427538480260513 -19.1711707335845 0.8745510313686  -107.687871810761 0.874551031368601 -107.687871810761 0.427526274146863 -19.1527271725392 
! Gamma         0                0                0                0                
! Port Impedance         50               0                50               0                
13.3                           0.42587313879682 -19.8922482506207 0.875243619915075 -108.448116706651 0.875243619915076 -108.448116706651 0.425860803275419 -19.8735356037328 
! Gamma         0                0                0                0                
! Port Impedance         50               0                50               0                
13.4                           0.424134570682994 -20.6142208981942 0.875963998289742 -109.209739005627 0.875963998289743 -109.209739005627 0.424122107661901 -20.5952342589858 
! Gamma         0                0                0                0                
! Port Impedance         50               0                50               0                
13.5                           0.422322564219212 -21.3371170617156 0.876711719478283 -109.972786106165 0.876711719478283 -109.972786106165 0.422309975722922 -21.3178513580911 
! Gamma         0                0                0                0                
! Port Impedance         50               0                50               0                
13.6                           0.420436905073123 -22.0609636742623 0.877486319024421 -110.737304799372 0.877486319024422 -110.737304799372 0.420424193246383 -22.0414136608647 
! Gamma         0                0                0                0                
! Port Impedance         50               0                50               0                
13.7                           0.418477376967869 -22.7857861376416 0.878287314783688 -111.503341241175 0.878287314783689 -111.503341241175 0.418464544079679 -22.7659463877552 
! Gamma         0                0                0                0                
! Port Impedance         50               0                50               0                
13.8                           0.41644376239894 -23.5116082390449 0.879114206679048 -112.27094092366 0.879114206679049 -112.27094092366 0.416430810846746 -23.4914731360122 
! Gamma         0                0                0                0                
! Port Impedance         50               0                50               0                
13.9                           0.414335843380283 -24.2384520629756 0.879966476459615 -113.040148645537 0.879966476459616 -113.040148645537 0.414322775694384 -24.2180157910931 
! Gamma         0                0                0                0                
! Port Impedance         50               0                50               0                
14                             0.412153402220085 -24.9663378981016 0.880843587463728 -113.811008481751 0.880843587463729 -113.811008481751 0.412140221068259 -24.9455944329558 
! Gamma         0                0                0                0                
! Port Impedance         50               0                50               0                
14.1                           0.409896222326556 -25.6952841386572 0.881744984387702 -114.583563752214 0.881744984387703 -114.583563752214 0.409882930518927 -25.6742272368598 
! Gamma         0                0                0                0                
! Port Impedance         50               0                50               0                
14.2                           0.407564089044059 -26.4253071799806 0.882670093061657 -115.35785698967 0.882670093061658 -115.35785698967 0.407550689538216 -26.4039303682568 
! Gamma         0                0                0                0                
! Port Impedance         50               0                50               0                
14.3                           0.405156790519849 -27.1564213077355 0.883618320233847 -116.1339299067  0.883618320233848 -116.1339299067  0.40514328642624 -27.1347178713172 
! Gamma         0                0                0                0                
! Port Impedance         50               0                50               0                
14.4                           0.402674118601642 -27.8886385803226 0.884589053365002 -116.911823361862 0.884589053365003 -116.911823361862 0.402660513189257 -27.8666015505915 
! Gamma         0                0                0                0                
! Port Impedance         50               0                50               0                
14.5                           0.400115869766196 -28.6219687039373 0.885581660434225 -117.691577324987 0.885581660434225 -117.691577324987 0.40010216646856 -28.5995908452603 
! Gamma         0                0                0                0                
! Port Impedance         50               0                50               0                
14.6                           0.397481846078994 -29.3564188996744 0.886595489758056 -118.47323084163 0.886595489758057 -118.47323084163 0.397468048500505 -29.3336926953662 
! Gamma         0                0                0                0                
! Port Impedance         50               0                50               0                
14.7                           0.394771856185094 -30.0919937620189 0.887629869824374 -119.256821996714 0.887629869824375 -119.256821996714 0.394757968107713 -30.068911399363 
! Gamma         0                0                0                0                
! Port Impedance         50               0                50               0                
14.8                           0.391985716331104 -30.8286951079937 0.888684109142836 -120.042387877357 0.888684109142836 -120.042387877357 0.391971741721439 -30.8052484622435 
! Gamma         0                0                0                0                
! Port Impedance         50               0                50               0                
14.9                           0.389123251418182 -31.5665218161542 0.889757496113633 -120.829964534935 0.889757496113633 -120.829964534935 0.389109194434989 -31.5427024334315 
! Gamma         0                0                0                0                
! Port Impedance         50               0                50               0                
15                             0.386184296085885 -32.3054696545322 0.890849298916379 -121.619586946388 0.89084929891638 -121.619586946388 0.386170161088027 -32.2812687335296 
! Gamma         0                0                0                0                
! Port Impedance         50               0                50               0                
15.1                           0.383168695826599 -33.0455310965314 0.891958765420984 -122.411288974811 0.891958765420984 -122.411288974811 0.383154487381487 -33.0209394689179 
! Gamma         0                0                0                0                
! Port Impedance         50               0                50               0                
15.2                           0.380076308130186 -33.786695123661 0.893085123122416 -123.205103329361 0.893085123122416 -123.205103329361 0.380062031022758 -33.7617032330787 
! Gamma         0                0                0                0                
! Port Impedance         50               0                50               0                
15.3                           0.376907003658403 -34.5289470138675 0.894227579101304 -124.001061524527 0.894227579101304 -124.001061524527 0.376892662900679 -34.5035448933967 
! Gamma         0                0                0                0                
! Port Impedance         50               0                50               0                
15.4                           0.373660667448558 -35.2722681140743 0.895385320012347 -124.799193838797 0.895385320012348 -124.799193838797 0.373646268289813 -35.2464453620309 
! Gamma         0                0                0                0                
! Port Impedance         50               0                50               0                
15.5                           0.370337200145732 -36.0166355953753 0.896557512102533 -125.59952927279 0.896557512102534 -125.59952927279 0.37032274808336 -35.9903813492906 
! Gamma         0                0                0                0                
! Port Impedance         50               0                50               0                
15.6                           0.366936519262849 -36.762022189134 0.897743301261194 -126.402095506884 0.897743301261194 -126.402095506884 0.366922020053959 -36.7353250977517 
! Gamma         0                0                0                0                
! Port Impedance         50               0                50               0                
15.7                           0.363458560467715 -37.5083959020265 0.898941813103948 -127.206918858428 0.898941813103948 -127.206918858428 0.363444020141547 -37.4812440951317 
! Gamma         0                0                0                0                
! Port Impedance         50               0                50               0                
15.8                           0.359903278896096 -38.2557197078113 0.900152153092576 -128.014024238577 0.900152153092577 -128.014024238577 0.359888703767316 -38.2281007636895 
! Gamma         0                0                0                0                
! Port Impedance         50               0                50               0                
15.9                           0.356270650489765 -39.0039512133304 0.901373406692879 -128.823435108845 0.90137340669288 -128.823435108845 0.356256047172729 -38.9758521236274 
! Gamma         0                0                0                0                
! Port Impedance         50               0                50               0                
16                             0.35256067335836 -39.7530422959118 0.902604639572579 -129.635173437431 0.90260463957258 -129.635173437431 0.352546048782447 -39.7244494276449 
! Gamma         0                0                0                0                
! Port Impedance         50               0                50               0                
16.1                           0.348773369163814 -40.5029387089696 0.903844897841284 -130.449259655415 0.903844897841284 -130.449259655415 0.348758730589925 -40.4738377634071 
! Gamma         0                0                0                0                
! Port Impedance         50               0                50               0                
16.2                           0.344908784526003 -41.253579652163 0.905093208334525 -131.26571261291 0.905093208334525 -131.26571261291 0.344894139564346 -41.223955620258 
! Gamma         0                0                0                0                
! Port Impedance         50               0                50               0                
16.3                           0.340966992448202 -42.0048973019695 0.906348578943841 -132.084549535249 0.906348578943841 -132.084549535249 0.340952349077499 -41.9747344159978 
! Gamma         0                0                0                0                
! Port Impedance         50               0                50               0                
16.4                           0.336948093760852 -42.75681629795  0.907609998994826 -132.905785979333 0.907609998994827 -132.905785979333 0.336933460349111 -42.7260979789575 
! Gamma         0                0                0                0                
! Port Impedance         50               0                50               0                
16.5                           0.332852218582106 -43.5092531793059 0.908876439675012 -133.729435790211 0.908876439675013 -133.729435790211 0.332837603909131 -43.4779619799229 
! Gamma         0                0                0                0                
! Port Impedance         50               0                50               0                
16.6                           0.328679527793574 -44.2621157655426 0.910146854513366 -134.555511058034 0.910146854513366 -134.555511058034 0.328664941075392 -44.2302333076694 
! Gamma         0                0                0                0                
! Port Impedance         50               0                50               0                
16.7                           0.324430214529683 -45.0153024741413 0.911420179913126 -135.384022075475 0.911420179913126 -135.384022075475 0.324415665445118 -44.9828093809431 
! Gamma         0                0                0                0                
! Port Impedance         50               0                50               0                
16.8                           0.320104505679096 -45.7687015670686 0.912695335739571 -136.214977295753 0.912695335739572 -136.214977295753 0.320090004398712 -45.7355773886471 
! Gamma         0                0                0                0                
! Port Impedance         50               0                50               0                
16.9                           0.315702663396685 -46.5221903167021 0.913971225964236 -137.048383291367 0.913971225964236 -137.048383291367 0.315688220614388 -46.4884134487281 
! Gamma         0                0                0                0                
! Port Impedance         50               0                50               0                
17                             0.311224986624651 -47.2756340802786 0.915246739366922 -137.884244713702 0.915246739366922 -137.884244713702 0.311210613592249 -47.241181674772 
! Gamma         0                0                0                0                
! Port Impedance         50               0                50               0                
17.1                           0.306671812621555 -48.0288852702349 0.916520750296764 -138.722564253604 0.916520750296764 -138.722564253604 0.306657521186644 -47.9937331375691 
! Gamma         0                0                0                0                
! Port Impedance         50               0                50               0                
17.2                           0.302043518498233 -48.7817822057672 0.917792119493385 -139.563342603103 0.917792119493386 -139.563342603104 0.302029321145807 -48.7459047068459 
! Gamma         0                0                0                0                
! Port Impedance         50               0                50               0                
17.3                           0.297340522759881 -49.5341478285026 0.919059694969089 -140.406578418399 0.919059694969088 -140.406578418399 0.297326432658132 -49.4975177559062 
! Gamma         0                0                0                0                
! Port Impedance         50               0                50               0                
17.4                           0.292563286853997 -50.2857882622942 0.920322312952751 -141.252268284274 0.920322312952751 -141.252268284274 0.292549317904836 -50.2483767090199 
! Gamma         0                0                0                0                
! Port Impedance         50               0                50               0                
17.5                           0.287712316724359 -51.0364911937086 0.921578798895964 -142.100406680085 0.921578798895965 -142.100406680085 0.287698483619281 -50.9982674079253 
! Gamma         0                0                0                0                
! Port Impedance         50               0                50               0                
17.6                           0.282788164371924 -51.7860240456549 0.922827968541704 -142.950985947476 0.922827968541704 -142.950985947476 0.28277448265392 -51.7469552696536 
! Gamma         0                0                0                0                
! Port Impedance         50               0                50               0                
17.7                           0.277791429424317 -52.5341319116615 0.924068629055581 -143.803996259986 0.924068629055582 -143.803996259986 0.277777915556654 -52.4941832029035 
! Gamma         0                0                0                0                
! Port Impedance         50               0                50               0                
17.8                           0.272722760716662 -53.2805352123417 0.925299580219497 -144.6594255947  0.925299580219498 -144.6594255947  0.272709432159482 -53.2396692441751 
! Gamma         0                0                0                0                
! Port Impedance         50               0                50               0                
17.9                           0.267582857887779 -54.0249270283771 0.926519615687248 -145.517259706107 0.926519615687249 -145.517259706107 0.267569733183631 -53.9831038676019 
! Gamma         0                0                0                0                
! Port Impedance         50               0                50               0                
18                             0.262372472997418 -54.7669700555815 0.927727524301361 -146.377482102321 0.927727524301361 -146.377482102321 0.262359571867019 -54.7241469135796 
! Gamma         0                0                0                0                
! Port Impedance         50               0                50               0                
18.1                           0.257092412172218 -55.5062931169147 0.928922091470138 -147.240074023839 0.928922091470139 -147.240074023839 0.257079755621955 -55.4624240705073 
! Gamma         0                0                0                0                
! Port Impedance         50               0                50               0                
18.2                           0.251743537290572 -56.2424871532103 0.930102100603622 -148.105014424978 0.930102100603623 -148.105014424978 0.251731147733532 -56.1975228307451 
! Gamma         0                0                0                0                
! Port Impedance         50               0                50               0                
18.3                           0.246326767719712 -56.9751005982453 0.931266334606846 -148.972279958168 0.931266334606847 -148.972279958168 0.246314669112361 -56.9289878256241 
! Gamma         0                0                0                0                
! Port Impedance         50               0                50               0                
18.4                           0.240843082122236 -57.7036340238223 0.932413577428448 -149.841844961239 0.932413577428449 -149.841844961239 0.240831300119229 -57.6563154242196 
! Gamma         0                0                0                0                
! Port Impedance         50               0                50               0                
18.5                           0.235293520354157 -58.4275339157174 0.933542615662387 -150.713681447872 0.933542615662387 -150.713681447872 0.235282082484263 -58.3789474555904 
! Gamma         0                0                0                0                
! Port Impedance         50               0                50               0                
18.6                           0.22967918548266 -59.1461854103292 0.934652240200183 -151.587759101348 0.934652240200184 -151.587759101349 0.229668121349343 -59.0962638829089 
! Gamma         0                0                0                0                
! Port Impedance         50               0                50               0                
18.7                           0.224001245959483 -59.8589037828766 0.935741247930753 -152.464045271754 0.935741247930754 -152.464045271754 0.223990587470425 -59.8075742186181 
! Gamma         0                0                0                0                
! Port Impedance         50               0                50               0                
18.8                           0.218260937995585 -60.5649244287073 0.936808443484603 -153.342504976761 0.936808443484604 -153.342504976761 0.218250719626261 -60.5121074200753 
! Gamma         0                0                0                0                
! Port Impedance         50               0                50               0                
18.9                           0.212459568195193 -61.263391016585 0.937852641018787 -154.223100906138 0.937852641018786 -154.223100906138 0.212449827292758 -61.2089999419568 
! Gamma         0                0                0                0                
! Port Impedance         50               0                50               0                
19                             0.206598516523265 -61.9533414125605 0.938872666038718 -155.10579343009 0.938872666038718 -155.10579343009 0.206589293658329 -61.8972815408256 
! Gamma         0                0                0                0                
! Port Impedance         50               0                50               0                
19.1                           0.200679239700947 -62.6336908695863 0.939867357252608 -155.990540611561 0.939867357252608 -155.990540611562 0.200670579076539 -62.5758583230261 
! Gamma         0                0                0                0                
! Port Impedance         50               0                50               0                
19.2                           0.194703275150318 -63.3032118437293 0.940835568453957 -156.877298222594 0.940835568453958 -156.877298222594 0.194695225079497 -63.2434923917688 
! Gamma         0                0                0                0                
! Port Impedance         50               0                50               0                
19.3                           0.188672245644672 -63.9605096221737 0.941776170427275 -157.766019764841 0.941776170427275 -157.766019764841 0.188664859110977 -63.8987772723124 
! Gamma         0                0                0                0                
! Port Impedance         50               0                50               0                
19.4                           0.182587864866748 -64.6039927165803 0.942688052871848 -158.656656494316 0.942688052871847 -158.656656494316 0.182581200185224 -64.5401080608588 
! Gamma         0                0                0                0                
! Port Impedance         50               0                50               0                
19.5                           0.17645194413883 -65.2318366673745 0.943570126338148 -159.54915745045 0.943570126338147 -159.54915745045 0.17644606573986 -65.1656449326187 
! Gamma         0                0                0                0                
! Port Impedance         50               0                50               0                
19.6                           0.170266400671264 -65.8419394913042 0.94442132417122 -160.443469489512 0.94442132417122 -160.443469489512 0.170261380035393 -65.7732682284387 
! Gamma         0                0                0                0                
! Port Impedance         50               0                50               0                
19.7                           0.164033267788241 -66.4318664448829 0.945240604455097 -161.339537322438 0.945240604455096 -161.339537322438 0.164029184567907 -66.3605227759323 
! Gamma         0                0                0                0                
! Port Impedance         50               0                50               0                
19.8                           0.157754707743783 -66.9987810104912 0.946026951952153 -162.23730355709 0.946026951952152 -162.23730355709 0.15775165111811 -66.9245483302993 
! Gamma         0                0                0                0                
! Port Impedance         50               0                50               0                
19.9                           0.151433027954775 -67.539357952742 0.946779380031076 -163.136708744973 0.946779380031075 -163.136708744973 0.151431098277336 -67.4619919543155 
! Gamma         0                0                0                0                
! Port Impedance         50               0                50               0                
20                             0.145070701778538 -68.0496728110044 0.947496932576998 -164.037691432385 0.947496932576998 -164.037691432385 0.145070012596455 -67.968896666581 
! Gamma         0                0                -0               -0               
! Port Impedance         50               0                50               0                
