! Touchstone file exported from HFSS 2026.1.0
!        File:           C:/ffzhzh/LocalFiles/Ansys_Project_Files/temp_train_TSV_RDL_472_1783103085_46604.aedt
!        Generated:      02:32:54 AM Jul  4, 2026
!        Design:         TSV_RDL
!        Project:        temp_train_TSV_RDL_472_1783103085_46604
!
! Variables:
!        h_bsmrdl = 5.24um
!        h_ox = 20um
!        h_rdl = 5um
!        h_sub = 56.01um
!        h_tmrdl = 4.65um
!        h_tsv = 56.01um
!        h_via = 3um
!        l_bsmrdl = 524.66um
!        l_sub = 3028.95um
!        l_tmrdl = 227.66um
!        m_sub = 200um
!        pitch = 33.39um
!        r_tsv = 13.87um
!        s_tmrdl = 10um
!        w_bsmrdl = 29.39um
!        w_sub = 500um
!        w_tmrdl = 18.72um
!        x_tsv_center1 = 237.02um
!        x_tsv_center2 = 791.07um
!        x_tsv_center3 = 1037.45um
!        x_tsv_center4 = 1591.5um
!        x_tsv_center5 = 1837.88um
!        x_tsv_center6 = 2391.93um
!
# GHz S MA R 50.000000
! Terminal data exported
! Port[1] = TM_RDL1_1_T1
! Port[2] = TM_RDL5_1_T1
0.1                            0.00907069964096202 8.82974130183478 0.99106232971608 -1.05839714256982 0.99106232971608 -1.05839714256981 0.0090706929780909 8.82968263656147 
! Gamma         0                0                0                0                
! Port Impedance         50               0                50               0                
0.2                            0.0104787309044973 9.22962853355768 0.989728015235459 -2.06044825328425 0.989728015235459 -2.06044825328413 0.0104786539951741 9.22831685606289 
! Gamma         0                0                0                0                
! Port Impedance         50               0                50               0                
0.3                            0.0115069646239277 6.08876822466394 0.988579059835182 -3.01965856779157 0.988579059835182 -3.01965856779135 0.0115066437035847 6.08712599742776 
! Gamma         0                0                0                0                
! Port Impedance         50               0                50               0                
0.4                            0.0121814021783053 2.40443121052041 0.987761766907082 -3.96229760447754 0.987761766907084 -3.96229760447727 0.0121808557179884 2.4031138853514  
! Gamma         0                0                0                0                
! Port Impedance         50               0                50               0                
0.5                            0.0126579103949483 -1.10165760260308 0.987180194888068 -4.90105561272434 0.987180194888071 -4.90105561272405 0.0126571975245748 -1.10243077288296 
! Gamma         0                0                0                0                
! Port Impedance         50               0                50               0                
0.6                            0.0130361229802109 -4.33897212011136 0.986737691425295 -5.84014921948215 0.986737691425299 -5.84014921948187 0.0130352914990788 -4.33917114019313 
! Gamma         0                0                0                0                
! Port Impedance         50               0                50               0                
0.7                            0.0133697279907036 -7.3467291087447 0.98637216441822 -6.78059165596326 0.986372164418224 -6.78059165596298 0.0133688096195863 -7.34639126267055 
! Gamma         0                0                0                0                
! Port Impedance         50               0                50               0                
0.8                            0.0136874669123694 -10.1778509094116 0.986047033750421 -7.72236932929972 0.986047033750426 -7.72236932929945 0.0136864813248025 -10.1770347222031 
! Gamma         0                0                0                0                
! Port Impedance         50               0                50               0                
0.9                            0.0140051760897058 -12.8760350143629 0.985740912599882 -8.66519093773051 0.985740912599888 -8.66519093773025 0.0140041348175845 -12.8748035919332 
! Gamma         0                0                0                0                
! Port Impedance         50               0                50               0                
1                              0.0143318623785721 -15.4738256216411 0.985441141091192 -9.60872824238723 0.985441141091198 -9.60872824238698 0.0143307714784932 -15.4722406300957 
! Gamma         0                0                0                0                
! Port Impedance         50               0                50               0                
1.1                            0.0146727699880173 -17.9947569032657 0.985140131520211 -10.5526862610857 0.985140131520218 -10.5526862610855 0.0146716317413776 -17.9928764077918 
! Gamma         0                0                0                0                
! Port Impedance         50               0                50               0                
1.2                            0.0150309805116124 -20.4557176204864 0.984833323981692 -11.4968177314062 0.984833323981699 -11.496817731406 0.015029794509501 -20.4535953459443 
! Gamma         0                0                0                0                
! Port Impedance         50               0                50               0                
1.3                            0.0154082828478457 -22.8688115828093 0.984518021396303 -12.4409204837197 0.984518021396311 -12.4409204837195 0.0154070467025868 -22.8664967113899 
! Gamma         0                0                0                0                
! Port Impedance         50               0                50               0                
1.4                            0.0158056663093392 -25.2427063440445 0.984192706437486 -13.3848306203588 0.984192706437493 -13.3848306203586 0.0158043761401139 -25.2402435287449 
! Gamma         0                0                0                0                
! Port Impedance         50               0                50               0                
1.5                            0.0162236114077338 -27.5835912362042 0.983856628134291 -14.3284156166163 0.983856628134298 -14.3284156166161 0.0162222621872734 -27.5810207148138 
! Gamma         0                0                0                0                
! Port Impedance         50               0                50               0                
1.6                            0.0166622676977799 -29.8958587338488 0.983509543536725 -15.2715684620986 0.983509543536733 -15.2715684620985 0.0166608535112546 -29.8932165021385 
! Gamma         0                0                0                0                
! Port Impedance         50               0                50               0                
1.7                            0.0171215662118898 -32.1825935531638 0.983151551156844 -16.2142029708685 0.983151551156851 -16.2142029708683 0.0171200804582348 -32.1799115809017 
! Gamma         0                0                0                0                
! Port Impedance         50               0                50               0                
1.8                            0.0176012926844967 -34.4459277975005 0.982782980329444 -17.1562500989695 0.982782980329452 -17.1562500989694 0.0175997282382592 -34.443234278058 
! Gamma         0                0                0                0                
! Port Impedance         50               0                50               0                
1.9                            0.0181011365026949 -36.6873016669813 0.982404315635847 -18.0976550565785 0.982404315635855 -18.0976550565784 0.0180994858473797 -36.684621292554 
! Gamma         0                0                0                0                
! Port Impedance         50               0                50               0                
2                              0.0186207241711218 -38.9076565535442 0.982016143943105 -19.0383750247372 0.982016143943113 -19.0383750247371 0.0186189795108273 -38.9050108078599 
! Gamma         0                0                0                0                
! Port Impedance         50               0                50               0                
2.1                            0.0191596426163009 -41.1075789386584 0.981619116443426 -19.9783773258586 0.981619116443434 -19.9783773258586 0.0191577959699733 -41.1049863989874 
! Gamma         0                0                0                0                
! Port Impedance         50               0                50               0                
2.2                            0.0197174556482939 -43.287407954363 0.981213920922279 -20.9176379342415 0.981213920922287 -20.9176379342415 0.0197154989294743 -43.2848845950616 
! Gamma         0                0                0                0                
! Port Impedance         50               0                50               0                
2.3                            0.0202937157020908 -45.4473157610913 0.980801261194889 -21.8561402428142 0.980801261194896 -21.8561402428142 0.0202916407861753 -45.444875251772 
! Gamma         0                0                0                0                
! Port Impedance         50               0                50               0                
2.4                            0.0208879722511147 -47.5873673845992 0.980381841702052 -22.7938740251226 0.98038184170206 -22.7938740251227 0.020885771031649 -47.58502137716  
! Gamma         0                0                0                0                
! Port Impedance         50               0                50               0                
2.5                            0.0214997778286406 -49.7075649206131 0.979956355914858 -23.7308345483815 0.979956355914865 -23.7308345483815 0.0214974422638799 -49.7053233206256 
! Gamma         0                0                0                0                
! Port Impedance         50               0                50               0                
2.6                            0.0221286923008056 -51.8078797932784 0.979525477618085 -24.6670218055918 0.979525477618092 -24.6670218055919 0.0221262144516025 -51.8057510124832 
! Gamma         0                0                0                0                
! Port Impedance         50               0                50               0                
2.7                            0.0227742858438432 -53.888275872382 0.979089854415091 -25.6024398434888 0.979089854415097 -25.6024398434888 0.0227716579038174 -53.8862670602014 
! Gamma         0                0                0                0                
! Port Impedance         50               0                50               0                
2.8                            0.0234361409505065 -55.9487256058571 0.978650102977547 -26.5370961693398 0.978650102977553 -26.5370961693398 0.023433355269385 -55.9468428588421 
! Gamma         0                0                0                0                
! Port Impedance         50               0                50               0                
2.9                            0.0241138537035155 -57.989220837618 0.978206805685064 -27.4710012240638 0.978206805685069 -27.4710012240639 0.0241109028044736 -57.9874693865838 
! Gamma         0                0                0                0                
! Port Impedance         50               0                50               0                
3                              0.0248070344931401 -60.0097796098631 0.977760508383384 -28.4041679123008 0.977760508383389 -28.4041679123009 0.0248039110849281 -60.0081639851334 
! Gamma         0                0                0                0                
! Port Impedance         50               0                50               0                
3.1                            0.0255153083128343 -62.0104499624207 0.977311719048647 -29.3366111822878 0.977311719048652 -29.3366111822879 0.0255120052974262 -62.0089741380978 
! Gamma         0                0                0                0                
! Port Impedance         50               0                50               0                
3.2                            0.0262383147354947 -63.9913115180957 0.976860907187552 -30.26834764997  0.976860907187556 -30.2683476499701 0.026234825211944 -63.9899790366313 
! Gamma         0                0                0                0                
! Port Impedance         50               0                50               0                
3.3                            0.0269757076497263 -65.9524754672569 0.976408503834592 -31.1993952628784 0.976408503834596 -31.1993952628785 0.0269720249148632 -65.9512895458283 
! Gamma         0                0                0                0                
! Port Impedance         50               0                50               0                
3.4                            0.0277271548180505 -67.8940834262304 0.975954902031345 -32.1297730000805 0.975954902031348 -32.1297730000806 0.0277232723645994 -67.8930470465557 
! Gamma         0                0                0                0                
! Port Impedance         50               0                50               0                
3.5                            0.0284923373056302 -69.8163055344028 0.975500457691449 -33.059500605058 0.975500457691452 -33.059500605058 0.0284882488182715 -69.8154215176759 
! Gamma         0                0                0                0                
! Port Impedance         50               0                50               0                
3.6                            0.0292709488177279 -71.7193380682117 0.975045490769877 -33.9885983487507 0.97504549076988 -33.9885983487508 0.0292666481675719 -71.7186091368262 
! Gamma         0                0                0                0                
! Port Impedance         50               0                50               0                
3.7                            0.0300626949759727 -73.6034007817305 0.97459028666746 -34.9170868202902 0.974590286667462 -34.9170868202903 0.0300581762138592 -73.6028296094011 
! Gamma         0                0                0                0                
! Port Impedance         50               0                50               0                
3.8                            0.0308672925570606 -75.4687341296611 0.974135097811971 -35.8449867431511 0.974135097811973 -35.8449867431512 0.0308625499060442 -75.4683233814601 
! Gamma         0                0                0                0                
! Port Impedance         50               0                50               0                
3.9                            0.0316844687123595 -77.3155964863119 0.97368014536594 -36.7723188146149 0.973680145365942 -36.7723188146149 0.031679496559692 -77.3153488500293 
! Gamma         0                0                0                0                
! Port Impedance         50               0                50               0                
4                              0.0325139601827527 -79.1442614412441 0.973225621019014 -37.6991035665694 0.973225621019016 -37.6991035665695 0.0325087530716259 -79.1441796513549 
! Gamma         0                0                0                0                
! Port Impedance         50               0                50               0                
4.1                            0.0333555125197245 -80.9550152268206 0.972771688829341 -38.6253612457865 0.972771688829343 -38.6253612457866 0.0333500651409934 -80.9551020822197 
! Gamma         0                0                0                0                
! Port Impedance         50               0                50               0                
4.2                            0.0342088793210069 -82.7481543133962 0.972318487084282 -39.5511117119209 0.972318487084283 -39.551111711921 0.0342031865050741 -82.74841268993  
! Gamma         0                0                0                0                
! Port Impedance         50               0                50               0                
4.3                            0.0350738214869447 -84.5239831931001 0.971866130155864 -40.4763743515763 0.971866130155865 -40.4763743515764 0.0350678781959527 -84.524416051807 
! Gamma         0                0                0                0                
! Port Impedance         50               0                50               0                
4.4                            0.0359501065020025 -86.282812362119 0.971414710330848 -41.401168006879 0.971414710330848 -41.4011680068791 0.0359439078224446 -86.2834227539728 
! Gamma         0                0                0                0                
! Port Impedance         50               0                50               0                
4.5                            0.0368375077444459 -88.0249565032728 0.970964299599212 -42.3255109170958 0.970964299599213 -42.3255109170958 0.0368310488802851 -88.0257475711163 
! Gamma         0                0                0                0                
! Port Impedance         50               0                50               0                
4.6                            0.0377358038261321 -89.7507328648561 0.970514951388227 -43.2494206719265 0.970514951388227 -43.2494206719264 0.0377290800924868 -89.7517078431143 
! Gamma         0                0                0                0                
! Port Impedance         50               0                50               0                
4.7                            0.0386447779634742 -91.4604598276834 0.970066702232261 -44.1729141751971 0.970066702232261 -44.1729141751971 0.0386377847809125 -91.4616220403596 
! Gamma         0                0                0                0                
! Port Impedance         50               0                50               0                
4.8                            0.0395642173799676 -93.154455649604 0.969619573370981 -45.0960076177694 0.969619573370981 -45.0960076177693 0.0395569502694335 -93.1558085069812 
! Gamma         0                0                0                0                
! Port Impedance         50               0                50               0                
4.9                            0.0404939127401506 -94.833037375132 0.969173572270791 -46.0187164585751 0.969173572270791 -46.018716458575 0.04048636731853 -94.834584369531 
! Gamma         0                0                0                0                
! Port Impedance         50               0                50               0                
5                              0.0414336576144788 -96.4965198969857 0.968728694066159 -46.9410554127724 0.968728694066159 -46.9410554127724 0.0414258295908012 -96.498264597876 
! Gamma         0                0                0                0                
! Port Impedance         50               0                50               0                
5.1                            0.0423832479743053 -98.1452151560761 0.968284922919068 -47.8630384461048 0.968284922919068 -47.8630384461047 0.0423751331465672 -98.1471612047759 
! Gamma         0                0                0                0                
! Port Impedance         50               0                50               0                
5.2                            0.0433424817159581 -99.77943146663  0.967842233296075 -48.7846787746272 0.967842233296075 -48.7846787746271 0.0433340759685461 -99.7815825707908 
! Gamma         0                0                0                0                
! Port Impedance         50               0                50               0                
5.3                            0.0443111582127667 -101.399472953589 0.967400591163523 -49.7059888690414 0.967400591163523 -49.7059888690413 0.044302457514453 -101.40183288162 
! Gamma         0                0                0                0                
! Port Impedance         50               0                50               0                
5.4                            0.0452890778938087 -103.005639090069 0.96695995510232 -50.6269804629567 0.96695995510232 -50.6269804629566 0.0452800782962853 -103.008211665621 
! Gamma         0                0                0                0                
! Port Impedance         50               0                50               0                
5.5                            0.0462760418481065 -104.598224323442 0.966520277344348 -51.5476645644608 0.966520277344348 -51.5476645644607 0.0462667394850227 -104.601013420049 
! Gamma         0                0                0                0                
! Port Impedance         50               0                50               0                
5.6                            0.0472718514529905 -106.177517779443 0.966081504733104 -52.4680514704524 0.966081504733104 -52.4680514704523 0.0472622425394559 -106.180527315386 
! Gamma         0                0                0                0                
! Port Impedance         50               0                50               0                
5.7                            0.048276308025366 -107.743803034574 0.965643579611578 -53.3881507832455 0.965643579611578 -53.3881507832454 0.0482663888578791 -107.747036968024 
! Gamma         0                0                0                0                
! Port Impedance         50               0                50               0                
5.8                            0.0492892124946499 -109.297357947957 0.965206440640633 -54.307971429013 0.965206440640633 -54.3079714290128 0.0492789794514131 -109.300820272428 
! Gamma         0                0                0                0                
! Port Impedance         50               0                50               0                
5.9                            0.0503103650961904 -110.838454544631 0.964770023551371 -55.2275216776854 0.964770023551371 -55.2275216776853 0.0502998146377716 -110.84214928477 
! Gamma         0                0                0                0                
! Port Impedance         50               0                50               0                
6                              0.0513395650840388 -112.367358943097 0.964334261835054 -56.1468091639727 0.964334261835054 -56.1468091639726 0.0513286937543408 -112.371290150816 
! Gamma         0                0                0                0                
! Port Impedance         50               0                50               0                
6.1                            0.0523766104620029 -113.884331320686 0.963899087374214 -57.0658409092128 0.963899087374215 -57.0658409092126 0.0523654148895034 -113.888503071649 
! Gamma         0                0                0                0                
! Port Impedance         50               0                50               0                
6.2                            0.053421297731974 -115.389625911042 0.963464431018584 -57.9846233437952 0.963464431018585 -57.9846233437951 0.0534097746311995 -115.394042301499 
! Gamma         0                0                0                0                
! Port Impedance         50               0                50               0                
6.3                            0.0544734216585858 -116.883491028658 0.963030223109408 -58.9031623299403 0.963030223109409 -58.9031623299402 0.0544615678317849 -116.888156172613 
! Gamma         0                0                0                0                
! Port Impedance         50               0                50               0                
6.4                            0.0555327750493283 -118.36616911601 0.962596393955644 -59.8214631846456 0.962596393955645 -59.8214631846455 0.0555205873883115 -118.371087142723 
! Gamma         0                0                0                0                
! Port Impedance         50               0                50               0                
6.5                            0.0565991485492994 -119.8378968094  0.962162874265435 -60.7395307026397 0.962162874265436 -60.7395307026396 0.056586624037416 -119.843071861201 
! Gamma         0                0                0                0                
! Port Impedance         50               0                50               0                
6.6                            0.0576723304498429 -121.298905020077 0.961729595536106 -61.6573691792095 0.961729595536107 -61.6573691792094 0.057659466164064 -121.304341250477 
! Gamma         0                0                0                0                
! Port Impedance         50               0                50               0                
6.7                            0.058752106510374 -122.749419027686 0.961296490405819 -62.5749824327877 0.961296490405819 -62.5749824327876 0.0587388996234567 -122.755120599771 
! Gamma         0                0                0                0                
! Port Impedance         50               0                50               0                
6.8                            0.0598382597927505 -124.18965858348 0.960863492969821 -63.4923738272081 0.960863492969822 -63.4923738272081 0.0598247075754578 -124.195629668566 
! Gamma         0                0                0                0                
! Port Impedance         50               0                50               0                
6.9                            0.0609305705075978 -125.619838021072 0.960430539064137 -64.4095462935529 0.960430539064138 -64.4095462935528 0.0609166703309522 -125.626082797609 
! Gamma         0                0                0                0                
! Port Impedance         50               0                50               0                
7                              0.0620288158720443 -127.040166372844 0.959997566519312 -65.3265023515315 0.959997566519313 -65.3265023515314 0.0620145652095928 -127.046689025544 
! Gamma         0                0                0                0                
! Port Impedance         50               0                50               0                
7.1                            0.0631327699783627 -128.450847490391 0.959564515386715 -66.2432441303446 0.959564515386716 -66.2432441303445 0.0631181664084367 -128.457652209565 
! Gamma         0                0                0                0                
! Port Impedance         50               0                50               0                
7.2                            0.0642422036730609 -129.852080167618 0.959131328139732 -67.1597733889971 0.959131328139733 -67.1597733889971 0.0642272448810115 -129.859171148713 
! Gamma         0                0                0                0                
! Port Impedance         50               0                50               0                
7.3                            0.0653568844459928 -131.24405826535 0.958697949852005 -68.0760915360353 0.958697949852006 -68.0760915360352 0.065341568226388 -131.251439708658 
! Gamma         0                0                0                0                
! Port Impedance         50               0                50               0                
7.4                            0.0664765763290999 -132.62697083647 0.958264328354761 -68.9921996486906 0.958264328354762 -68.9921996486906 0.0664609005878694 -132.634646947005 
! Gamma         0                0                0                0                
! Port Impedance         50               0                50               0                
7.5                            0.067601039804422 -134.001002250792 0.957830414375086 -69.9080984914215 0.957830414375087 -69.9080984914215 0.0675850025609363 -134.008977238307 
! Gamma         0                0                0                0                
! Port Impedance         50               0                50               0                
7.6                            0.0687300317210408 -135.36633231899 0.957396161656894 -70.8237885338503 0.957396161656895 -70.8237885338503 0.068713631110116 -135.374610398141 
! Gamma         0                0                0                0                
! Port Impedance         50               0                50               0                
7.7                            0.0698633052206466 -136.72313641507 0.956961527066189 -71.7392699680966 0.95696152706619 -71.7392699680966 0.0698465394944635 -136.731721805695 
! Gamma         0                0                0                0                
! Port Impedance         50               0                50               0                
7.8                            0.0710006096714395 -138.071585596921 0.956526470682101 -72.6545427255153 0.956526470682101 -72.6545427255153 0.0709834772013704 -138.080482524433 
! Gamma         0                0                0                0                
! Port Impedance         50               0                50               0                
7.9                            0.0721416906100952 -139.411846724633 0.956090955875043 -73.5696064928486 0.956090955875044 -73.5696064928487 0.0721241898884299 -139.421059420516 
! Gamma         0                0                0                0                
! Port Impedance         50               0                50               0                
8                              0.073286289691542 -140.744082576292 0.955654949373257 -74.484460727808 0.955654949373257 -74.484460727808 0.073268419333109 -140.753615278691 
! Gamma         0                0                0                0                
! Port Impedance         50               0                50               0                
8.1                            0.0744341446463136 -142.068451961085 0.955218421318855 -75.399104674099 0.955218421318855 -75.3991046740991 0.0744159033899893 -142.078308915474 
! Gamma         0                0                0                0                
! Port Impedance         50               0                50               0                
8.2                            0.0755849892452502 -143.385109829547 0.954781345314426 -76.3135373759116 0.954781345314426 -76.3135373759117 0.0755663759553549 -143.395295289481 
! Gamma         0                0                0                0                
! Port Impedance         50               0                50               0                
8.3                            0.076738553271339 -144.69420738088 0.95434369846114 -77.2277576918922 0.95434369846114 -77.2277576918923 0.0767195669389134 -144.704725608812 
! Gamma         0                0                0                0                
! Port Impedance         50               0                50               0                
8.4                            0.0778945624984873 -145.995892167279 0.953905461389213 -78.1417643086212 0.953905461389213 -78.1417643086213 0.0778752022424502 -146.006747435439 
! Gamma         0                0                0                0                
! Port Impedance         50               0                50               0                
8.5                            0.0790527386770371 -147.290308195255 0.953466618281505 -79.0555557536179 0.953466618281504 -79.055555753618 0.0790330037452206 -147.301504786591 
! Gamma         0                0                0                0                
! Port Impedance         50               0                50               0                
8.6                            0.0802127995258318 -148.577596023957 0.953027156890974 -79.969130407894 0.953027156890974 -79.9691304078941 0.0801926892958943 -148.589138233127 
! Gamma         0                0                0                0                
! Port Impedance         50               0                50               0                
8.7                            0.0813744587306564 -149.857892860532 0.952587068552598 -80.8824865180818 0.952587068552597 -80.8824865180819 0.0813539727108713 -149.869784994943 
! Gamma         0                0                0                0                
! Port Impedance         50               0                50               0                
8.8                            0.0825374259488724 -151.131332652563 0.952146348190341 -81.7956222081576 0.95214634819034 -81.7956222081577 0.0825165637787954 -151.14357903346 
! Gamma         0                0                0                0                
! Port Impedance         50               0                50               0                
8.9                            0.083701406820079 -152.398046177663 0.951704994319674 -82.7085354907867 0.951704994319673 -82.7085354907868 0.0836801682710917 -152.410651141257 
! Gamma         0                0                0                0                
! Port Impedance         50               0                50               0                
9                              0.0848661029826293 -153.658161130283 0.951263009046098 -83.6212242783109 0.951263009046097 -83.6212242783109 0.0848444879583621 -153.671129028918 
! Gamma         0                0                0                0                
! Port Impedance         50               0                50               0                
9.1                            0.0860312120958374 -154.911802205833 0.950820398060058 -84.5336863934032 0.950820398060056 -84.5336863934033 0.0860092206324724 -154.925137409192 
! Gamma         0                0                0                0                
! Port Impedance         50               0                50               0                
9.2                            0.087196427867711 -156.159091182194 0.950377170628608 -85.4459195794125 0.950377170628607 -85.4459195794127 0.0871740601341676 -156.172798078543 
! Gamma         0                0                0                0                
! Port Impedance         50               0                50               0                
9.3                            0.0883614400880481 -157.400146998727 0.949933339584127 -86.3579215104191 0.949933339584125 -86.3579215104192 0.0883386963860517 -157.414229996189 
! Gamma         0                0                0                0                
! Port Impedance         50               0                50               0                
9.4                            0.0895259346667336 -158.635085832865 0.949488921310328 -87.2696898010244 0.949488921310326 -87.2696898010244 0.0895028154307717 -158.649549360729 
! Gamma         0                0                0                0                
! Port Impedance         50               0                50               0                
9.5                            0.0906895936770759 -159.864021174386 0.949043935725805 -88.181222015895 0.949043935725803 -88.1812220158951 0.0906660994742431 -159.878869684452 
! Gamma         0                0                0                0                
! Port Impedance         50               0                50               0                
9.6                            0.091852095404019 -161.087063897479 0.948598406265283 -89.0925156790822 0.948598406265281 -89.0925156790822 0.091828226933755 -161.102301865431 
! Gamma         0                0                0                0                
! Port Impedance         50               0                50               0                
9.7                            0.0930131143970697 -162.304322330681 0.948152359858715 -90.0035682831351 0.948152359858713 -90.0035682831351 0.0929888724907917 -162.319954257495 
! Gamma         0                0                0                0                
! Port Impedance         50               0                50               0                
9.8                            0.0941723215277746 -163.515902324789 0.947705826908359 -90.9143772980277 0.947705826908357 -90.9143772980277 0.0941477071484087 -163.531932738173 
! Gamma         0                0                0                0                
! Port Impedance         50               0                50               0                
9.9                            0.0953293840515821 -164.721907318848 0.947258841263891 -91.8249401799171 0.947258841263889 -91.8249401799171 0.0953043982929972 -164.738340774715 
! Gamma         0                0                0                0                
! Port Impedance         50               0                50               0                
10                             0.0964839656739252 -165.922438404285 0.946811440195646 -92.7352543797493 0.946811440195644 -92.7352543797493 0.096458609760272 -165.939279488259 
! Gamma         0                0                0                0                
! Port Impedance         50               0                50               0                
10.1                           0.0976357266203546 -167.117594387298 0.946363664365981 -93.645317351729 0.946363664365979 -93.6453173517291 0.0976100019053137 -167.134847716256 
! Gamma         0                0                0                0                
! Port Impedance         50               0                50               0                
10.2                           0.0987843237105563 -168.307471849567 0.94591555779879 -94.5551265616685 0.945915557798788 -94.5551265616685 0.0987582316765001 -168.325142073216 
! Gamma         0                0                0                0                
! Port Impedance         50               0                50               0                
10.3                           0.0999294104360802 -169.492165207378 0.945467167847145 -95.4646794952283 0.945467167847144 -95.4646794952283 0.0999029526931504 -169.510257009865 
! Gamma         0                0                0                0                
! Port Impedance         50               0                50               0                
10.4                           0.101070637041609 -170.671766769225 0.94501854515903 -96.3739736660634 0.945018545159028 -96.3739736660634 0.101043815326716 -170.690284870794 
! Gamma         0                0                0                0                
! Port Impedance         50               0                50               0                
10.5                           0.102207650609593 -171.846366791972 0.944569743641103 -97.2830066238856 0.944569743641101 -97.2830066238856 0.102180466785337 -171.865315950652 
! Gamma         0                0                0                0                
! Port Impedance         50               0                50               0                
10.6                           0.103340095148074 -173.016053535637 0.94412082042043 -98.1917759624525 0.944120820420428 -98.1917759624525 0.1033125512016  -173.035438548976 
! Gamma         0                0                0                0                
! Port Impedance         50               0                50               0                
10.7                           0.104467611681523 -174.180913316865 0.943671835804087 -99.1002793274917 0.943671835804086 -99.1002793274917 0.104439709723301 -174.200739023707 
! Gamma         0                0                0                0                
! Port Impedance         50               0                50               0                
10.8                           0.105589838344514 -175.34103056115 0.94322285323654 -100.008514424568 0.943222853236539 -100.008514424568 0.105561580607059 -175.361301843456 
! Gamma         0                0                0                0                
! Port Impedance         50               0                50               0                
10.9                           0.106706410478044 -176.496487853853 0.942773939254679 -100.9164790269  0.942773939254678 -100.9164790269  0.106677799314577 -176.517209638572 
! Gamma         0                0                0                0                
! Port Impedance         50               0                50               0                
11                             0.107816960728341 -177.647365990085 0.942325163440408 -101.824170983131 0.942325163440407 -101.824170983131 0.107787998611388 -177.668543251071 
! Gamma         0                0                0                0                
! Port Impedance         50               0                50               0                
11.1                           0.108921119147947 -178.793744023488 0.941876598370629 -102.731588225053 0.941876598370628 -102.731588225053 0.108891808667891 -178.815381783475 
! Gamma         0                0                0                0                
! Port Impedance         50               0                50               0                
11.2                           0.110018513298922 -179.935699313969 0.941428319564516 -103.6387287753  0.941428319564515 -103.6387287753  0.109988857162504 -179.957802646596 
! Gamma         0                0                0                0                
! Port Impedance         50               0                50               0                
11.3                           0.111108768357969 178.926692425583 0.940980405427926 -104.545590754985 0.940980405427926 -104.545590754985 0.111078769386742 178.904118393688 
! Gamma         0                0                0                0                
! Port Impedance         50               0                50               0                
11.4                           0.112191507223302 177.793357083545 0.940532937194812 -105.452172391315 0.940532937194812 -105.452172391315 0.112161168352042 177.770307170618 
! Gamma         0                0                0                0                
! Port Impedance         50               0                50               0                
11.5                           0.113266350623076 176.664222104753 0.940085998865498 -106.358472025143 0.940085998865498 -106.358472025143 0.113235674898157 176.640691071687 
! Gamma         0                0                0                0                
! Port Impedance         50               0                50               0                
11.6                           0.114332917225194 175.539216446598 0.939639677141692 -107.264488118485 0.939639677141692 -107.264488118485 0.114301907802926 175.515198994667 
! Gamma         0                0                0                0                
! Port Impedance         50               0                50               0                
11.7                           0.115390823748312 174.418270536006 0.939194061358091 -108.170219261982 0.939194061358092 -108.170219261981 0.115359483893244 174.39376130452  
! Gamma         0                0                0                0                
! Port Impedance         50               0                50               0                
11.8                           0.116439685073854 173.301316227264 0.938749243410479 -109.075664182293 0.93874924341048 -109.075664182293 0.116408018157051 173.276309791153 
! Gamma         0                0                0                0                
! Port Impedance         50               0                50               0                
11.9                           0.117479114358878 172.188286760693 0.938305317680186 -109.980821749435 0.938305317680187 -109.980821749435 0.117447123856169 172.162777628008 
! Gamma         0                0                0                0                
! Port Impedance         50               0                50               0                
12                             0.11850872314959 171.079116722118 0.937862380954821 -110.88569098403 0.937862380954822 -110.88569098403 0.118476412639791 171.053099331461 
! Gamma         0                0                0                0                
! Port Impedance         50               0                50               0                
12.1                           0.119528121495357 169.973742003145 0.937420532345196 -111.790271064475 0.937420532345197 -111.790271064475 0.119495494658474 169.947210721005 
! Gamma         0                0                0                0                
! Port Impedance         50               0                50               0                
12.2                           0.120536918063026 168.872099762214 0.936979873198361 -112.694561334008 0.936979873198363 -112.694561334008 0.120503978678439 168.845048880223 
! Gamma         0                0                0                0                
! Port Impedance         50               0                50               0                
12.3                           0.121534720251405 167.774128386425 0.936540507006712 -113.598561307659 0.936540507006714 -113.598561307659 0.121501472196031 167.746552118514 
! Gamma         0                0                0                0                
! Port Impedance         50               0                50               0                
12.4                           0.122521134305717 166.679767454119 0.936102539313127 -114.502270679078 0.936102539313129 -114.502270679078 0.122487581552165 166.651659933586 
! Gamma         0                0                0                0                
! Port Impedance         50               0                50               0                
12.5                           0.123495765431893 165.588957698216 0.935666077612141 -115.405689327222 0.935666077612143 -115.405689327222 0.123461912046596 165.560312974685 
! Gamma         0                0                0                0                
! Port Impedance         50               0                50               0                
12.6                           0.124458217910522 164.501640970292 0.935231231247145 -116.308817322883 0.935231231247147 -116.308817322883 0.124424068051868 164.472453006573 
! Gamma         0                0                0                0                
! Port Impedance         50               0                50               0                
12.7                           0.125408095210337 163.417760205405 0.934798111303669 -117.211654935048 0.934798111303671 -117.211654935048 0.12537365312678 163.388022874236 
! Gamma         0                0                0                0                
! Port Impedance         50               0                50               0                
12.8                           0.126345000101069 162.337259387657 0.934366830498802 -118.114202637067 0.934366830498804 -118.114202637067 0.12631027012924 162.306966468336 
! Gamma         0                0                0                0                
! Port Impedance         50               0                50               0                
12.9                           0.127268534765549 161.260083516488 0.93393750306683 -119.01646111262 0.933937503066833 -119.01646111262 0.12723352132835 161.229228691384 
! Gamma         0                0                0                0                
! Port Impedance         50               0                50               0                
13                             0.128178300910908 160.186178573726 0.933510244641213 -119.918431261463 0.933510244641215 -119.918431261463 0.12814300851561 160.154755424659 
! Gamma         0                0                0                0                
! Port Impedance         50               0                50               0                
13.1                           0.129073899878776 159.115491491363 0.933085172133024 -120.820114204939 0.933085172133027 -120.820114204939 0.129038333115101 159.083493495857 
! Gamma         0                0                0                0                
! Port Impedance         50               0                50               0                
13.2                           0.129954932754342 158.047970120086 0.93266240360604 -121.721511291233 0.932662403606042 -121.721511291233 0.129919096292546 158.015390647478 
! Gamma         0                0                0                0                
! Port Impedance         50               0                50               0                
13.3                           0.13082100047417 156.983563198557 0.932242058148632 -122.622624100366 0.932242058148635 -122.622624100366 0.130784899063119 156.950395505966 
! Gamma         0                0                0                0                
! Port Impedance         50               0                50               0                
13.4                           0.131671703932686 155.922220323452 0.931824255742704 -123.523454448903 0.931824255742706 -123.523454448903 0.131635342397926 155.888457551595 
! Gamma         0                0                0                0                
! Port Impedance         50               0                50               0                
13.5                           0.132506644087222 154.863891920264 0.931409117129883 -124.424004394371 0.931409117129885 -124.424004394371 0.132470027329048 154.829527089113 
! Gamma         0                0                0                0                
! Port Impedance         50               0                50               0                
13.6                           0.133325422061554 153.808529214881 0.930996763675232 -125.324276239362 0.930996763675234 -125.324276239362 0.133288555053069 153.773555219156 
! Gamma         0                0                0                0                
! Port Impedance         50               0                50               0                
13.7                           0.134127639247851 152.756084205946 0.930587317228751 -126.224272535326 0.930587317228753 -126.224272535326 0.134090527033023 152.720493810432 
! Gamma         0                0                0                0                
! Port Impedance         50               0                50               0                
13.8                           0.13491289740697 151.706509638017 0.930180899984947 -127.123996086036 0.930180899984948 -127.123996086036 0.134875545098687 151.670295472703 
! Gamma         0                0                0                0                
! Port Impedance         50               0                50               0                
13.9                           0.135680798767063 150.659758975526 0.929777634340789 -128.023449950704 0.929777634340791 -128.023449950704 0.135643211545172 150.622913530554 
! Gamma         0                0                0                0                
! Port Impedance         50               0                50               0                
14                             0.136430946120425 149.615786377565 0.929377642752352 -128.922637446774 0.929377642752353 -128.922637446774 0.136393129229775 149.578301997977 
! Gamma         0                0                0                0                
! Port Impedance         50               0                50               0                
14.1                           0.13716294291858 148.574546673496 0.928981047590466 -129.821562152348 0.928981047590467 -129.821562152348 0.137124901667049 148.536415553777 
! Gamma         0                0                0                0                
! Port Impedance         50               0                50               0                
14.2                           0.13787639336557 147.535995339414 0.928587970995711 -130.720227908274 0.928587970995712 -130.720227908274 0.13783813312209 147.497209517815 
! Gamma         0                0                0                0                
! Port Impedance         50               0                50               0                
14.3                           0.138570902509448 146.500088475469 0.928198534733079 -131.618638819873 0.928198534733079 -131.618638819873 0.138532428702013 146.460639828104 
! Gamma         0                0                0                0                
! Port Impedance         50               0                50               0                
14.4                           0.139246076331964 145.466782784065 0.927812860046618 -132.51679925832 0.927812860046618 -132.516799258321 0.139207394445632 145.426663018766 
! Gamma         0                0                0                0                
! Port Impedance         50               0                50               0                
14.5                           0.139901521836488 144.436035548952 0.927431067514416 -133.41471386167 0.927431067514416 -133.41471386167 0.139862637411369 144.395236198877 
! Gamma         0                0                0                0                
! Port Impedance         50               0                50               0                
14.6                           0.140536847134164 143.407804615232 0.927053276904192 -134.312387535539 0.927053276904192 -134.312387535539 0.140497765763393 143.366317032207 
! Gamma         0                0                0                0                
! Port Impedance         50               0                50               0                
14.7                           0.141151661528367 142.382048370292 0.926679607029854 -135.209825453449 0.926679607029853 -135.209825453449 0.141112388856064 142.339863717875 
! Gamma         0                0                0                0                
! Port Impedance         50               0                50               0                
14.8                           0.141745575597494 141.358725725678 0.926310175609261 -136.107033056838 0.92631017560926 -136.107033056839 0.141706117316703 141.315834971941 
! Gamma         0                0                0                0                
! Port Impedance         50               0                50               0                
14.9                           0.14231820127617 140.337796099946 0.925945099123519 -137.004016054744 0.925945099123517 -137.004016054745 0.14227856312678 140.294190009947 
! Gamma         0                0                0                0                
! Port Impedance         50               0                50               0                
15                             0.142869151934933 139.319219402491 0.92558449267802 -137.900780423182 0.925584492678019 -137.900780423182 0.142829339701583 139.274888530427 
! Gamma         0                0                0                0                
! Port Impedance         50               0                50               0                
15.1                           0.14339804245851 138.302956018384 0.925228469865497 -138.797332404215 0.925228469865495 -138.797332404215 0.143358061968465 138.257890699408 
! Gamma         0                0                0                0                
! Port Impedance         50               0                50               0                
15.2                           0.143904489322763 137.288966794237 0.924877142631282 -139.693678504747 0.924877142631281 -139.693678504747 0.143864346443771 137.243157135925 
! Gamma         0                0                0                0                
! Port Impedance         50               0                50               0                
15.3                           0.144388110670448 136.277213025119 0.924530621140978 -140.589825495033 0.924530621140977 -140.589825495033 0.144347811308568 136.23064889856  
! Gamma         0                0                0                0                
! Port Impedance         50               0                50               0                
15.4                           0.144848526385894 135.267656442542 0.924189013650681 -141.485780406941 0.92418901365068 -141.485780406941 0.144808076483296 135.220327473039 
! Gamma         0                0                0                0                
! Port Impedance         50               0                50               0                
15.5                           0.145285358168762 134.260259203538 0.923852426379914 -142.381550531969 0.923852426379912 -142.381550531969 0.145244763701498 134.2121547609   
! Gamma         0                0                0                0                
! Port Impedance         50               0                50               0                
15.6                           0.145698229607027 133.25498388087  0.92352096338736 -143.277143419039 0.923520963387358 -143.277143419039 0.145657496582774 133.206093069262 
! Gamma         0                0                0                0                
! Port Impedance         50               0                50               0                
15.7                           0.146086766249359 132.251793454369 0.923194726449481 -144.172566872085 0.92319472644948 -144.172566872085 0.146045900705122 132.202105101707 
! Gamma         0                0                0                0                
! Port Impedance         50               0                50               0                
15.8                           0.146450595677076 131.250651303453 0.922873814942073 -145.067828947454 0.922873814942071 -145.067828947454 0.146409603676863 131.200153950319 
! Gamma         0                0                0                0                
! Port Impedance         50               0                50               0                
15.9                           0.146789347575867 130.251521200845 0.92255832572477 -145.962937951129 0.922558325724768 -145.962937951129 0.146748235208321 130.200203088884 
! Gamma         0                0                0                0                
! Port Impedance         50               0                50               0                
16                             0.147102653807483 129.254367307511 0.922248353028506 -146.857902435807 0.922248353028505 -146.857902435807 0.147061427183482 129.202216367292 
! Gamma         0                0                0                0                
! Port Impedance         50               0                50               0                
16.1                           0.14739014848161 128.259154168853 0.921943988345889 -147.75273119783 0.921943988345887 -147.75273119783 0.147348813731826 128.206158007159 
! Gamma         0                0                0                0                
! Port Impedance         50               0                50               0                
16.2                           0.147651468028165 127.265846712195 0.921645320324434 -148.647433274002 0.921645320324432 -148.647433274002 0.147610031300573 127.211992598708 
! Gamma         0                0                0                0                
! Port Impedance         50               0                50               0                
16.3                           0.147886251270221 126.274410245579 0.921352434662582 -149.542017938302 0.921352434662581 -149.542017938301 0.147844718727581 126.219685098926 
! Gamma         0                0                0                0                
! Port Impedance         50               0                50               0                
16.4                           0.148094139497845 125.284810457917 0.921065414008374 -150.436494698497 0.921065414008373 -150.436494698496 0.148052517315129 125.229200831036 
! Gamma         0                0                0                0                
! Port Impedance         50               0                50               0                
16.5                           0.148274776543078 124.297013420527 0.920784337860692 -151.330873292693 0.920784337860691 -151.330873292693 0.148233070904857 124.240505485321 
! Gamma         0                0                0                0                
! Port Impedance         50               0                50               0                
16.6                           0.148427808856337 123.310985590093 0.920509282472888 -152.225163685818 0.920509282472887 -152.225163685818 0.14838602595412 123.253565121315 
! Gamma         0                0                0                0                
! Port Impedance         50               0                50               0                
16.7                           0.14855288558451 122.326693813089 0.920240320758668 -153.119376066049 0.920240320758667 -153.119376066049 0.148511031614039 122.268346171423 
! Gamma         0                0                0                0                
! Port Impedance         50               0                50               0                
16.8                           0.148649658651031 121.344105331707 0.919977522200035 -154.013520841213 0.919977522200034 -154.013520841213 0.148607739809527 121.284815445984 
! Gamma         0                0                0                0                
! Port Impedance         50               0                50               0                
16.9                           0.148717782838223 120.363187791328 0.919720952757117 -154.907608635146 0.919720952757117 -154.907608635146 0.148675805321582 120.302940139838 
! Gamma         0                0                0                0                
! Port Impedance         50               0                50               0                
17                             0.148756915872211 119.383909249594 0.919470674779683 -155.80165028404 0.919470674779682 -155.801650284039 0.148714885872157 119.322687840415 
! Gamma         0                0                0                0                
! Port Impedance         50               0                50               0                
17.1                           0.148766718510706 118.406238187119 0.91922674692013 -156.695656832774 0.919226746920129 -156.695656832773 0.148724642211893 118.344026537418 
! Gamma         0                0                0                0                
! Port Impedance         50               0                50               0                
17.2                           0.148746854633981 117.4301435199   0.918989224047742 -157.589639531236 0.918989224047743 -157.589639531236 0.14870473821104 117.36692463413  
! Gamma         0                0                0                0                
! Port Impedance         50               0                50               0                
17.3                           0.148696991339337 116.455594613475 0.918758157164016 -158.483609830648 0.918758157164016 -158.483609830647 0.148654840953885 116.391350960396 
! Gamma         0                0                0                0                
! Port Impedance         50               0                50               0                
17.4                           0.148616799039404 115.482561298904 0.918533593318802 -159.377579379879 0.918533593318801 -159.377579379879 0.148574620836991 115.417274787344 
! Gamma         0                0                0                0                
! Port Impedance         50               0                50               0                
17.5                           0.14850595156457 114.51101389062  0.918315575527093 -160.27156002178 0.918315575527093 -160.27156002178 0.148463751671588 114.444665843905 
! Gamma         0                0                0                0                
! Port Impedance         50               0                50               0                
17.6                           0.148364126269896 113.54092320623  0.918104142686215 -161.165563789503 0.918104142686214 -161.165563789502 0.148321910790429 113.473494335177 
! Gamma         0                0                0                0                
! Port Impedance         50               0                50               0                
17.7                           0.148191004146819 112.572260588351 0.917899329493221 -162.059602902833 0.917899329493221 -162.059602902833 0.148148779159452 112.503730962724 
! Gamma         0                0                0                0                
! Port Impedance         50               0                50               0                
17.8                           0.147986269939984 111.604997928537 0.917701166362295 -162.953689764525 0.917701166362295 -162.953689764525 0.147944041494554 111.535346946871 
! Gamma         0                0                0                0                
! Port Impedance         50               0                50               0                
17.9                           0.147749612269525 110.639107693414 0.917509679341951 -163.847836956629 0.917509679341951 -163.847836956629 0.14770738638383 110.568314051076 
! Gamma         0                0                0                0                
! Port Impedance         50               0                50               0                
18                             0.147480723759126 109.674562953101 0.917324890031855 -164.742057236819 0.917324890031856 -164.742057236819 0.147438506415579 109.602604608464 
! Gamma         0                0                0                0                
! Port Impedance         50               0                50               0                
18.1                           0.147179301170185 108.71133741203  0.917146815499093 -165.636363534707 0.917146815499092 -165.636363534707 0.14713709831242 108.638191550629 
! Gamma         0                0                0                0                
! Port Impedance         50               0                50               0                
18.2                           0.146845045542386 107.749405442281 0.916975468193695 -166.530768948149 0.916975468193696 -166.530768948149 0.146802863071815 107.67504843879  
! Gamma         0                0                0                0                
! Port Impedance         50               0                50               0                
18.3                           0.146477662341012 106.788742119552 0.9168108558633  -167.425286739519 0.9168108558633  -167.425286739518 0.146435506113328 106.713149497427 
! Gamma         0                0                0                0                
! Port Impedance         50               0                50               0                
18.4                           0.146076861611288 105.829323261904 0.916652981466763 -168.319930331963 0.916652981466763 -168.319930331963 0.146034737432919 105.752469650507 
! Gamma         0                0                0                0                
! Port Impedance         50               0                50               0                
18.5                           0.145642358140067 104.871125471438 0.916501843086629 -169.214713305616 0.916501843086628 -169.214713305616 0.145600271764569 104.792984560453 
! Gamma         0                0                0                0                
! Port Impedance         50               0                50               0                
18.6                           0.145173871625125 103.914126179064 0.916357433840303 -170.109649393769 0.916357433840303 -170.109649393769 0.145131828749533 103.834670669987 
! Gamma         0                0                0                0                
! Port Impedance         50               0                50               0                
18.7                           0.144671126852377 102.958303692541 0.916219741789859 -171.004752478988 0.916219741789859 -171.004752478988 0.144629133113478 102.877505247022 
! Gamma         0                0                0                0                
! Port Impedance         50               0                50               0                
18.8                           0.14413385388124 102.003637248009 0.916088749850342 -171.900036589167 0.916088749850342 -171.900036589167 0.144091914851802 101.921466432777 
! Gamma         0                0                0                0                
! Port Impedance         50               0                50               0                
18.9                           0.143561788238428 101.050107065212 0.915964435696538 -172.79551589351 0.915964435696537 -172.79551589351 0.14351990942335 100.966533293324 
! Gamma         0                0                0                0                
! Port Impedance         50               0                50               0                
19                             0.142954671120391 100.097694406687 0.915846771668104 -173.691204698426 0.915846771668103 -173.691204698426 0.142912857952789 100.012685874774 
! Gamma         0                0                0                0                
! Port Impedance         50               0                50               0                
19.1                           0.142312249604632 99.1463816411738 0.915735724673035 -174.587117443341 0.915735724673035 -174.587117443341 0.14227050744184 99.0599052623716 
! Gamma         0                0                0                0                
! Port Impedance         50               0                50               0                
19.2                           0.141634276870089 98.1961523115617 0.915631256089411 -175.483268696395 0.91563125608941 -175.483268696396 0.141592610989576 98.1081736437454 
! Gamma         0                0                0                0                
! Port Impedance         50               0                50               0                
19.3                           0.140920512426772 97.2469912077235 0.915533321665406 -176.379673150032 0.915533321665405 -176.379673150032 0.140878928021962 97.1574743766425 
! Gamma         0                0                0                0                
! Port Impedance         50               0                50               0                
19.4                           0.140170722354799 96.2988844446053 0.915441871417556 -177.27634561646 0.915441871417555 -177.27634561646 0.140129224530782 96.2077920614765 
! Gamma         0                0                0                0                
! Port Impedance         50               0                50               0                
19.5                           0.139384679552978 95.3518195460113 0.915356849527271 -178.173301022982 0.91535684952727 -178.173301022982 0.139343273322098 95.2591126190767 
! Gamma         0                0                0                0                
! Port Impedance         50               0                50               0                
19.6                           0.13856216399703 94.4057855345595 0.915278194235619 -179.070554407174 0.915278194235618 -179.070554407174 0.138520854274329 94.3114233740645 
! Gamma         0                0                0                0                
! Port Impedance         50               0                50               0                
19.7                           0.137702963007527 93.4607730283498 0.915205837736405 -179.968120911908 0.915205837736404 -179.968120911908 0.137661754606037 93.3647131443417 
! Gamma         0                0                0                0                
! Port Impedance         50               0                50               0                
19.8                           0.136806871527616 92.5167743449506 0.915139706067574 179.133984219794 0.915139706067574 179.133984219794 0.136765769153461 92.4189723372299 
! Gamma         0                0                0                0                
! Port Impedance         50               0                50               0                
19.9                           0.135873692410519 91.5737836133893 0.915079719001015 178.235745650083 0.915079719001015 178.235745650083 0.135832700657809 91.4741930528753 
! Gamma         0                0                0                0                
! Port Impedance         50               0                50               0                
20                             0.134903236716815 90.6317968949189 0.915025789930798 177.337147951796 0.915025789930798 177.337147951796 0.134862360062302 90.5303691956077 
! Gamma         -0               -0               0                0                
! Port Impedance         50               0                50               0                
