! Touchstone file exported from HFSS 2026.1.0
!        File:           C:/ffzhzh/LocalFiles/Ansys_Project_Files/temp_train_TSV_RDL_670_1783132042_53076.aedt
!        Generated:      10:39:13 AM Jul  4, 2026
!        Design:         TSV_RDL
!        Project:        temp_train_TSV_RDL_670_1783132042_53076
!
! Variables:
!        h_bsmrdl = 5.37um
!        h_ox = 20um
!        h_rdl = 5um
!        h_sub = 68.96um
!        h_tmrdl = 5.36um
!        h_tsv = 68.96um
!        h_via = 3um
!        l_bsmrdl = 268.68um
!        l_sub = 2803.63um
!        l_tmrdl = 377.7um
!        m_sub = 200um
!        pitch = 35um
!        r_tsv = 2.94um
!        s_tmrdl = 10um
!        w_bsmrdl = 12.17um
!        w_sub = 500um
!        w_tmrdl = 16.76um
!        x_tsv_center1 = 386.08um
!        x_tsv_center2 = 666.93um
!        x_tsv_center3 = 1061.39um
!        x_tsv_center4 = 1342.24um
!        x_tsv_center5 = 1736.7um
!        x_tsv_center6 = 2017.55um
!
# GHz S MA R 50.000000
! Terminal data exported
! Port[1] = TM_RDL1_1_T1
! Port[2] = TM_RDL5_1_T1
0.1                            0.0196287108614546 29.2662555717213 0.983001717042194 -1.02348315067388 0.983001717042194 -1.02348315067388 0.0196287103805333 29.2663036782405 
! Gamma         0                0                0                0                
! Port Impedance         50               0                50               0                
0.2                            0.0261044092822754 46.2391628800339 0.98243378385136 -2.02919444503918 0.98243378385136 -2.02919444503892 0.0261044104615098 46.2392559199717 
! Gamma         0                0                0                0                
! Port Impedance         50               0                50               0                
0.3                            0.0338423774216568 55.3327753659916 0.981820599064393 -3.02049261463901 0.981820599064395 -3.02049261463853 0.0338423756836804 55.3329061599381 
! Gamma         0                0                0                0                
! Port Impedance         50               0                50               0                
0.4                            0.0420914175731855 60.6122298997131 0.981217371950519 -4.00536161453436 0.981217371950525 -4.00536161453383 0.042091404774581 60.6124036957727 
! Gamma         0                0                0                0                
! Port Impedance         50               0                50               0                
0.5                            0.0506120324627653 63.8589157535201 0.980598345868012 -4.98780833871549 0.980598345868021 -4.98780833871501 0.0506120024180418 63.8591394076136 
! Gamma         0                0                0                0                
! Port Impedance         50               0                50               0                
0.6                            0.0592927278730359 65.9016119909225 0.979934326620967 -5.96910782757256 0.979934326620978 -5.96910782757218 0.0592926763707129 65.901890095594  
! Gamma         0                0                0                0                
! Port Impedance         50               0                50               0                
0.7                            0.0680673880467298 67.1761825461917 0.97920638368452 -6.94944406985023 0.979206383684532 -6.94944406984995 0.0680673118880017 67.176517780896  
! Gamma         0                0                0                0                
! Port Impedance         50               0                50               0                
0.8                            0.0768926038827635 67.9336833436077 0.978403857474997 -7.92863598896378 0.978403857475009 -7.9286359889636 0.076892500281746 67.9340772828099 
! Gamma         0                0                0                0                
! Port Impedance         50               0                50               0                
0.9                            0.0857382287880429 68.3284826231688 0.97752125276257 -8.90639996780011 0.977521252762582 -8.90639996780002 0.0857380951033757 68.3289362634795 
! Gamma         0                0                0                0                
! Port Impedance         50               0                50               0                
1                              0.0945823811160981 68.4603628727552 0.976556166061695 -9.88243868293257 0.976556166061707 -9.88243868293256 0.0945822147533694 68.460876912932  
! Gamma         0                0                0                0                
! Port Impedance         50               0                50               0                
1.1                            0.103408539974655 68.3964754373435 0.97550807328412 -10.8564692060471 0.975508073284132 -10.8564692060472 0.10340833836212 68.3970504168647 
! Gamma         0                0                0                0                
! Port Impedance         50               0                50               0                
1.2                            0.11220378281128 68.1835542437304 0.974377632795647 -11.8282303382852 0.974377632795657 -11.8282303382853 0.112203543401731 68.184190609274  
! Gamma         0                0                0                0                
! Port Impedance         50               0                50               0                
1.3                            0.120957683359095 67.8550646507849 0.973166276915798 -12.7974831034511 0.973166276915808 -12.7974831034512 0.120957403637169 67.8557627878007 
! Gamma         0                0                0                0                
! Port Impedance         50               0                50               0                
1.4                            0.129661604139426 67.4355665630426 0.971875964122655 -13.7640092371565 0.971875964122664 -13.7640092371567 0.129661281626246 67.4363268111224 
! Gamma         0                0                0                0                
! Port Impedance         50               0                50               0                
1.5                            0.138308230882461 66.9434736575429 0.970509022416283 -14.7276093120196 0.970509022416291 -14.7276093120198 0.138307863135367 66.94429631869   
! Gamma         0                0                0                0                
! Port Impedance         50               0                50               0                
1.6                            0.146891258860917 66.3928528114593 0.969068045815486 -15.6881010079318 0.969068045815493 -15.6881010079319 0.146890843468589 66.3937381555304 
! Gamma         0                0                0                0                
! Port Impedance         50               0                50               0                
1.7                            0.15540517680106 65.7946296626308 0.967555822817668 -16.6453176425574 0.967555822817675 -16.6453176425576 0.155404711375334 65.7955779318276 
! Gamma         0                0                0                0                
! Port Impedance         50               0                50               0                
1.8                            0.163845114812091 65.1574157894772 0.965975284755872 -17.5991069492258 0.965975284755878 -17.5991069492259 0.163844596977977 65.1584272026054 
! Gamma         0                0                0                0                
! Port Impedance         50               0                50               0                
1.9                            0.172206735140034 64.4880884570019 0.964329466998778 -18.5493300562587 0.964329466998783 -18.5493300562588 0.172206162525288 64.489163213679  
! Gamma         0                0                0                0                
! Port Impedance         50               0                50               0                
2                              0.180486152071214 63.7922047564869 0.96262147875976 -19.495860620767 0.962621478759764 -19.4958606207671 0.180485522296512 63.7933430412557 
! Gamma         0                0                0                0                
! Port Impedance         50               0                50               0                
2.1                            0.188679871981942 63.0743025683889 0.960854478904871 -20.4385840781063 0.960854478904875 -20.4385840781063 0.188679182652414 63.0755045546271 
! Gamma         0                0                0                0                
! Port Impedance         50               0                50               0                
2.2                            0.196784747496142 62.3381227085855 0.95903165610584 -21.3773969774794 0.959031656105844 -21.3773969774794 0.196783996194674 62.3393885621004 
! Gamma         0                0                0                0                
! Port Impedance         50               0                50               0                
2.3                            0.204797941634086 61.5867752415047 0.957156212259886 -22.3122063821312 0.957156212259889 -22.3122063821312 0.204797125916592 61.5881051237318 
! Gamma         0                0                0                0                
! Port Impedance         50               0                50               0                
2.4                            0.212716899105723 60.8228656224801 0.955231348452465 -23.2429293187237 0.955231348452467 -23.2429293187237 0.21271601649839 60.824259693242  
! Gamma         0                0                0                0                
! Port Impedance         50               0                50               0                
2.5                            0.220539322757636 60.0485915252235 0.953260252961914 -24.1694922650019 0.953260252961917 -24.1694922650019 0.220538370756006 60.0500499450345 
! Gamma         0                0                0                0                
! Port Impedance         50               0                50               0                
2.6                            0.228263153768666 59.2658179965235 0.951246090948267 -25.0918306680976 0.95124609094827 -25.0918306680975 0.228262129838363 59.2673409284546 
! Gamma         0                0                0                0                
! Port Impedance         50               0                50               0                
2.7                            0.235886554596676 58.4761363949973 0.949191995562764 -26.0098884881111 0.949191995562766 -26.0098884881111 0.235885456175516 58.4777240061308 
! Gamma         0                0                0                0                
! Port Impedance         50               0                50               0                
2.8                            0.243407893965669 57.6809110616054 0.947101060277991 -26.9236177632162 0.947101060277993 -26.9236177632161 0.243406718466894 57.6825635241217 
! Gamma         0                0                0                0                
! Port Impedance         50               0                50               0                
2.9                            0.250825733386296 56.8813166125065 0.944976332282241 -27.832978193657 0.944976332282243 -27.832978193657 0.250824478202679 56.8830341044491 
! Gamma         0                0                0                0                
! Port Impedance         50               0                50               0                
3                              0.25813881484869 56.0783679944757 0.942820806812423 -28.7379367427965 0.942820806812425 -28.7379367427965 0.258137477357261 56.0801507002438 
! Gamma         0                0                0                0                
! Port Impedance         50               0                50               0                
3.1                            0.265346049431437 55.2729449039931 0.940637422321983 -29.6384672539219 0.940637422321985 -29.6384672539218 0.265344626998629 55.2747930146071 
! Gamma         0                0                0                0                
! Port Impedance         50               0                50               0                
3.2                            0.272446506645986 54.4658117793522 0.938429056396571 -30.5345500819014 0.938429056396573 -30.5345500819014 0.272444996633015 54.4677254925359 
! Gamma         0                0                0                0                
! Port Impedance         50               0                50               0                
3.3                            0.279439404390047 53.6576342874799 0.936198522342401 -31.4261717390556 0.936198522342403 -31.4261717390556 0.279437804158364 53.6596138075984 
! Gamma         0                0                0                0                
! Port Impedance         50               0                50               0                
3.4                            0.286324099422284 52.8489930138614 0.933948566381606 -32.3133245547909 0.933948566381607 -32.3133245547908 0.28632240633899 52.8510385517478 
! Gamma         0                0                0                0                
! Port Impedance         50               0                50               0                
3.5                            0.293100078298133 52.040394904369  0.931681865396212 -33.1960063486707 0.931681865396214 -33.1960063486706 0.29309828974124 52.0425066770694 
! Gamma         0                0                0                0                
! Port Impedance         50               0                50               0                
3.6                            0.299766948725745 51.2322828873632 0.929401025168198 -34.0742201166822 0.929401025168199 -34.0742201166821 0.299765062089229 51.234461117823  
! Gamma         0                0                0                0                
! Port Impedance         50               0                50               0                
3.7                            0.306324431314282 50.4250440128298 0.927108579067843 -34.9479737305041 0.927108579067845 -34.9479737305041 0.306322444012859 50.4272889295431 
! Gamma         0                0                0                0                
! Port Impedance         50               0                50               0                
3.8                            0.312772351695578 49.6190163751222 0.924806987146601 -35.8172796496092 0.924806987146602 -35.8172796496091 0.312770261169164 49.621328211759  
! Gamma         0                0                0                0                
! Port Impedance         50               0                50               0                
3.9                            0.319110633005803 48.8144950317037 0.922498635594098 -36.68215464604  0.922498635594099 -36.68215464604  0.319108436723651 48.8168740267277 
! Gamma         0                0                0                0                
! Port Impedance         50               0                50               0                
4                              0.325339288717188 48.0117370881927 0.920185836521882 -37.5426195416936 0.920185836521883 -37.5426195416936 0.325336984181667 48.0141834844809 
! Gamma         0                0                0                0                
! Port Impedance         50               0                50               0                
4.1                            0.331458415811664 47.2109660871112 0.917870828039205 -38.3986989579314 0.917870828039206 -38.3986989579313 0.331456000561698 47.2134801315806 
! Gamma         0                0                0                0                
! Port Impedance         50               0                50               0                
4.2                            0.337468188289026 46.4123758118426 0.915555774588593 -39.2504210773132 0.915555774588594 -39.2504210773131 0.337465659903179 46.414957755092  
! Gamma         0                0                0                0                
! Port Impedance         50               0                50               0                
4.3                            0.343368851002292 45.6161335968276 0.913242767511227 -40.0978174172254 0.913242767511228 -40.0978174172254 0.343366207101521 45.6187836927969 
! Gamma         0                0                0                0                
! Port Impedance         50               0                50               0                
4.4                            0.349160713812539 44.8223832187225 0.910933825814315 -40.9409226151473 0.910933825814316 -40.9409226151473 0.34915795206262 44.8251017243727 
! Gamma         0                0                0                0                
! Port Impedance         50               0                50               0                
4.5                            0.354844146054907 44.0312474302041 0.908630897114679 -41.7797742252712 0.90863089711468 -41.7797742252712 0.354841264168555 44.0340346052193 
! Gamma         0                0                0                0                
! Port Impedance         50               0                50               0                
4.6                            0.360419571306754 43.2428301876139 0.90633585873473 -42.6144125261652 0.906335858734731 -42.6144125261651 0.360416567045445 43.2456862941263 
! Gamma         0                0                0                0                
! Port Impedance         50               0                50               0                
4.7                            0.365887462448232 42.4572186151497 0.904050518928881 -43.4448803391434 0.904050518928881 -43.4448803391434 0.36588433362376 42.4601439174881 
! Gamma         0                0                0                0                
! Port Impedance         50               0                50               0                
4.8                            0.371248337004945 41.6744847414186 0.901776618220235 -44.2712228569863 0.901776618220236 -44.2712228569863 0.371245081480717 41.6774795058799 
! Gamma         0                0                0                0                
! Port Impedance         50               0                50               0                
4.9                            0.376502752761774 40.8946870385313 0.899515830829128 -45.093487482633 0.899515830829128 -45.0934874826329 0.376499368453869 40.8977515331736 
! Gamma         0                0                0                0                
! Port Impedance         50               0                50               0                
5                              0.381651303636561 40.1178717892915 0.897269766176709 -45.9117236774569 0.897269766176709 -45.9117236774569 0.381647788514575 40.1210062837494 
! Gamma         0                0                0                0                
! Port Impedance         50               0                50               0                
5.1                            0.386694615802058 39.3440743042215 0.895039970448347 -46.7259828187205 0.895039970448347 -46.7259828187205 0.386690967889745 39.3472790695417 
! Gamma         0                0                0                0                
! Port Impedance         50               0                50               0                
5.2                            0.391633344044357 38.5733200069974 0.892827928203113 -47.536318065799 0.892827928203113 -47.536318065799 0.391629561420086 38.5765953154934 
! Gamma         0                0                0                0                
! Port Impedance         50               0                50               0                
5.3                            0.396468168346006 37.805625404234  0.890635064016969 -48.3427842347597 0.890635064016969 -48.3427842347597 0.396464249143049 37.8089715293593 
! Gamma         0                0                0                0                
! Port Impedance         50               0                50               0                
5.4                            0.401199790682066 37.0409989533532 0.888462744148653 -49.1454376808816 0.888462744148653 -49.1454376808816 0.40119573308874 37.0444161695911 
! Gamma         0                0                0                0                
! Port Impedance         50               0                50               0                
5.5                            0.405828932017554 36.279441840412  0.886312278218421 -49.9443361887033 0.886312278218421 -49.9443361887033 0.405824734277213 36.2829304231819 
! Gamma         0                0                0                0                
! Port Impedance         50               0                50               0                
5.6                            0.410356329494914 35.520948678203  0.884184920890988 -50.7395388691928 0.884184920890988 -50.7395388691928 0.41035198990583 35.5245089037805 
! Gamma         0                0                0                0                
! Port Impedance         50               0                50               0                
5.7                            0.414782733800557 34.7655081336047 0.882081873555037 -51.5311060636403 0.882081873555036 -51.5311060636403 0.414778250715675 34.7691402790567 
! Gamma         0                0                0                0                
! Port Impedance         50               0                50               0                
5.8                            0.419108906699799 34.0131034920323 0.880004285992638 -52.3190992538848 0.880004285992638 -52.3190992538848 0.419104278526402 34.0168078351631 
! Gamma         0                0                0                0                
! Port Impedance         50               0                50               0                
5.9                            0.423335618730011 33.2637131658623 0.877953258032818 -53.1035809784986 0.877953258032818 -53.1035809784986 0.423330843929283 33.2674899851728 
! Gamma         0                0                0                0                
! Port Impedance         50               0                50               0                
6                              0.427463647042192 32.5173111528779 0.875929841184302 -53.8846147545654 0.875929841184301 -53.8846147545654 0.427458724128716 32.5211607275347 
! Gamma         0                0                0                0                
! Port Impedance         50               0                50               0                
6.1                            0.431493773381692 31.7738674500577 0.87393504024319 -54.6622650047033 0.87393504024319 -54.6622650047033 0.43148870092286 31.7777900598728 
! Gamma         0                0                0                0                
! Port Impedance         50               0                50               0                
6.2                            0.435426782199237 31.0333484274119 0.87196981487201 -55.436596988999 0.871969814872009 -55.436596988999 0.435421558814612 31.0373443528311 
! Gamma         0                0                0                0                
! Port Impedance         50               0                50               0                
6.3                            0.439263458883944 30.295717166028  0.870035081147114 -56.2076767415349 0.870035081147113 -56.2076767415349 0.439258083244559 30.2997866881278 
! Gamma         0                0                0                0                
! Port Impedance         50               0                50               0                
6.4                            0.443004588110468 29.5609337640162 0.868131713071993 -56.9755710112086 0.868131713071993 -56.9755710112086 0.44299905893808 29.565077164509  
! Gamma         0                0                0                0                
! Port Impedance         50               0                50               0                
6.5                            0.446650952292892 28.8289556136356 0.866260544054478 -57.740347206558 0.866260544054477 -57.7403472065581 0.446645268359196 28.8331731748818 
! Gamma         0                0                0                0                
! Port Impedance         50               0                50               0                
6.6                            0.45020333013845 28.0997376525195 0.864422368346237 -58.5020733443244 0.864422368346237 -58.5020733443244 0.45019749026426 28.1040296575464 
! Gamma         0                0                0                0                
! Port Impedance         50               0                50               0                
6.7                            0.45366249529461 27.3732325916005 0.862617942443352 -59.2608180014988 0.862617942443351 -59.2608180014988 0.45365649834901 27.3775993241274 
! Gamma         0                0                0                0                
! Port Impedance         50               0                50               0                
6.8                            0.457029215083467 26.6493911220588 0.860847986447029 -60.016650270616 0.860847986447028 -60.016650270616 0.457023059982941 26.6538328665283 
! Gamma         0                0                0                0                
! Port Impedance         50               0                50               0                
6.9                            0.460304249317817 25.9281621033693 0.859113185383813 -60.7696397180725 0.859113185383813 -60.7696397180725 0.460297935025358 25.9326791449834 
! Gamma         0                0                0                0                
! Port Impedance         50               0                50               0                
7                              0.463488349193646 25.2094927343039 0.857414190484882 -61.5198563452609 0.857414190484882 -61.5198563452609 0.463481874717859 25.2140853590656 
! Gamma         0                0                0                0                
! Port Impedance         50               0                50               0                
7.1                            0.466582256254168 24.4933287085546 0.855751620424204 -62.2673705523274 0.855751620424203 -62.2673705523274 0.46657562064836 24.497997203314  
! Gamma         0                0                0                0                
! Port Impedance         50               0                50               0                
7.2                            0.469586701420858 23.7796143564681 0.854126062515513 -63.0122531043709 0.854126062515513 -63.0122531043709 0.469579903782122 23.7843590089733 
! Gamma         0                0                0                0                
! Port Impedance         50               0                50               0                
7.3                            0.472502404087259 23.0682927742346 0.852538073868205 -63.7545750999165 0.852538073868205 -63.7545750999165 0.472495443555561 23.073113873186  
! Gamma         0                0                0                0                
! Port Impedance         50               0                50               0                
7.4                            0.475330071271656 22.3593059417317 0.850988182502357 -64.4944079415057 0.850988182502357 -64.4944079415057 0.475322947028924 22.3642037768412 
! Gamma         0                0                0                0                
! Port Impedance         50               0                50               0                
7.5                            0.478070396824958 21.652594830109  0.849476888423185 -65.231823308259 0.849476888423185 -65.231823308259 0.47806310809418 21.6575696921622 
! Gamma         0                0                0                0                
! Port Impedance         50               0                50               0                
7.6                            0.480724060690438 20.9480995000883 0.84800466465534 -65.9668931302753 0.84800466465534 -65.9668931302753 0.48071660673476 20.9531516810107 
! Gamma         0                0                0                0                
! Port Impedance         50               0                50               0                
7.7                            0.483291728212162 20.2457591918572 0.846571958237479 -66.6996895647421 0.846571958237479 -66.6996895647421 0.483284108334011 20.2508889847834 
! Gamma         0                0                0                0                
! Port Impedance         50               0                50               0                
7.8                            0.485774049489233 19.5455124073508 0.845179191177628 -67.4302849736404 0.845179191177628 -67.4302849736404 0.485766263029446 19.5507201066971 
! Gamma         0                0                0                0                
! Port Impedance         50               0                50               0                
7.9                            0.488171658773112 18.8472969856358 0.843826761369861 -68.1587519029341 0.843826761369861 -68.1587519029341 0.488163705110086 18.8525828871759 
! Gamma         0                0                0                0                
! Port Impedance         50               0                50               0                
8                              0.490485173905535 18.151050172045  0.842515043472867 -68.8851630631441 0.842515043472867 -68.8851630631441 0.490477052454394 18.1564145729888 
! Gamma         0                0                0                0                
! Port Impedance         50               0                50               0                
8.1                            0.492715195794683 17.4567086816489 0.841244389750991 -69.609591311212 0.841244389750991 -69.609591311212 0.492706906006469 17.4621518807236 
! Gamma         0                0                0                0                
! Port Impedance         50               0                50               0                
8.2                            0.494862307927438 16.7642087575916 0.84001513087832 -70.332109633564 0.840015130878321 -70.332109633564 0.494853849288328 16.7697310551267 
! Gamma         0                0                0                0                
! Port Impedance         50               0                50               0                
8.3                            0.496927075915732 16.0734862247767 0.838827576706435 -71.0527911302941 0.838827576706436 -71.0527911302941 0.496918447946271 16.0790879227901 
! Gamma         0                0                0                0                
! Port Impedance         50               0                50               0                
8.4                            0.498910047075097 15.3844765393361 0.837682016996398 -71.7717090003867 0.837682016996398 -71.7717090003867 0.498901249329471 15.3901579416244 
! Gamma         0                0                0                0                
! Port Impedance         50               0                50               0                
8.5                            0.500811750033714 14.6971148342815 0.836578722115566 -72.4889365279083 0.836578722115566 -72.4889365279084 0.50080278209904 14.7028762465124 
! Gamma         0                0                0                0                
! Port Impedance         50               0                50               0                
8.6                            0.502632694370321 14.0113359617009 0.835517943699821 -73.204547069096 0.835517943699821 -73.204547069096 0.502623555865975 14.0171776915074 
! Gamma         0                0                0                0                
! Port Impedance         50               0                50               0                
8.7                            0.504373370279519 13.3270745318279 0.834499915281755 -73.9186140402801 0.834499915281756 -73.9186140402801 0.504364060856491 13.3329968889062 
! Gamma         0                0                0                0                
! Port Impedance         50               0                50               0                
8.8                            0.506034248263064 12.6442649492892 0.833524852885377 -74.6312109065783 0.833524852885378 -74.6312109065783 0.506024767603347 12.6502682454985 
! Gamma         0                0                0                0                
! Port Impedance         50               0                50               0                
8.9                            0.507615778845892 11.9628414468042 0.832592955587861 -75.3424111713007 0.832592955587861 -75.3424111713007 0.507606126661905 11.9689259962692 
! Gamma         0                0                0                0                
! Port Impedance         50               0                50               0                
9                              0.509118392315673 11.2827381165924 0.831704406048846 -76.0522883660116 0.831704406048847 -76.0522883660116 0.509108568349716 11.2889042358081 
! Gamma         0                0                0                0                
! Port Impedance         50               0                50               0                
9.1                            0.510542498484818 10.6038889397209 0.830859371007797 -76.7609160411915 0.830859371007798 -76.7609160411915 0.510532502508564 10.6101369476605 
! Gamma         0                0                0                0                
! Port Impedance         50               0                50               0                
9.2                            0.511888486473919 9.92622781360856 0.830058001749871 -77.4683677574489 0.830058001749872 -77.468367757449 0.511878318287944 9.93255803183359 
! Gamma         0                0                0                0                
! Port Impedance         50               0                50               0                
9.3                            0.513156724515725 9.24968857788656 0.829300434540765 -78.1747170772297 0.829300434540766 -78.1747170772298 0.513146383949072 9.25610133065939 
! Gamma         0                0                0                0                
! Port Impedance         50               0                50               0                
9.4                            0.514347559778786 8.57420503879875 0.828586791030964 -78.8800375569761 0.828586791030965 -78.8800375569762 0.514337046688565 8.58070065319833 
! Gamma         0                0                0                0                
! Port Impedance         50               0                50               0                
9.5                            0.515461318210022 7.89971099231615 0.827917178629804 -79.5844027396865 0.827917178629806 -79.5844027396865 0.515450632481054 7.9062897983562  
! Gamma         0                0                0                0                
! Port Impedance         50               0                50               0                
9.6                            0.516498304395514 7.22614024612547 0.827291690849737 -80.2878861478297 0.827291690849738 -80.2878861478297 0.516487445940007 7.23280257687555 
! Gamma         0                0                0                0                
! Port Impedance         50               0                50               0                
9.7                            0.517458801438907 6.55342664064291 0.826710407621172 -80.9905612765679 0.826710407621173 -80.9905612765679 0.517447770196176 6.56017283235238 
! Gamma         0                0                0                0                
! Port Impedance         50               0                50               0                
9.8                            0.51834307085687 5.88150406919562 0.826173395578245 -81.6925015872421 0.826173395578247 -81.6925015872421 0.518331866793092 5.88833446142066 
! Gamma         0                0                0                0                
! Port Impedance         50               0                50               0                
9.9                            0.519151352491133 5.2103064975051  0.825680708315842 -82.3937805010761 0.825680708315843 -82.3937805010762 0.519139975599144 5.21722143323876 
! Gamma         0                0                0                0                
! Port Impedance         50               0                50               0                
10                             0.51988386443669 4.53976798260021 0.825232386618199 -83.0944713930543 0.8252323866182  -83.0944713930544 0.519872314735824 4.54676780840576 
! Gamma         0                0                0                0                
! Port Impedance         50               0                50               0                
10.1                           0.520540802985817 3.86982269128187 0.82482845865937 -83.794647585929 0.82482845865937 -83.7946475859291 0.52052908052178 3.87690775742949 
! Gamma         0                0                0                0                
! Port Impedance         50               0                50               0                
10.2                           0.521122342587621 3.20040491825577 0.824468940175852 -84.4943823443141 0.824468940175853 -84.4943823443141 0.521110447432408 3.20757557886278 
! Gamma         0                0                0                0                
! Port Impedance         50               0                50               0                
10.3                           0.521628635822895 2.53144910404599 0.824153834611627 -85.1937488688201 0.824153834611627 -85.1937488688202 0.52161656807475 2.53870571722069 
! Gamma         0                0                0                0                
! Port Impedance         50               0                50               0                
10.4                           0.522059813394131 1.86288985279806 0.823883133235868 -85.8928202901881 0.823883133235869 -85.8928202901882 0.522047573177543 1.8702327807875  
! Gamma         0                0                0                0                
! Port Impedance         50               0                50               0                
10.5                           0.522415984130584 1.19466195007742 0.823656815233575 -86.5916696633769 0.823656815233575 -86.5916696633769 0.522403571596329 1.20209155941915 
! Gamma         0                0                0                0                
! Port Impedance         50               0                50               0                
10.6                           0.522697235008362 0.526700380766739 0.823474847769333 -87.2903699615608 0.823474847769334 -87.2903699615609 0.522684650333579 0.534217042444821 
! Gamma         0                0                0                0                
! Port Impedance         50               0                50               0                
10.7                           0.522903631185567 -0.141059652836269 0.823337186024449 -87.9889940699926 0.823337186024449 -87.9889940699926 0.522890874573882 -0.133455563230785 
! Gamma         0                0                0                0                
! Port Impedance         50               0                50               0                
10.8                           0.52303521605258 -0.808682712620342 0.82324377320764 -88.6876147796872 0.823243773207641 -88.6876147796873 0.523022287734267 -0.800990814724237 
! Gamma         0                0                0                0                
! Port Impedance         50               0                50               0                
10.9                           0.523092011297639 -1.47623310586189 0.82319454053952 -89.3863047808813 0.823194540539521 -89.3863047808814 0.523078911529822 -1.46845301436963 
! Gamma         0                0                0                0                
! Port Impedance         50               0                50               0                
11                             0.523074016987927 -2.14377486592686 0.823189407211046 -90.0851366562224 0.823189407211047 -90.0851366562225 0.523060746054823 -2.13590619041524 
! Gamma         0                0                0                0                
! Port Impedance         50               0                50               0                
11.1                           0.522981211666439 -2.81137173237429 0.823228280316143 -90.7841828736424 0.823228280316143 -90.7841828736425 0.522967769879644 -2.80341407712146 
! Gamma         0                0                0                0                
! Port Impedance         50               0                50               0                
11.2                           0.522813552464977 -3.47908713036145 0.823311054758695 -91.4835157788686 0.823311054758695 -91.4835157788687 0.52279994016379 -3.47104009416019 
! Gamma         0                0                0                0                
! Port Impedance         50               0                50               0                
11.3                           0.522570975233657 -4.14698414925066 0.823437613134105 -92.183207587525 0.823437613134105 -92.1832075875251 0.52255719278545 -4.13884732521537 
! Gamma         0                0                0                0                
! Port Impedance         50               0                50               0                
11.4                           0.522253394687409 -4.81512552031527 0.823607825585615 -92.8833303767771 0.823607825585615 -92.8833303767772 0.522239442488027 -4.8068984956824 
! Gamma         0                0                0                0                
! Port Impedance         50               0                50               0                
11.5                           0.521860704569964 -5.48357359344159 0.823821549635593 -93.5839560764701 0.823821549635593 -93.5839560764702 0.52184658304418 -5.47525594936314 
! Gamma         0                0                0                0                
! Port Impedance         50               0                50               0                
11.6                           0.521392777835946 -6.15239031272095 0.824078629992015 -94.2851564597148 0.824078629992016 -94.2851564597149 0.521378487437943 -6.1439816240505 
! Gamma         0                0                0                0                
! Port Impedance         50               0                50               0                
11.7                           0.520849466851687 -6.82163719082368 0.824378898330345 -94.9870031328689 0.824378898330345 -94.987003132869 0.520835008065595 -6.81313702589466 
! Gamma         0                0                0                0                
! Port Impedance         50               0                50               0                
11.8                           0.520230603615501 -7.49137528204389 0.824722173051065 -95.6895675248654 0.824722173051064 -95.6895675248655 0.520215976955957 -7.48278320243943 
! Gamma         0                0                0                0                
! Port Impedance         50               0                50               0                
11.9                           0.519535999998162 -8.16166515390052 0.825108259013109 -96.3929208758373 0.825108259013109 -96.3929208758374 0.519521206010926 -8.15298071421445 
! Gamma         0                0                0                0                
! Port Impedance         50               0                50               0                
12                             0.518765448004436 -8.83256685717648 0.825536947243477 -97.0971342249877 0.825536947243476 -97.0971342249878 0.51875048726704 -8.82378960476494 
! Gamma         0                0                0                0                
! Port Impedance         50               0                50               0                
12.1                           0.517918720056565 -9.50413989427338 0.826008014623314 -97.8022783976526 0.826008014623314 -97.8022783976527 0.517903593179004 -9.49526936899634 
! Gamma         0                0                0                0                
! Port Impedance         50               0                50               0                
12.2                           0.51699556930064 -10.1764431857547 0.826521223550805 -98.5084239915058 0.826521223550804 -98.5084239915059 0.5169802769261  -10.1674789197068 
! Gamma         0                0                0                0                
! Port Impedance         50               0                50               0                
12.3                           0.5159957299369  -10.849535034945 0.827076321581209 -99.2156413618526 0.827076321581209 -99.2156413618526 0.515980272742531 -10.8404765521751 
! Gamma         0                0                0                0                
! Port Impedance         50               0                50               0                
12.4                           0.514918917575019 -11.5234730904477 0.827673041044462 -99.9240006059588 0.827673041044461 -99.9240006059588 0.514903296272744 -11.5143199066661 
! Gamma         0                0                0                0                
! Port Impedance         50               0                50               0                
12.5                           0.513764829615527 -12.1983143064363 0.828311098640729 -100.633571546362 0.828311098640729 -100.633571546362 0.513749044952894 -12.1890659287092 
! Gamma         0                0                0                0                
! Port Impedance         50               0                50               0                
12.6                           0.512533145658552 -12.8741149005682 0.828990195014431 -101.344423713113 0.828990195014431 -101.344423713113 0.512517198419622 -12.8647708269983 
! Gamma         0                0                0                0                
! Port Impedance         50               0                50               0                
12.7                           0.511223527941136 -13.5509303093632 0.829710014307218 -102.056626324888 0.829710014307217 -102.056626324889 0.511207418947413 -13.5414900287556 
! Gamma         0                0                0                0                
! Port Impedance         50               0                50               0                
12.8                           0.50983562180443 -14.228815140879 0.830470223690489 -102.770248268928 0.830470223690487 -102.770248268928 0.50981935191583 -14.2192781323911 
! Gamma         0                0                0                0                
! Port Impedance         50               0                50               0                
12.9                           0.508369056192126 -14.9078231245078 0.83127047287808 -103.485358079735 0.831270472878079 -103.485358079735 0.508352626307986 -14.8981888572829 
! Gamma         0                0                0                0                
! Port Impedance         50               0                50               0                
13                             0.506823444181543 -15.5880070577091 0.832110393619809 -104.202023916492 0.832110393619808 -104.202023916492 0.506806855241667 -15.5782749904915 
! Gamma         0                0                0                0                
! Port Impedance         50               0                50               0                
13.1                           0.505198383548809 -16.2694187494811 0.832989599176632 -104.92031353913 0.832989599176631 -104.92031353913 0.505181636534555 -16.2595883302121 
! Gamma         0                0                0                0                
! Port Impedance         50               0                50               0                
13.2                           0.503493457369664 -16.9521089603644 0.833907683778251 -105.640294283013 0.83390768377825 -105.640294283013 0.503476553305071 -16.9421796257579 
! Gamma         0                0                0                0                
! Port Impedance         50               0                50               0                
13.3                           0.50170823465742 -17.636127338754 0.834864222064077 -106.36203303216 0.834864222064076 -106.36203303216 0.501691174610366 -17.6260985138495 
! Gamma         0                0                0                0                
! Port Impedance         50               0                50               0                
13.4                           0.499842271039655 -18.3215223532872 0.835858768508544 -107.085596190979 0.835858768508542 -107.085596190979 0.499825056123066 -18.3113934509799 
! Gamma         0                0                0                0                
! Port Impedance         50               0                50               0                
13.5                           0.497895109475283 -19.0083412210543 0.836890856831855 -107.811049654446 0.836890856831853 -107.811049654446 0.497877740848372 -18.9981116415991 
! Gamma         0                0                0                0                
! Port Impedance         50               0                50               0                
13.6                           0.495866281013632 -19.6966298313656 0.837959999397348 -108.538458776677 0.837959999397347 -108.538458776677 0.495848759883177 -19.6862989618541 
! Gamma         0                0                0                0                
! Port Impedance         50               0                50               0                
13.7                           0.493755305597212 -20.3864326647865 0.839065686596755 -109.267888337859 0.839065686596754 -109.267888337859 0.493737633218874 -20.375999878595 
! Gamma         0                0                0                0                
! Port Impedance         50               0                50               0                
13.8                           0.491561692909865 -21.0777927071343 0.840207386224749 -109.99940250947 0.840207386224747 -109.999402509471 0.491543870589542 -21.0672573633395 
! Gamma         0                0                0                0                
! Port Impedance         50               0                50               0                
13.9                           0.489284943272004 -21.770751358104 0.841384542844288 -110.733064817772 0.841384542844287 -110.733064817772 0.489266972367226 -21.7601128008658 
! Gamma         0                0                0                0                
! Port Impedance         50               0                50               0                
14                             0.486924548584659 -22.4653483341687 0.842596577144378 -111.468938105497 0.842596577144377 -111.468938105497 0.486906430506016 -22.454605892076 
! Gamma         0                0                0                0                
! Port Impedance         50               0                50               0                
14.1                           0.484479993324025 -23.1616215653688 0.843842885292003 -112.20708449172 0.843842885292001 -112.20708449172 0.484461729536636 -23.1507745507463 
! Gamma         0                0                0                0                
! Port Impedance         50               0                50               0                
14.2                           0.481950755588228 -23.8596070855742 0.845122838280121 -112.947565329862 0.84512283828012 -112.947565329862 0.481932347613247 -23.8486547937461 
! Gamma         0                0                0                0                
! Port Impedance         50               0                50               0                
14.3                           0.479336308197982 -24.5593389157679 0.846435781273739 -113.690441163786 0.846435781273738 -113.690441163786 0.479317757614139 -24.5482806242769 
! Gamma         0                0                0                0                
! Port Impedance         50               0                50               0                
14.4                           0.476636119852788 -25.2608489398612 0.84778103295623 -114.435771681966 0.847781032956229 -114.435771681966 0.476617428297969 -25.2496839076375 
! Gamma         0                0                0                0                
! Port Impedance         50               0                50               0                
14.5                           0.47384965634429 -25.9641667725065 0.849157884878228 -115.183615669693 0.849157884878227 -115.183615669693 0.473830825517153 -25.9528942389833 
! Gamma         0                0                0                0                
! Port Impedance         50               0                50               0                
14.6                           0.470976381828347 -26.6693196183241 0.850565600811553 -115.9340309593  0.850565600811552 -115.9340309593  0.470957413489975 -26.6579388024957 
! Gamma         0                0                0                0                
! Port Impedance         50               0                50               0                
14.7                           0.468015760157323 -27.3763321219065 0.852003416110808 -116.687074378376 0.852003416110807 -116.687074378376 0.467996656132913 -27.3648422213233 
! Gamma         0                0                0                0                
! Port Impedance         50               0                50               0                
14.8                           0.464967256274017 -28.0852262078993 0.85347053708543 -117.442801695977 0.85347053708543 -117.442801695977 0.464948018454609 -28.0736263975953 
! Gamma         0                0                0                0                
! Port Impedance         50               0                50               0                
14.9                           0.46183033766857 -28.7960209103908 0.854966140385172 -118.201267566802 0.854966140385171 -118.201267566803 0.461810968012808 -28.7843103417371 
! Gamma         0                0                0                0                
! Port Impedance         50               0                50               0                
15                             0.458604475899582 -29.508732190763 0.856489372402116 -118.962525473355 0.856489372402115 -118.962525473355 0.458584976435516 -29.4969099902412 
! Gamma         0                0                0                0                
! Port Impedance         50               0                50               0                
15.1                           0.455289148180554 -30.2233727430683 0.858039348692537 -119.726627666076 0.858039348692536 -119.726627666076 0.455269521007481 -30.2114380109566 
! Gamma         0                0                0                0                
! Port Impedance         50               0                50               0                
15.2                           0.451883839032651 -30.9399517858956 0.859615153422086 -120.493625101478 0.859615153422086 -120.493625101479 0.451864086322987 -30.9279035948605 
! Gamma         0                0                0                0                
! Port Impedance         50               0                50               0                
15.3                           0.448388042004606 -31.6584748395779 0.861215838837915 -121.263567378293 0.861215838837915 -121.263567378293 0.448368166005804 -31.6463122331615 
! Gamma         0                0                0                0                
! Port Impedance         50               0                50               0                
15.4                           0.444801261460451 -32.3789434874613 0.862840424771566 -122.036502671657 0.862840424771566 -122.036502671657 0.444781264496953 -32.3666654784562 
! Gamma         0                0                0                0                
! Port Impedance         50               0                50               0                
15.5                           0.441123014435571 -33.1013551198117 0.864487898176606 -122.812477665388 0.864487898176606 -122.812477665388 0.441102898910804 -33.088960688512 
! Gamma         0                0                0                0                
! Port Impedance         50               0                50               0                
15.6                           0.437352832561378 -33.8257026587659 0.86615721270514 -123.591537482381 0.866157212705139 -123.591537482381 0.437332600959788 -33.8131907510831 
! Gamma         0                0                0                0                
! Port Impedance         50               0                50               0                
15.7                           0.433490264058685 -34.5519742625436 0.867847288327501 -124.373725613201 0.867847288327502 -124.373725613201 0.433469918947814 -34.5393437879739 
! Gamma         0                0                0                0                
! Port Impedance         50               0                50               0                
15.8                           0.429534875799655 -35.2801530069177 0.869557010999577 -125.159083842926 0.869557010999578 -125.159083842926 0.429514419832268 -35.2674028363468 
! Gamma         0                0                0                0                
! Port Impedance         50               0                50               0                
15.9                           0.425486255437935 -36.0102165416891 0.871285232382349 -125.947652176328 0.871285232382349 -125.947652176329 0.425465691354187 -35.9973455050178 
! Gamma         0                0                0                0                
! Port Impedance         50               0                50               0                
16                             0.421344013606331 -36.7421367196251 0.873030769618381 -126.739468761485 0.873030769618382 -126.739468761485 0.42132334423599 -36.7291436031984 
! Gamma         0                0                0                0                
! Port Impedance         50               0                50               0                
16.1                           0.41710778618113 -37.4758791949875 0.874792405170092 -127.534569811917 0.874792405170093 -127.534569811917 0.417087014445847 -37.4627627388057 
! Gamma         0                0                0                0                
! Port Impedance         50               0                50               0                
16.2                           0.412777236611868 -38.2114029883946 0.876568886724758 -128.332989527387 0.876568886724759 -128.332989527387 0.412756365527509 -38.1981618830853 
! Gamma         0                0                0                0                
! Port Impedance         50               0                50               0                
16.3                           0.408352058315068 -38.9486600143198 0.878358927171274 -129.134760013469 0.878358927171275 -129.13476001347 0.408331090994109 -38.9352928978442 
! Gamma         0                0                0                0                
! Port Impedance         50               0                50               0                
16.4                           0.403831977130178 -39.6875945670171 0.880161204653767 -129.939911200055 0.880161204653768 -129.939911200055 0.403810916784164 -39.6741000210825 
! Gamma         0                0                0                0                
! Port Impedance         50               0                50               0                
16.5                           0.399216753835637 -40.42814276007  0.881974362707214 -130.748470758934 0.881974362707215 -130.748470758934 0.399195603777719 -40.4145193062158 
! Gamma         0                0                0                0                
! Port Impedance         50               0                50               0                
16.6                           0.394506186722691 -41.1702319140711 0.88379701048021 -131.560464020651 0.883797010480211 -131.560464020651 0.394484950370247 -41.1564780093919 
! Gamma         0                0                0                0                
! Port Impedance         50               0                50               0                
16.7                           0.389700114224318 -41.9137798861322 0.885627723050053 -132.375913890797 0.885627723050055 -132.375913890797 0.389678795101665 -41.8998939185967 
! Gamma         0                0                0                0                
! Port Impedance         50               0                50               0                
16.8                           0.384798417596306 -42.6586943339873 0.887465041835249 -133.194840765966 0.887465041835251 -133.194840765966 0.384777019337521 -42.6446746173064 
! Gamma         0                0                0                0                
! Port Impedance         50               0                50               0                
16.9                           0.379801023647324 -43.4048719063484 0.889307475110491 -134.017262449587 0.889307475110493 -134.017262449587 0.379779549999175 -43.3907166743371 
! Gamma         0                0                0                0                
! Port Impedance         50               0                50               0                
17                             0.37470790751454 -44.1521973498792 0.891153498629055 -134.84319406786 0.891153498629056 -134.84319406786 0.374686362339566 -44.1379047502544 
! Gamma         0                0                0                0                
! Port Impedance         50               0                50               0                
17.1                           0.369519095481221 -44.9005425216341 0.893001556357399 -135.672647986067 0.893001556357401 -135.672647986067 0.369497482760956 -44.8861106091754 
! Gamma         0                0                0                0                
! Port Impedance         50               0                50               0                
17.2                           0.364234667832575 -45.6497652940085 0.894850061326611 -136.505633725507 0.894850061326613 -136.505633725507 0.364212991670949 -45.6351920230037 
! Gamma         0                0                0                0                
! Port Impedance         50               0                50               0                
17.3                           0.358854761746051 -46.3997083371213 0.896697396605054 -137.342157881345 0.896697396605056 -137.342157881345 0.358833026373004 -46.3849915530046 
! Gamma         0                0                0                0                
! Port Impedance         50               0                50               0                
17.4                           0.353379574212373 -47.1501977610264 0.898541916396382 -138.182224041677 0.898541916396384 -138.182224041677 0.353357783987693 -47.1353351911022 
! Gamma         0                0                0                0                
! Port Impedance         50               0                50               0                
17.5                           0.347809364983674 -47.9010415971385 0.900381947266696 -139.025832708117 0.900381947266699 -139.025832708117 0.34778752440112 -47.8860308402695 
! Gamma         0                0                0                0                
! Port Impedance         50               0                50               0                
17.6                           0.342144459545457 -48.6520280946674 0.902215789504314 -139.872981218232 0.902215789504316 -139.872981218232 0.34212257323719 -48.6368666097841 
! Gamma         0                0                0                0                
! Port Impedance         50               0                50               0                
17.7                           0.336385252109499 -49.4029238035446 0.904041718615168 -140.723663670169 0.90404171861517 -140.723663670169 0.336363324850888 -49.3876088968105 
! Gamma         0                0                0                0                
! Port Impedance         50               0                50               0                
17.8                           0.330532208625575 -50.1534714101395 0.905857986956413 -141.577870849824 0.905857986956415 -141.577870849824 0.330510245340429 -50.138000220581 
! Gamma         0                0                0                0                
! Port Impedance         50               0                50               0                
17.9                           0.324585869810753 -50.9033872858032 0.907662825510307 -142.43559016091 0.907662825510308 -142.43559016091 0.32456387557707 -50.8877567691759 
! Gamma         0                0                0                0                
! Port Impedance         50               0                50               0                
18                             0.31854685419638 -51.6523587006848 0.909454445799833 -143.296805558307 0.909454445799835 -143.296805558307 0.318524834252675 -51.636565611314 
! Gamma         0                0                0                0                
! Port Impedance         50               0                50               0                
18.1                           0.312415861194509 -52.4000406460264 0.911231041946971 -144.161497485063 0.911231041946974 -144.161497485063 0.312393820946845 -52.3840815163061 
! Gamma         0                0                0                0                
! Port Impedance         50               0                50               0                
18.2                           0.306193674187783 -53.1460521968452 0.912990792873813 -145.029642813446 0.912990792873815 -145.029642813446 0.306171619217621 -53.1299233140287 
! Gamma         0                0                0                0                
! Port Impedance         50               0                50               0                
18.3                           0.299881163649622 -53.8899723330428 0.914731864646004 -145.901214790428 0.914731864646005 -145.901214790429 0.299859099722644 -53.8736697128838 
! Gamma         0                0                0                0                
! Port Impedance         50               0                50               0                
18.4                           0.293479290305237 -54.6313351198742 0.916452412957291 -146.77618298801 0.916452412957293 -146.77618298801 0.29345722338131 -54.6148544765945 
! Gamma         0                0                0                0                
! Port Impedance         50               0                50               0                
18.5                           0.286989108348641 -55.3696241274976 0.918150585753068 -147.654513258768 0.91815058575307 -147.654513258768 0.286967044593149 -55.3529608394539 
! Gamma         0                0                0                0                
! Port Impedance         50               0                50               0                
18.6                           0.28041176873678 -56.1042659429036 0.919824525990027 -148.536167697038 0.919824525990029 -148.536167697038 0.280389714533567 -56.087415013198 
! Gamma         0                0                0                0                
! Port Impedance         50               0                50               0                
18.7                           0.273748522589461 -56.834622594421 0.921472374528133 -149.421104606117 0.921472374528134 -149.421104606118 0.273726484555725 -56.8175786055405 
! Gamma         0                0                0                0                
! Port Impedance         50               0                50               0                
18.8                           0.267000724733407 -57.5599826672935 0.923092273150204 -150.309278471867 0.923092273150206 -150.309278471867 0.266978709736898 -57.5427397286685 
! Gamma         0                0                0                0                
! Port Impedance         50               0                50               0                
18.9                           0.260169837441046 -58.279550835981 0.92468236770348 -151.200639943108 0.924682367703482 -151.200639943108 0.260147852620058 -58.262102523107 
! Gamma         0                0                0                0                
! Port Impedance         50               0                50               0                
19                             0.253257434430469 -58.9924354714481 0.926240811356587 -152.095135819163 0.926240811356589 -152.095135819163 0.253235487217198 -58.9747747549039 
! Gamma         0                0                0                0                
! Port Impedance         50               0                50               0                
19.1                           0.246265205213329 -59.697633895208 0.927765767964325 -152.992709044905 0.927765767964327 -152.992709044905 0.246243303361302 -59.6797530575113 
! Gamma         0                0                0                0                
! Port Impedance         50               0                50               0                
19.2                           0.239194959903811 -60.3940147400834 0.929255415531793 -153.893298713639 0.929255415531795 -153.893298713639 0.239173111520279 -60.3759052778267 
! Gamma         0                0                0                0                
! Port Impedance         50               0                50               0                
19.3                           0.232048634636216 -61.0802967320783 0.930707949768312 -154.796840078142 0.930707949768314 -154.796840078143 0.232026848220622 -61.0619492401425 
! Gamma         0                0                0                0                
! Port Impedance         50               0                50               0                
19.4                           0.224828297783908 -61.7550230167431 0.93212158772076 -155.703264570146 0.932121587720763 -155.703264570146 0.224806582273819 -61.7364270505579 
! Gamma         0                0                0                0                
! Port Impedance         50               0                50               0                
19.5                           0.217536157232202 -62.4165299007214 0.933494571474897 -156.612499828523 0.933494571474899 -156.612499828523 0.217514522058485 -62.3976738114563 
! Gamma         0                0                0                0                
! Port Impedance         50               0                50               0                
19.6                           0.210174569037791 -63.0629085419634 0.934825171912446 -157.524469736424 0.934825171912446 -157.524469736424 0.210153024191291 -63.0437792781097 
! Gamma         0                0                0                0                
! Port Impedance         50               0                50               0                
19.7                           0.202746047915189 -63.691957667946 0.936111692510797 -158.43909446756 0.936111692510797 -158.43909446756 0.202724604027827 -63.6725405348614 
! Gamma         0                0                0                0                
! Port Impedance         50               0                50               0                
19.8                           0.195253280137694 -64.3011247836115 0.937352473171413 -159.356290541804 0.937352473171413 -159.356290541804 0.195231948581789 -64.28140315007  
! Gamma         0                0                0                0                
! Port Impedance         50               0                50               0                
19.9                           0.187699139642958 -64.8874324819915 0.938545894062273 -160.275970890238 0.938545894062274 -160.275970890238 0.187677932653748 -64.8673874193658 
! Gamma         0                0                0                0                
! Port Impedance         50               0                50               0                
20                             0.18008670841566 -65.4473852911789 0.939690379459026 -161.198044929742 0.939690379459026 -161.198044929742 0.180065639243621 -65.4269951262156 
! Gamma         -0               -0               0                0                
! Port Impedance         50               0                50               0                
