! Touchstone file exported from HFSS 2026.1.0
!        File:           C:/ffzhzh/LocalFiles/Ansys_Project_Files/temp_train_TMRDL_1181_1783162647_22436.aedt
!        Generated:      06:58:56 PM Jul  4, 2026
!        Design:         TMRDL
!        Project:        temp_train_TMRDL_1181_1783162647_22436
!
! Variables:
!        h_bsmrdl = 2um
!        h_ox = 20um
!        h_rdl = 5um
!        h_sub = 80um
!        h_tmrdl = 2.72um
!        h_tsv = 80um
!        h_via = 3um
!        l_bsmrdl = 300um
!        l_sub = 1397.23um
!        l_tmrdl = 997.23um
!        m_sub = 200um
!        pitch = 47.1um
!        r_tsv = 6um
!        s_tmrdl = 10um
!        w_bsmrdl = 18um
!        w_sub = 500um
!        w_tmrdl = 27.38um
!        x_tsv_center1 = 1010.92um
!        x_tsv_center2 = 1328.92um
!        x_tsv_center3 = 2353.53um
!        x_tsv_center4 = 2671.53um
!        x_tsv_center5 = 3696.14um
!        x_tsv_center6 = 4014.14um
!
# GHz S MA R 50.000000
! Terminal data exported
! Port[1] = TM_RDL1_1_T1
! Port[2] = TM_RDL1_1_T2
0.1                            0.005989751406545 32.8490102729135 0.994983300785428 -0.362757523117874 0.994983300785427 -0.362757523117882 0.00598974159477613 32.8498312834624 
! Gamma         0                0                0                0                
! Port Impedance         50               0                50               0                
0.2                            0.00832617210203784 49.7714602068741 0.994681655422006 -0.717581074622459 0.994681655422005 -0.717581074622466 0.00832615128326285 49.773290783576  
! Gamma         0                0                0                0                
! Port Impedance         50               0                50               0                
0.3                            0.0109530320706029 57.9956489062211 0.994323888749266 -1.06252199664922 0.994323888749265 -1.06252199664922 0.0109530003264777 57.9983546268386 
! Gamma         0                0                0                0                
! Port Impedance         50               0                50               0                
0.4                            0.0135992315749646 62.7266467763689 0.993991009641181 -1.40009492096397 0.993991009641179 -1.40009492096396 0.0135991535962573 62.7301865559224 
! Gamma         0                0                0                0                
! Port Impedance         50               0                50               0                
0.5                            0.0162268532339464 65.8800235073284 0.993708606203241 -1.73346388643003 0.99370860620324 -1.73346388643001 0.0162266814248683 65.8844707357351 
! Gamma         0                0                0                0                
! Port Impedance         50               0                50               0                
0.6                            0.0188459490898672 68.1757434215874 0.993473559852683 -2.06483128580624 0.993473559852682 -2.06483128580622 0.0188456429141528 68.1812043674902 
! Gamma         0                0                0                0                
! Port Impedance         50               0                50               0                
0.7                            0.0214684694273136 69.9263115475397 0.993274425555084 -2.39542387644973 0.993274425555083 -2.39542387644972 0.0214680006567754 69.9328792826292 
! Gamma         0                0                0                0                
! Port Impedance         50               0                50               0                
0.8                            0.0241010380429028 71.2931321937385 0.993099869265314 -2.72584830023691 0.993099869265313 -2.7258483002369 0.0241003890602578 71.3008743841587 
! Gamma         0                0                0                0                
! Port Impedance         50               0                50               0                
0.9                            0.0267460584661485 72.373220352962  0.992940902853089 -3.05637560068948 0.992940902853089 -3.05637560068947 0.0267452190630701 72.3821815851411 
! Gamma         0                0                0                0                
! Port Impedance         50               0                50               0                
1                              0.0294035629546186 73.2313868818323 0.992790922446694 -3.38710802278996 0.992790922446694 -3.38710802278996 0.0294025276111372 73.2415945720767 
! Gamma         0                0                0                0                
! Port Impedance         50               0                50               0                
1.1                            0.0320724639991702 73.9138483637415 0.992645204240371 -3.71806676336436 0.992645204240371 -3.71806676336436 0.0320712299908043 73.925318224215  
! Gamma         0                0                0                0                
! Port Impedance         50               0                50               0                
1.2                            0.0347512470735149 74.4548951816128 0.99250038875018 -4.0492361028879 0.992500388750179 -4.0492361028879 0.0347498132590173 74.4676353078256 
! Gamma         0                0                0                0                
! Port Impedance         50               0                50               0                
1.3                            0.037438317161081 74.8806291802716 0.992354077913449 -4.3805850888434 0.992354077913448 -4.3805850888434 0.0374366832367683 74.894642857489  
! Gamma         0                0                0                0                
! Port Impedance         50               0                50               0                
1.4                            0.0401321566279782 75.2112847113943 0.992204546584692 -4.71207796293631 0.992204546584692 -4.71207796293632 0.0401303226794695 75.2265722648155 
! Gamma         0                0                0                0                
! Port Impedance         50               0                50               0                
1.5                            0.0428313867257428 75.4627732096697 0.992050542431969 -5.04367900037457 0.992050542431968 -5.04367900037457 0.0428293529631631 75.4793331987202 
! Gamma         0                0                0                0                
! Port Impedance         50               0                50               0                
1.6                            0.0455347823327869 75.6477580592677 0.991891148386365 -5.37535459423504 0.991891148386364 -5.37535459423505 0.0455325489374329 75.6655880389717 
! Gamma         0                0                0                0                
! Port Impedance         50               0                50               0                
1.7                            0.0482412654929504 75.776425006349  0.991725687909332 -5.70707399860904 0.991725687909331 -5.70707399860906 0.0482388325311634 75.7955220080726 
! Gamma         0                0                0                0                
! Port Impedance         50               0                50               0                
1.8                            0.0509498905239869 75.8570459512759 0.991553659266433 -6.03880943681197 0.991553659266433 -6.03880943681199 0.0509472579013386 75.8774067830581 
! Gamma         0                0                0                0                
! Port Impedance         50               0                50               0                
1.9                            0.0536598268604481 75.8963981237419 0.9913746894622  -6.37053592699842 0.991374689462199 -6.37053592699844 0.0536569942999556 75.9180195550628 
! Gamma         0                0                0                0                
! Port Impedance         50               0                50               0                
2                              0.0563703424412719 75.900079810941  0.991188501583965 -6.70223099935045 0.991188501583964 -6.70223099935047 0.0563673094757841 75.9229586836138 
! Gamma         0                0                0                0                
! Port Impedance         50               0                50               0                
2.1                            0.0590807887814656 75.8727508596925 0.990994891373808 -7.03387438890014 0.990994891373808 -7.03387438890016 0.0590775547542516 75.8968841516392 
! Gamma         0                0                0                0                
! Port Impedance         50               0                50               0                
2.2                            0.0617905880581424 75.8183177388639 0.99079371021825 -7.36544774247105 0.99079371021825 -7.36544774247107 0.0617871521280718 75.8437025979673 
! Gamma         0                0                0                0                
! Port Impedance         50               0                50               0                
2.3                            0.0644992221690744 75.7400772728684 0.990584852651001 -7.69693435534807 0.990584852651   -7.6969343553481 0.0644955833182101 75.7667110319727 
! Gamma         0                0                0                0                
! Port Impedance         50               0                50               0                
2.4                            0.0672062235683365 75.640829248151  0.990368247065198 -8.02831894204562 0.990368247065197 -8.02831894204564 0.0672023806106384 75.6687094283504 
! Gamma         0                0                0                0                
! Port Impedance         50               0                50               0                
2.5                            0.0699111676365389 75.522965354925  0.990143848733545 -8.35958744027011 0.990143848733544 -8.35958744027014 0.0699071192269132 75.552089661749  
! Gamma         0                0                0                0                
! Port Impedance         50               0                50               0                
2.6                            0.0726136663455081 75.3885399792097 0.989911634506035 -8.69072684493622 0.989911634506034 -8.69072684493625 0.0726094109887628 75.4189062946745 
! Gamma         0                0                0                0                
! Port Impedance         50               0                50               0                
2.7                            0.0753133630003779 75.2393269597942 0.989671598739866 -9.02172506837622 0.989671598739866 -9.02172506837625 0.0753088990598479 75.2709333322269 
! Gamma         0                0                0                0                
! Port Impedance         50               0                50               0                
2.8                            0.078009927871798 75.0768654070341 0.989423750143484 -9.35257082288932 0.989423750143483 -9.35257082288935 0.0780052535775228 75.1097100398833 
! Gamma         0                0                0                0                
! Port Impedance         50               0                50               0                
2.9                            0.0807030545607485 74.9024969337569 0.989168109305313 -9.68325352210485 0.989168109305312 -9.68325352210488 0.0806981680171587 74.9365781741489 
! Gamma         0                0                0                0                
! Port Impedance         50               0                50               0                
3                              0.0833924569654612 74.7173960959591 0.988904706740043 -10.0137631980738 0.988904706740042 -10.0137631980738 0.0833873561585738 74.7527124234674 
! Gamma         0                0                0                0                
! Port Impedance         50               0                50               0                
3.1                            0.0860778667432524 74.522595428609  0.988633581329563 -10.3440904314563 0.988633581329562 -10.3440904314563 0.0860725495473944 74.5591454445082 
! Gamma         0                0                0                0                
! Port Impedance         50               0                50               0                
3.2                            0.0887590311796233 74.3190061517088 0.988354779067364 -10.6742262925939 0.988354779067363 -10.6742262925939 0.0887534953637207 74.3567885688609 
! Gamma         0                0                0                0                
! Port Impedance         50               0                50               0                
3.3                            0.0914357113931247 74.1074353867405 0.98806835203818 -11.0041622916232 0.988068352038179 -11.0041622916232 0.091429954626594 74.1464490201834 
! Gamma         0                0                0                0                
! Port Impedance         50               0                50               0                
3.4                            0.0941076808176729 73.8886005442501 0.98777435758139 -11.3338903361066 0.987774357581389 -11.3338903361067 0.0941017006759564 73.9288443025034 
! Gamma         0                0                0                0                
! Port Impedance         50               0                50               0                
3.5                            0.0967747239147273 73.663141405481  0.98747285759906 -11.6634026949172 0.987472857599059 -11.6634026949173 0.0967685178845114 73.7046142825561 
! Gamma         0                0                0                0                
! Port Impedance         50               0                50               0                
3.6                            0.0994366350764346 73.4316303143537 0.987163917978661 -11.9926919673386 0.98716391797866 -11.9926919673387 0.0994302005605857 73.4743313824364 
! Gamma         0                0                0                0                
! Port Impedance         50               0                50               0                
3.7                            0.10209321768788 73.1945808131007 0.986847608107337 -12.3217510565203 0.986847608107335 -12.3217510565204 0.102086552010133 73.2385092158621 
! Gamma         0                0                0                0                
! Port Impedance         50               0                50               0                
3.8                            0.104744283322298 72.9524549898758 0.986524000459799 -12.6505731465788 0.986524000459798 -12.6505731465788 0.104737383731725 72.9976099363671 
! Gamma         0                0                0                0                
! Port Impedance         50               0                50               0                
3.9                            0.107389651047708 72.7056697554768 0.986193170245821 -12.9791516827581 0.98619317024582 -12.9791516827581 0.107382514722991 72.7520505145574 
! Gamma         0                0                0                0                
! Port Impedance         50               0                50               0                
4                              0.110029146827208 72.4546022257735 0.985855195106312 -13.3074803541633 0.985855195106311 -13.3074803541633 0.110021770880748 72.5022081210264 
! Gamma         0                0                0                0                
! Port Impedance         50               0                50               0                
4.1                            0.112662602998225 72.1995943541576 0.985510154849255 -13.6355530786638 0.985510154849254 -13.6355530786639 0.112654984480093 72.248424759247  
! Gamma         0                0                0                0                
! Port Impedance         50               0                50               0                
4.2                            0.1152898578185  71.9409569324901 0.985158131218588 -13.9633639896306 0.985158131218586 -13.9633639896307 0.115281993720255 71.9910112669192 
! Gamma         0                0                0                0                
! Port Impedance         50               0                50               0                
4.3                            0.117910755068644 71.6789730582436 0.984799207690481 -14.2909074242275 0.98479920769048 -14.2909074242275 0.117902642327034 71.7302507834733 
! Gamma         0                0                0                0                
! Port Impedance         50               0                50               0                
4.4                            0.120525143702792 71.4139011487405 0.984433469292559 -14.6181779130233 0.984433469292558 -14.6181779130233 0.120516779203345 71.4664017646341 
! Gamma         0                0                0                0                
! Port Impedance         50               0                50               0                
4.5                            0.123132877540229 71.1459775697539 0.98406100244247 -14.9451701707297 0.984061002442469 -14.9451701707297 0.12312425812075 71.1997006113158 
! Gamma         0                0                0                0                
! Port Impedance         50               0                50               0                
4.6                            0.12573381499205 70.8754189346234 0.983681894802885 -15.2718790878998 0.983681894802884 -15.2718790878999 0.125724937446026 70.9303639690018 
! Gamma         0                0                0                0                
! Port Impedance         50               0                50               0                
4.7                            0.128327818817809 70.6024241209286 0.983296235150531 -15.5982997234507 0.983296235150531 -15.5982997234507 0.128318679897734 70.6585907446565 
! Gamma         0                0                0                0                
! Port Impedance         50               0                50               0                
4.8                            0.130914755907947 70.3271760442838 0.98290411325732 -15.9244272978929 0.982904113257319 -15.9244272978929 0.130905352328575 70.3845638807353 
! Gamma         0                0                0                0                
! Port Impedance         50               0                50               0                
4.9                            0.133494497088409 70.0498432226353 0.98250561978194 -16.2502571871706 0.982505619781939 -16.2502571871707 0.133484825529932 70.1084519196755 
! Gamma         0                0                0                0                
! Port Impedance         50               0                50               0                
5                              0.136066916944415 69.770581159324  0.982100846170585 -16.5757849170284 0.982100846170584 -16.5757849170284 0.136056974055581 69.8304103871337 
! Gamma         0                0                0                0                
! Port Impedance         50               0                50               0                
5.1                            0.138631893660814 69.4895335689222 0.981689884565718 -16.9010061578347 0.981689884565717 -16.9010061578347 0.138621676061973 69.5505830179806 
! Gamma         0                0                0                0                
! Port Impedance         50               0                50               0                
5.2                            0.141189308876823 69.2068334662952 0.981272827721903 -17.2259167198041 0.981272827721903 -17.2259167198041 0.141178813162922 69.269102845506  
! Gamma         0                0                0                0                
! Port Impedance         50               0                50               0                
5.3                            0.143739047553287 68.9226041363718 0.980849768927964 -17.550512548566 0.980849768927963 -17.550512548566 0.1437282702968  68.986093171318  
! Gamma         0                0                0                0                
! Port Impedance         50               0                50               0                
5.4                            0.146280997850857 68.636959999601  0.980420801934763 -17.8747897210388 0.980420801934762 -17.8747897210388 0.14626993560466 68.7016684309182 
! Gamma         0                0                0                0                
! Port Impedance         50               0                50               0                
5.5                            0.148815051017725 68.3500073859735 0.979986020888068 -18.1987444415715 0.979986020888067 -18.1987444415716 0.148803700317913 68.4159349678293 
! Gamma         0                0                0                0                
! Port Impedance         50               0                50               0                
5.6                            0.151341101285738 68.0618452287026 0.979545520265998 -18.5223730383229 0.979545520265997 -18.5223730383229 0.151329458654387 68.1289917273734 
! Gamma         0                0                0                0                
! Port Impedance         50               0                50               0                
5.7                            0.153859045773888 67.7725656871516 0.979099394820643 -18.8456719598502 0.979099394820642 -18.8456719598502 0.153847107721762 67.8409308796878 
! Gamma         0                0                0                0                
! Port Impedance         50               0                50               0                
5.8                            0.156368784398318 67.4822547073119 0.978647739523483 -19.1686377718867 0.978647739523482 -19.1686377718867 0.156356547427517 67.5518383802842 
! Gamma         0                0                0                0                
! Port Impedance         50               0                50               0                
5.9                            0.158870219788087 67.1909925270428 0.978190649514309 -19.4912671542861 0.978190649514308 -19.4912671542861 0.158857680394641 67.2617944753623 
! Gamma         0                0                0                0                
! Port Impedance         50               0                50               0                
6                              0.161363257206059 66.8988541323486 0.977728220053341 -19.813556898119 0.977728220053341 -19.813556898119 0.161350411882468 66.970874158155  
! Gamma         0                0                0                0                
! Port Impedance         50               0                50               0                
6.1                            0.163847804474369 66.6059096701673 0.977260546476323 -20.1355039029061 0.977260546476322 -20.1355039029061 0.16383464971208 66.679147581779  
! Gamma         0                0                0                0                
! Port Impedance         50               0                50               0                
6.2                            0.166323771903966 66.3122248224576 0.976787724152354 -20.4571051739758 0.976787724152354 -20.4571051739758 0.166310304195798 66.3866804333796 
! Gamma         0                0                0                0                
! Port Impedance         50               0                50               0                
6.3                            0.168791072227834 66.0178611457779 0.976309848444287 -20.7783578199352 0.976309848444287 -20.7783578199353 0.168777288070343 66.0935342737629 
! Gamma         0                0                0                0                
! Port Impedance         50               0                50               0                
6.4                            0.171249620537525 65.7228763800394 0.975827014671482 -21.0992590502462 0.975827014671482 -21.0992590502462 0.171235516433309 65.7997668461967 
! Gamma         0                0                0                0                
! Port Impedance         50               0                50               0                
6.5                            0.173699334222687 65.4273247296712 0.975339318074791 -21.4198061728965 0.97533931807479 -21.4198061728966 0.173684906682635 65.5054323576225 
! Gamma         0                0                0                0                
! Port Impedance         50               0                50               0                
6.6                            0.176140132913319 65.1312571200549 0.974846853783607 -21.7399965921617 0.974846853783607 -21.7399965921617 0.176125378458795 65.2105817351308 
! Gamma         0                0                0                0                
! Port Impedance         50               0                50               0                
6.7                            0.178571938424514 64.8347214317482 0.974349716784856 -22.0598278064478 0.974349716784856 -22.0598278064478 0.178556853589486 64.9152628602249 
! Gamma         0                0                0                0                
! Port Impedance         50               0                50               0                
6.8                            0.18099467470348 64.5377627147305 0.973848001893803 -22.3792974062137 0.973848001893803 -22.3792974062137 0.180979256036584 64.6195207831026 
! Gamma         0                0                0                0                
! Port Impedance         50               0                50               0                
6.9                            0.183408267778657 64.2404233846475 0.973341803726565 -22.6984030719643 0.973341803726564 -22.6984030719644 0.1833925118452  64.3233979189349 
! Gamma         0                0                0                0                
! Port Impedance         50               0                50               0                
7                              0.185812645710774 63.9427434028107 0.972831216674224 -23.0171425723134 0.972831216674224 -23.0171425723134 0.185796549094674 64.0269342278981 
! Gamma         0                0                0                0                
! Port Impedance         50               0                50               0                
7.1                            0.1882077385457  63.6447604415154 0.972316334878456 -23.3355137621099 0.972316334878455 -23.3355137621099 0.188191297851366 63.730167380521  
! Gamma         0                0                0                0                
! Port Impedance         50               0                50               0                
7.2                            0.190593478268969 63.3465100360676 0.971797252208559 -23.6535145806262 0.971797252208559 -23.6535145806262 0.190576690123117 63.4331329097409 
! Gamma         0                0                0                0                
! Port Impedance         50               0                50               0                
7.3                            0.192969798761869 63.0480257247631 0.971274062239834 -23.9711430498035 0.971274062239833 -23.9711430498035 0.192952659815274 63.1358643509088 
! Gamma         0                0                0                0                
! Port Impedance         50               0                50               0                
7.4                            0.195336635758993 62.7493391779286 0.970746858233205 -24.2883972725534 0.970746858233205 -24.2883972725534 0.195319142688177 62.8383933708564 
! Gamma         0                0                0                0                
! Port Impedance         50               0                50               0                
7.5                            0.19769392680717 62.4504803170196 0.970215733116037 -24.6052754311111 0.970215733116037 -24.6052754311111 0.197676076316029 62.5407498870166 
! Gamma         0                0                0                0                
! Port Impedance         50               0                50               0                
7.6                            0.200041611225696 62.1514774246651 0.969680779464055 -24.921775785439 0.969680779464055 -24.921775785439 0.200023400047062 62.2429621774924 
! Gamma         0                0                0                0                
! Port Impedance         50               0                50               0                
7.7                            0.202379630067794 61.8523572464615 0.969142089484324 -25.237896671679 0.969142089484324 -25.237896671679 0.202361054964934 61.945056982871  
! Gamma         0                0                0                0                
! Port Impedance         50               0                50               0                
7.8                            0.204707926083242 61.5531450852336 0.968599754999213 -25.5536365006497 0.968599754999213 -25.5536365006498 0.204688983851295 61.6470596005058 
! Gamma         0                0                0                0                
! Port Impedance         50               0                50               0                
7.9                            0.207026443682112 61.2538648884122 0.968053867431297 -25.8689937563888 0.968053867431297 -25.8689937563888 0.207007131149459 61.3489939719134 
! Gamma         0                0                0                0                
! Port Impedance         50               0                50               0                
8                              0.209335128899557 60.9545393291124 0.967504517789137 -26.1839669947364 0.967504517789137 -26.1839669947364 0.209315442929136 61.0508827638706 
! Gamma         0                0                0                0                
! Port Impedance         50               0                50               0                
8.1                            0.211633929361619 60.6551898814403 0.966951796653894 -26.4985548419602 0.966951796653894 -26.4985548419602 0.211613866852172 60.7527474437387 
! Gamma         0                0                0                0                
! Port Impedance         50               0                50               0                
8.2                            0.213922794251993 60.3558368905064 0.966395794166723 -26.8127559934192 0.966395794166723 -26.8127559934192 0.213902352139253 60.4546083494937 
! Gamma         0                0                0                0                
! Port Impedance         50               0                50               0                
8.3                            0.216201674279717 60.0564996375771 0.965836600016914 -27.126569212264 0.965836600016914 -27.126569212264 0.216180849537533 60.1564847548944 
! Gamma         0                0                0                0                
! Port Impedance         50               0                50               0                
8.4                            0.218470521647743 59.757196400756  0.96527430343072 -27.4399933281745 0.96527430343072 -27.4399933281745 0.218449311289151 59.8583949301791 
! Gamma         0                0                0                0                
! Port Impedance         50               0                50               0                
8.5                            0.220729290022368 59.4579445115522 0.96470899316086 -27.753027236131 0.96470899316086 -27.753027236131 0.220707691100591 59.560356198649  
! Gamma         0                0                0                0                
! Port Impedance         50               0                50               0                
8.6                            0.222977934503464 59.1587604076576 0.96414075747663 -28.0656698952193 0.96414075747663 -28.0656698952193 0.222955944112866 59.2623849894597 
! Gamma         0                0                0                0                
! Port Impedance         50               0                50               0                
8.7                            0.225216411595507 58.859659682228  0.963569684154615 -28.3779203274667 0.963569684154615 -28.3779203274667 0.225194026872481 58.9644968869162 
! Gamma         0                0                0                0                
! Port Impedance         50               0                50               0                
8.8                            0.227444679179349 58.5606571299364 0.96299586046995 -28.6897776167104 0.962995860469949 -28.6897776167104 0.227421897303151 58.6667066765394 
! Gamma         0                0                0                0                
! Port Impedance         50               0                50               0                
8.9                            0.22966269648472 58.2617667900427 0.962419373188109 -29.0012409074934 0.962419373188109 -29.0012409074934 0.229639514678248 58.3690283881487 
! Gamma         0                0                0                0                
! Port Impedance         50               0                50               0                
9                              0.231870424063427 57.9630019867033 0.961840308557201 -29.3123094039902 0.9618403085572  -29.3123094039902 0.231846839593942 58.0714753361837 
! Gamma         0                0                0                0                
! Port Impedance         50               0                50               0                
9.1                            0.23406782376322 57.6643753667254 0.961258752300721 -29.6229823689588 0.961258752300721 -29.6229823689588 0.234043833943018 57.7740601574703 
! Gamma         0                0                0                0                
! Port Impedance         50               0                50               0                
9.2                            0.236254858702309 57.3658989349517 0.960674789610767 -29.9332591227199 0.960674789610767 -29.9332591227199 0.236230460889335 57.476794846617  
! Gamma         0                0                0                0                
! Port Impedance         50               0                50               0                
9.3                            0.238431493244496 57.0675840874486 0.96008850514167 -30.2431390421599 0.960088505141669 -30.2431390421599 0.238406684842914 57.1796907892137 
! Gamma         0                0                0                0                
! Port Impedance         50               0                50               0                
9.4                            0.240597692974913 56.7694416426531 0.959499983004026 -30.5526215597588 0.959499983004026 -30.5526215597588 0.240572471435618 56.8827587929899 
! Gamma         0                0                0                0                
! Port Impedance         50               0                50               0                
9.5                            0.242753424676327 56.4714818706248 0.958909306759122 -30.8617061626414 0.958909306759122 -30.8617061626414 0.242727787497414 56.5860091170757 
! Gamma         0                0                0                0                
! Port Impedance         50               0                50               0                
9.6                            0.244898656306004 56.1737145205336 0.958316559413713 -31.1703923916502 0.958316559413713 -31.1703923916502 0.244872601033188 56.2894514995001 
! Gamma         0                0                0                0                
! Port Impedance         50               0                50               0                
9.7                            0.247033356973106 55.8761488465066 0.957721823415152 -31.47867984044  0.957721823415152 -31.47867984044  0.247006881200092 55.9930951830475 
! Gamma         0                0                0                0                
! Port Impedance         50               0                50               0                
9.8                            0.24915749691659 55.5787936319465 0.957125180646852 -31.7865681545924 0.957125180646851 -31.7865681545924 0.249130598285404 55.6969489395842 
! Gamma         0                0                0                0                
! Port Impedance         50               0                50               0                
9.9                            0.251271047483612 55.2816572124245 0.956526712424057 -32.0940570307512 0.956526712424057 -32.0940570307513 0.251243723684886 55.4010210929608 
! Gamma         0                0                0                0                
! Port Impedance         50               0                50               0                
10                             0.253373981108396 54.9847474972436 0.955926499489921 -32.4011462157752 0.955926499489921 -32.4011462157752 0.253346229881607 55.1053195405839 
! Gamma         0                0                0                0                
! Port Impedance         50               0                50               0                
10.1                           0.255466271291557 54.6880719897616 0.955324622011871 -32.7078355059098 0.955324622011871 -32.7078355059098 0.255438090425231 54.8098517737465 
! Gamma         0                0                0                0                
! Port Impedance         50               0                50               0                
10.2                           0.257547892579859 54.391637806554  0.954721159578243 -33.0141247459764 0.954721159578243 -33.0141247459764 0.257519279911733 54.5146248967994 
! Gamma         0                0                0                0                
! Port Impedance         50               0                50               0                
10.3                           0.259618820546398 54.0954516954937 0.954116191195189 -33.3200138285775 0.954116191195189 -33.3200138285775 0.259589773963543 54.2196456452379 
! Gamma         0                0                0                0                
! Port Impedance         50               0                50               0                
10.4                           0.261679031771177 53.7995200528169 0.953509795283836 -33.6255026933186 0.953509795283836 -33.6255026933186 0.261649549210084 53.9249204027749 
! Gamma         0                0                0                0                
! Port Impedance         50               0                50               0                
10.5                           0.263728503822075 53.5038489392405 0.952902049677683 -33.9305913260453 0.952902049677683 -33.9305913260453 0.263698583268707 53.6304552174652 
! Gamma         0                0                0                0                
! Port Impedance         50               0                50               0                
10.6                           0.265767215236173 53.2084440951903 0.952293031620241 -34.2352797580952 0.952293031620241 -34.2352797580952 0.265736854725984 53.3362558169404 
! Gamma         0                0                0                0                
! Port Impedance         50               0                50               0                
10.7                           0.26779514550145 52.913310955198  0.951682817762895 -34.5395680655636 0.951682817762895 -34.5395680655636 0.267764343119367 53.0423276228119 
! Gamma         0                0                0                0                
! Port Impedance         50               0                50               0                
10.8                           0.269812275038803 52.6184546615164 0.951071484162985 -34.8434563685837 0.951071484162985 -34.8434563685837 0.269781028919179 52.7486757642921 
! Gamma         0                0                0                0                
! Port Impedance         50               0                50               0                
10.9                           0.271818585184402 52.323880077003  0.950459106282101 -35.1469448306192 0.950459106282101 -35.1469448306192 0.27178689351094 52.4553050910844 
! Gamma         0                0                0                0                
! Port Impedance         50               0                50               0                
11                             0.273814058172352 52.0295917973167 0.949845758984575 -35.4500336577704 0.949845758984575 -35.4500336577704 0.273781919177998 52.1622201855843 
! Gamma         0                0                0                0                
! Port Impedance         50               0                50               0                
11.1                           0.275798677117649 51.7355941624683 0.94923151653618 -35.7527230980912 0.94923151653618 -35.7527230980912 0.27576608908446 51.8694253744364 
! Gamma         0                0                0                0                
! Port Impedance         50               0                50               0                
11.2                           0.277772425999435 51.4418912677659 0.948616452603015 -36.0550134409196 0.948616452603015 -36.0550134409196 0.277739387258415 51.5769247394837 
! Gamma         0                0                0                0                
! Port Impedance         50               0                50               0                
11.3                           0.279735289644509 51.14848697419   0.948000640250576 -36.3569050162183 0.948000640250576 -36.3569050162183 0.279701798575428 51.2847221281482 
! Gamma         0                0                0                0                
! Port Impedance         50               0                50               0                
11.4                           0.281687253711113 50.8553849182323 0.947384151943012 -36.6583981939263 0.947384151943011 -36.6583981939263 0.281653308742296 50.9928211632737 
! Gamma         0                0                0                0                
! Port Impedance         50               0                50               0                
11.5                           0.283628304672961 50.5625885212314 0.94676705954255 -36.9594933833225 0.946767059542551 -36.9594933833225 0.283593904281056 50.7012252524666 
! Gamma         0                0                0                0                
! Port Impedance         50               0                50               0                
11.6                           0.285558429803515 50.2701009982337 0.946149434309102 -37.2601910323975 0.946149434309103 -37.2601910323975 0.28552357251324 50.4099375969598 
! Gamma         0                0                0                0                
! Port Impedance         50               0                50               0                
11.7                           0.287477617160481 49.9779253664076 0.945531346900025 -37.5604916272373 0.945531346900025 -37.5604916272373 0.28744230154435 50.1189612000318 
! Gamma         0                0                0                0                
! Port Impedance         50               0                50               0                
11.8                           0.289385855570537 49.6860644530375 0.944912867370052 -37.8603956914154 0.944912867370053 -37.8603956914154 0.289350080248567 49.8282988750036 
! Gamma         0                0                0                0                
! Port Impedance         50               0                50               0                
11.9                           0.291283134614264 49.3945209031208 0.944294065171384 -38.1599037853949 0.944294065171384 -38.1599037853949 0.291246898253662 49.5379532528397 
! Gamma         0                0                0                0                
! Port Impedance         50               0                50               0                
12                             0.29316944461128 49.1032971865919 0.943675009153925 -38.4590165059395 0.943675009153925 -38.4590165059395 0.293132745926119 49.2479267893751 
! Gamma         0                0                0                0                
! Port Impedance         50               0                50               0                
12.1                           0.295044776605575 48.8123956051936 0.943055767565682 -38.7577344855334 0.943055767565682 -38.7577344855334 0.295007614356444 48.95822177219   
! Gamma         0                0                0                0                
! Port Impedance         50               0                50               0                
12.2                           0.296909122351026 48.5218182990169 0.942436408053301 -39.0560583918099 0.942436408053301 -39.0560583918099 0.29687149534467 48.6688403271519 
! Gamma         0                0                0                0                
! Port Impedance         50               0                50               0                
12.3                           0.298762474297089 48.2315672527264 0.941816997662752 -39.3539889269885 0.941816997662752 -39.3539889269885 0.298724381386041 48.3797844246443 
! Gamma         0                0                0                0                
! Port Impedance         50               0                50               0                
12.4                           0.300604825574675 47.9416443014902 0.941197602840155 -39.6515268273203 0.941197602840155 -39.6515268273203 0.300566265656861 48.0910558854994 
! Gamma         0                0                0                0                
! Port Impedance         50               0                50               0                
12.5                           0.30243616998218 47.6520511366314 0.940578289432741 -39.9486728625412 0.940578289432741 -39.9486728625412 0.302397142000523 47.8026563866508 
! Gamma         0                0                0                0                
! Port Impedance         50               0                50               0                
12.6                           0.304256501971677 47.3627893110141 0.939959122689949 -40.245427835333 0.939959122689949 -40.245427835333 0.304217004913685 47.5145874665229 
! Gamma         0                0                0                0                
! Port Impedance         50               0                50               0                
12.7                           0.306065816635268 47.0738602441821 0.939340167264655 -40.5417925807931 0.939340167264655 -40.5417925807931 0.306025849532611 47.2268505301707 
! Gamma         0                0                0                0                
! Port Impedance         50               0                50               0                
12.8                           0.307864109691579 46.7852652272603 0.938721487214523 -40.8377679659101 0.938721487214524 -40.8377679659101 0.307823671619658 46.939446854184  
! Gamma         0                0                0                0                
! Port Impedance         50               0                50               0                
12.9                           0.3096513774724  46.4970054276353 0.938103146003495 -41.1333548890491 0.938103146003495 -41.1333548890491 0.309610467549904 46.6523775913689 
! Gamma         0                0                0                0                
! Port Impedance         50               0                50               0                
13                             0.311427616909463 46.2090818934243 0.937485206503383 -41.4285542794422 0.937485206503383 -41.4285542794422 0.311386234297922 46.3656437752187 
! Gamma         0                0                0                0                
! Port Impedance         50               0                50               0                
13.1                           0.31319282552136 45.9214955577461 0.936867730995601 -41.7233670966877 0.936867730995601 -41.7233670966877 0.313150969424685 46.079246324186  
! Gamma         0                0                0                0                
! Port Impedance         50               0                50               0                
13.2                           0.314947001400584 45.6342472428027 0.936250781173004 -42.017794330256 0.936250781173004 -42.017794330256 0.314904671064603 45.7931860457663 
! Gamma         0                0                0                0                
! Port Impedance         50               0                50               0                
13.3                           0.316690143200701 45.3473376637844 0.935634418141835 -42.311836999002 0.935634418141835 -42.311836999002 0.31664733791269 45.5074636404033 
! Gamma         0                0                0                0                
! Port Impedance         50               0                50               0                
13.4                           0.318422250123651 45.060767432605  0.935018702423797 -42.6054961506857 0.935018702423797 -42.6054961506857 0.318378969211856 45.2220797052259 
! Gamma         0                0                0                0                
! Port Impedance         50               0                50               0                
13.5                           0.320143321907159 44.7745370614782 0.934403693958223 -42.8987728614985 0.934403693958223 -42.8987728614985 0.320099564740315 44.9370347376251 
! Gamma         0                0                0                0                
! Port Impedance         50               0                50               0                
13.6                           0.321853358812272 44.4886469663435 0.933789452104354 -43.1916682355968 0.933789452104355 -43.1916682355968 0.321809124799118 44.6523291386808 
! Gamma         0                0                0                0                
! Port Impedance         50               0                50               0                
13.7                           0.32355236161101 44.2030974701479 0.933176035643725 -43.4841834046425 0.933176035643725 -43.4841834046425 0.323507650199796 44.3679632164443 
! Gamma         0                0                0                0                
! Port Impedance         50               0                50               0                
13.8                           0.32524033157413 43.9178888059931 0.932563502782639 -43.7763195273497 0.932563502782639 -43.7763195273497 0.325195142252126 44.0839371890859 
! Gamma         0                0                0                0                
! Port Impedance         50               0                50               0                
13.9                           0.326917270458999 43.6330211201544 0.931951911154756 -44.0680777890389 0.931951911154756 -44.0680777890389 0.326871602751996 43.8002511879142 
! Gamma         0                0                0                0                
! Port Impedance         50               0                50               0                
14                             0.328583180497582 43.3484944749776 0.931341317823758 -44.3594594011964 0.931341317823758 -44.3594594011964 0.328537033969395 43.5169052602734 
! Gamma         0                0                0                0                
! Port Impedance         50               0                50               0                
14.1                           0.330238064384529 43.0643088516608 0.930731779286122 -44.6504656010419 0.930731779286122 -44.6504656010419 0.330191438636494 43.2338993723258 
! Gamma         0                0                0                0                
! Port Impedance         50               0                50               0                
14.2                           0.331881925265381 42.7804641529274 0.930123351473973 -44.941097651101 0.930123351473974 -44.941097651101 0.331834819935851 42.9512334117241 
! Gamma         0                0                0                0                
! Port Impedance         50               0                50               0                
14.3                           0.333514766724869 42.4969602055948 0.929516089758026 -45.2313568387854 0.929516089758026 -45.2313568387854 0.33346718148871 42.6689071901808 
! Gamma         0                0                0                0                
! Port Impedance         50               0                50               0                
14.4                           0.335136592775324 42.2137967630456 0.928910048950611 -45.5212444759786 0.928910048950611 -45.5212444759786 0.335088527343412 42.3869204459391 
! Gamma         0                0                0                0                
! Port Impedance         50               0                50               0                
14.5                           0.336747407845192 41.9309735076051 0.928305283308783 -45.8107618986287 0.928305283308784 -45.8107618986287 0.336698861963902 42.1052728461507 
! Gamma         0                0                0                0                
! Port Impedance         50               0                50               0                
14.6                           0.338347216767649 41.6484900528311 0.927701846537509 -46.0999104663469 0.92770184653751 -46.0999104663469 0.33829819021835 41.8239639891645 
! Gamma         0                0                0                0                
! Port Impedance         50               0                50               0                
14.7                           0.339936024769315 41.3663459457185 0.927099791792927 -46.3886915620128 0.927099791792927 -46.3886915620128 0.339886517367865 41.5429934067319 
! Gamma         0                0                0                0                
! Port Impedance         50               0                50               0                
14.8                           0.34151383745908 41.0845406688261 0.926499171685681 -46.6771065913855 0.926499171685682 -46.6771065913855 0.341463849055317 41.2623605661329 
! Gamma         0                0                0                0                
! Port Impedance         50               0                50               0                
14.9                           0.343080660817022 40.8030736423262 0.925900038284333 -46.9651569827216 0.925900038284333 -46.9651569827216 0.343030191294258 40.982064872225  
! Gamma         0                0                0                0                
! Port Impedance         50               0                50               0                
15                             0.344636501183435 40.5219442259836 0.92530244311883 -47.2528441863987 0.92530244311883 -47.2528441863987 0.34458555045795 40.702105669422  
! Gamma         0                0                0                0                
! Port Impedance         50               0                50               0                
15.1                           0.346181365247948 40.2411517210655 0.924706437184049 -47.5401696745456 0.924706437184049 -47.5401696745456 0.346129933268486 40.4224822436033 
! Gamma         0                0                0                0                
! Port Impedance         50               0                50               0                
15.2                           0.34771526003876 39.9606953721873 0.924112070943396 -47.8271349406785 0.924112070943396 -47.8271349406785 0.347663346786024 40.1431938239591 
! Gamma         0                0                0                0                
! Port Impedance         50               0                50               0                
15.3                           0.349238192911964 39.6805743690968 0.92351939433247 -48.1137414993431 0.92351939433247 -48.1137414993431 0.349185798398114 39.8642395847738 
! Gamma         0                0                0                0                
! Port Impedance         50               0                50               0                
15.4                           0.350750171540985 39.4007878483995 0.922928456762784 -48.3999908857634 0.922928456762784 -48.3999908857634 0.350697295809135 39.5856186471507 
! Gamma         0                0                0                0                
! Port Impedance         50               0                50               0                
15.5                           0.352251203906108 39.1213348952291 0.922339307125538 -48.6858846554958 0.922339307125538 -48.6858846554958 0.352197847029829 39.3073300806815 
! Gamma         0                0                0                0                
! Port Impedance         50               0                50               0                
15.6                           0.353741298284123 38.842214544864  0.921751993795449 -48.97142438409  0.92175199379545 -48.97142438409  0.353687460366941 39.0293729050623 
! Gamma         0                0                0                0                
! Port Impedance         50               0                50               0                
15.7                           0.355220463238064 38.5634257842951 0.921166564634628 -49.2566116667555 0.921166564634628 -49.2566116667555 0.355166144412964 38.75174609166   
! Gamma         0                0                0                0                
! Port Impedance         50               0                50               0                
15.8                           0.356688707607055 38.284967553744  0.920583066996504 -49.541448118034 0.920583066996504 -49.541448118034 0.356633908035988 38.47444856503   
! Gamma         0                0                0                0                
! Port Impedance         50               0                50               0                
15.9                           0.358146040496262 38.0068387481372 0.920001547729794 -49.8259353714785 0.920001547729794 -49.8259353714785 0.358090760369648 38.1974792043893 
! Gamma         0                0                0                0                
! Port Impedance         50               0                50               0                
16                             0.359592471266952 37.7290382185364 0.919422053182519 -50.110075079337 0.919422053182519 -50.110075079337 0.359536710803191 37.9208368450455 
! Gamma         0                0                0                0                
! Port Impedance         50               0                50               0                
16.1                           0.361028009526654 37.4515647735274 0.918844629206053 -50.3938689122438 0.918844629206054 -50.3938689122438 0.360971768971637 37.644520279785  
! Gamma         0                0                0                0                
! Port Impedance         50               0                50               0                
16.2                           0.362452665119433 37.1744171805702 0.918269321159216 -50.6773185589151 0.918269321159216 -50.6773185589151 0.36239594474605 37.3685282602215 
! Gamma         0                0                0                0                
! Port Impedance         50               0                50               0                
16.3                           0.363866448116264 36.8975941673113 0.917696173912398 -50.9604257258515 0.917696173912398 -50.9604257258515 0.363809248223923 37.0928594981076 
! Gamma         0                0                0                0                
! Port Impedance         50               0                50               0                
16.4                           0.365269368805526 36.6210944228606 0.917125231851718 -51.243192137046 0.917125231851718 -51.2431921370461 0.365211689719666 36.8175126666104 
! Gamma         0                0                0                0                
! Port Impedance         50               0                50               0                
16.5                           0.366661437683594 36.3449165990346 0.916556538883216 -51.5256195336979 0.916556538883216 -51.5256195336979 0.366603279755203 36.5424864015534 
! Gamma         0                0                0                0                
! Port Impedance         50               0                50               0                
16.6                           0.368042665445549 36.0690593115669 0.915990138437067 -51.8077096739317 0.915990138437068 -51.8077096739317 0.367984029050686 36.2677793026254 
! Gamma         0                0                0                0                
! Port Impedance         50               0                50               0                
16.7                           0.369413062975997 35.7935211412876 0.91542607347183 -52.0894643325231 0.91542607347183 -52.0894643325231 0.369353948515311 35.9933899345592 
! Gamma         0                0                0                0                
! Port Impedance         50               0                50               0                
16.8                           0.370772641340002 35.5183006352742 0.914864386478711 -52.3708853006295 0.914864386478711 -52.3708853006295 0.370713049238255 35.719316828281  
! Gamma         0                0                0                0                
! Port Impedance         50               0                50               0                
16.9                           0.372121411774127 35.2433963079735 0.914305119485855 -52.6519743855265 0.914305119485855 -52.6519743855265 0.372061342479722 35.4455584820305 
! Gamma         0                0                0                0                
! Port Impedance         50               0                50               0                
17                             0.373459385677595 34.9688066422971 0.913748314062658 -52.9327334103505 0.913748314062659 -52.9327334103505 0.373398839662098 35.1721133624557 
! Gamma         0                0                0                0                
! Port Impedance         50               0                50               0                
17.1                           0.374786574603561 34.6945300906915 0.913194011324091 -53.2131642138459 0.913194011324091 -53.2131642138459 0.374725552361236 34.898979905681  
! Gamma         0                0                0                0                
! Port Impedance         50               0                50               0                
17.2                           0.376102990250504 34.4205650761832 0.912642251935041 -53.4932686501188 0.912642251935041 -53.4932686501188 0.376041492297837 34.6261565183513 
! Gamma         0                0                0                0                
! Port Impedance         50               0                50               0                
17.3                           0.37740864445373 34.1469099934012 0.912093076114673 -53.7730485883956 0.912093076114672 -53.7730485883956 0.377346671328962 34.3536415786529 
! Gamma         0                0                0                0                
! Port Impedance         50               0                50               0                
17.4                           0.378703549176997 33.8735632095767 0.911546523640793 -54.0525059127869 0.911546523640793 -54.0525059127869 0.378641101439657 34.0814334373115 
! Gamma         0                0                0                0                
! Port Impedance         50               0                50               0                
17.5                           0.379987716504255 33.6005230655213 0.911002633854226 -54.3316425220577 0.911002633854226 -54.3316425220577 0.379924794734693 33.8095304185693 
! Gamma         0                0                0                0                
! Port Impedance         50               0                50               0                
17.6                           0.381261158631511 33.3277878765857 0.910461445663205 -54.610460329402 0.910461445663205 -54.610460329402 0.381197763430433 33.537930821142  
! Gamma         0                0                0                0                
! Port Impedance         50               0                50               0                
17.7                           0.382523887858805 33.0553559335976 0.909922997547753 -54.8889612622229 0.909922997547752 -54.8889612622229 0.382460019846809 33.2666329191552 
! Gamma         0                0                0                0                
! Port Impedance         50               0                50               0                
17.8                           0.383775916582315 32.7832255037825 0.909387327564086 -55.1671472619185 0.909387327564086 -55.1671472619185 0.383711576399428 32.9956349630632 
! Gamma         0                0                0                0                
! Port Impedance         50               0                50               0                
17.9                           0.385017257286579 32.5113948316646 0.908854473349009 -55.4450202836725 0.908854473349009 -55.4450202836725 0.384952445591795 32.7249351805495 
! Gamma         0                0                0                0                
! Port Impedance         50               0                50               0                
18                             0.386247922536845 32.2398621399531 0.90832447212431 -55.7225822962501 0.90832447212431 -55.7225822962501 0.38618264000766 32.4545317774101 
! Gamma         0                0                0                0                
! Port Impedance         50               0                50               0                
18.1                           0.387467924971534 31.9686256304095 0.907797360701158 -55.9998352817991 0.907797360701158 -55.9998352817991 0.387402172303486 32.1844229384205 
! Gamma         0                0                0                0                
! Port Impedance         50               0                50               0                
18.2                           0.388677277294836 31.6976834847013 0.907273175484497 -56.2767812356561 0.907273175484497 -56.2767812356561 0.388611055201046 31.9146068281865 
! Gamma         0                0                0                0                
! Port Impedance         50               0                50               0                
18.3                           0.389875992269429 31.4270338652392 0.906751952477437 -56.5534221661573 0.906751952477437 -56.5534221661573 0.389809301480136 31.6450815919811 
! Gamma         0                0                0                0                
! Port Impedance         50               0                50               0                
18.4                           0.391064082709319 31.1566749160006 0.906233727285633 -56.8297600944553 0.906233727285633 -56.8297600944553 0.390996923971421 31.3758453565654 
! Gamma         0                0                0                0                
! Port Impedance         50               0                50               0                
18.5                           0.392241561472811 30.8866047633391 0.905718535121666 -57.1057970543395 0.905718535121665 -57.1057970543395 0.392173935549404 31.1068962309968 
! Gamma         0                0                0                0                
! Port Impedance         50               0                50               0                
18.6                           0.3934084414556  30.6168215167801 0.905206410809403 -57.3815350920626 0.905206410809402 -57.3815350920626 0.393340349125516 30.8382323074234 
! Gamma         0                0                0                0                
! Port Impedance         50               0                50               0                
18.7                           0.394564735584001 30.3473232698048 0.90469738878836 -57.6569762661708 0.90469738878836 -57.6569762661708 0.394496177641343 30.5698516618653 
! Gamma         0                0                0                0                
! Port Impedance         50               0                50               0                
18.8                           0.39571045680829 30.0781081006206 0.904191503118044 -57.9321226473398 0.904191503118044 -57.9321226473398 0.395641434061974 30.3017523549842 
! Gamma         0                0                0                0                
! Port Impedance         50               0                50               0                
18.9                           0.396845618096189 29.8091740729204 0.903688787482283 -58.2069763182148 0.903688787482282 -58.2069763182148 0.396776131369478 30.0339324328408 
! Gamma         0                0                0                0                
! Port Impedance         50               0                50               0                
19                             0.397970232426467 29.5405192366304 0.903189275193543 -58.4815393732558 0.903189275193543 -58.4815393732557 0.397900282556505 29.7663899276408 
! Gamma         0                0                0                0                
! Port Impedance         50               0                50               0                
19.1                           0.399084312782682 29.2721416286469 0.902692999197231 -58.7558139185863 0.902692999197232 -58.7558139185862 0.399013900620031 29.4991228584703 
! Gamma         0                0                0                0                
! Port Impedance         50               0                50               0                
19.2                           0.400187872147042 29.0040392735628 0.902199992075981 -59.0298020718483 0.90219999207598 -59.0298020718483 0.400116998555213 29.2321292320199 
! Gamma         0                0                0                0                
! Port Impedance         50               0                50               0                
19.3                           0.401280923494403 28.7362101843832 0.90171028605391 -59.3035059620606 0.90171028605391 -59.3035059620606 0.401209589349386 28.9654070432997 
! Gamma         0                0                0                0                
! Port Impedance         50               0                50               0                
19.4                           0.402363479786393 28.4686523632325 0.901223913000878 -59.5769277294815 0.901223913000877 -59.5769277294815 0.40229168597619 28.6989542763436 
! Gamma         0                0                0                0                
! Port Impedance         50               0                50               0                
19.5                           0.403435553965672 28.2013638020508 0.900740904436703 -59.8500695254767 0.900740904436703 -59.8500695254767 0.403363301389821 28.4327689049048 
! Gamma         0                0                0                0                
! Port Impedance         50               0                50               0                
19.6                           0.404497158950316 27.934342483282  0.900261291535373 -60.122933512391 0.900261291535373 -60.122933512391 0.40442444851942 28.1668488931417 
! Gamma         0                0                0                0                
! Port Impedance         50               0                50               0                
19.7                           0.40554830762834 27.6675863805528 0.899785105129222 -60.395521863424 0.899785105129222 -60.395521863424 0.405475140263588 27.9011921962954 
! Gamma         0                0                0                0                
! Port Impedance         50               0                50               0                
19.8                           0.406589012852348 27.4010934593436 0.899312375713093 -60.6678367625111 0.899312375713093 -60.667836762511 0.406515389485035 27.6357967613585 
! Gamma         0                0                0                0                
! Port Impedance         50               0                50               0                
19.9                           0.407619287434316 27.1348616776504 0.898843133448468 -60.9398804042072 0.898843133448468 -60.9398804042072 0.407545209005363 27.3706605277362 
! Gamma         0                0                0                0                
! Port Impedance         50               0                50               0                
20                             0.408639144140505 26.86888898664   0.898377408167577 -61.2116549935761 0.898377408167577 -61.2116549935761 0.408564611599974 27.1057814278987 
! Gamma         -0               -0               -0               -0               
! Port Impedance         50               0                50               0                
