! Touchstone file exported from HFSS 2026.1.0
!        File:           C:/ffzhzh/LocalFiles/Ansys_Project_Files/temp_train_TMRDL_1156_1783162201_43440.aedt
!        Generated:      06:51:12 PM Jul  4, 2026
!        Design:         TMRDL
!        Project:        temp_train_TMRDL_1156_1783162201_43440
!
! Variables:
!        h_bsmrdl = 2um
!        h_ox = 20um
!        h_rdl = 5um
!        h_sub = 80um
!        h_tmrdl = 4.3um
!        h_tsv = 80um
!        h_via = 3um
!        l_bsmrdl = 300um
!        l_sub = 671.64um
!        l_tmrdl = 271.64um
!        m_sub = 200um
!        pitch = 41.07um
!        r_tsv = 6um
!        s_tmrdl = 10um
!        w_bsmrdl = 18um
!        w_sub = 500um
!        w_tmrdl = 11.27um
!        x_tsv_center1 = 277.275um
!        x_tsv_center2 = 595.275um
!        x_tsv_center3 = 878.185um
!        x_tsv_center4 = 1196.185um
!        x_tsv_center5 = 1479.095um
!        x_tsv_center6 = 1797.095um
!
# GHz S MA R 50.000000
! Terminal data exported
! Port[1] = TM_RDL1_1_T1
! Port[2] = TM_RDL1_1_T2
0.1                            0.00257171951620201 35.743692619754  0.997914763368614 -0.122040647428913 0.997914763368615 -0.122040647428914 0.00257171923505602 35.7436875009329 
! Gamma         0                0                0                0                
! Port Impedance         50               0                50               0                
0.2                            0.00365760337287541 54.3607153712758 0.997880340967592 -0.243402467160275 0.997880340967593 -0.243402467160267 0.00365793340181413 54.3618306038419 
! Gamma         0                0                0                0                
! Port Impedance         50               0                50               0                
0.3                            0.00493386285124215 63.8669755912298 0.997834524588933 -0.36380524190134 0.997834524588933 -0.363805241901315 0.00493432017751491 63.8640561463313 
! Gamma         0                0                0                0                
! Port Impedance         50               0                50               0                
0.4                            0.00628708959046326 69.3549407585563 0.997785750314124 -0.483356727655482 0.997785750314125 -0.483356727655439 0.00628741686113054 69.3503478231262 
! Gamma         0                0                0                0                
! Port Impedance         50               0                50               0                
0.5                            0.00767763019077504 72.8396290031875 0.997738305084862 -0.602313927472696 0.997738305084863 -0.60231392747264 0.00767775683636051 72.8350618025027 
! Gamma         0                0                0                0                
! Port Impedance         50               0                50               0                
0.6                            0.00908801943816905 75.2078500772593 0.997693306718737 -0.720911967008012 0.997693306718738 -0.720911967007949 0.00908795973444049 75.2039602311459 
! Gamma         0                0                0                0                
! Port Impedance         50               0                50               0                
0.7                            0.0105095153266327 76.8989588116141 0.997650334627195 -0.839313001780139 0.997650334627197 -0.839313001780074 0.0105093095187665 76.895893124476  
! Gamma         0                0                0                0                
! Port Impedance         50               0                50               0                
0.8                            0.0119373787092762 78.152004400814  0.997608479727882 -0.957614240467524 0.997608479727884 -0.95761424046746 0.011937070107089 78.1497096493167 
! Gamma         0                0                0                0                
! Port Impedance         50               0                50               0                
0.9                            0.0133689020762904 79.1069209314473 0.997566819440929 -1.07586892430099 0.997566819440932 -1.07586892430093 0.0133685289116032 79.1052780643745 
! Gamma         0                0                0                0                
! Port Impedance         50               0                50               0                
1                              0.0148024845300561 79.8505072370803 0.997524576889813 -1.19410377092131 0.997524576889815 -1.19410377092125 0.0148020775967655 79.8493871826101 
! Gamma         0                0                0                0                
! Port Impedance         50               0                50               0                
1.1                            0.0162371576873742 80.4391815107485 0.997481145723936 -1.31233040704731 0.997481145723938 -1.31233040704727 0.0162367403148462 80.4384669321013 
! Gamma         0                0                0                0                
! Port Impedance         50               0                50               0                
1.2                            0.0176723259107425 80.9110577080543 0.997436069048767 -1.43055218325092 0.997436069048769 -1.43055218325088 0.0176719148577148 80.9106499549698 
! Gamma         0                0                0                0                
! Port Impedance         50               0                50               0                
1.3                            0.0191076169843214 81.2927349147136 0.997389008489339 -1.54876806299659 0.997389008489341 -1.54876806299656 0.0191072236228209 81.2925546092477 
! Gamma         0                0                0                0                
! Port Impedance         50               0                50               0                
1.4                            0.0205427935060686 81.6033014330076 0.997339715819845 -1.66697479409565 0.997339715819848 -1.66697479409562 0.0205424250021701 81.6032864986464 
! Gamma         0                0                0                0                
! Port Impedance         50               0                50               0                
1.5                            0.0219776993168407 81.8567929169674 0.997288010260369 -1.78516810468411 0.997288010260372 -1.78516810468409 0.02197735967849 81.8568957977399 
! Gamma         0                0                0                0                
! Port Impedance         50               0                50               0                
1.6                            0.0234122268376289 82.0637537190324 0.997233761291902 -1.90334335300209 0.997233761291905 -1.90334335300208 0.0234119177842536 82.063938574853  
! Gamma         0                0                0                0                
! Port Impedance         50               0                50               0                
1.7                            0.0248462971488314 82.2322581171344 0.997176875954676 -2.02149587318675 0.997176875954678 -2.02149587318675 0.0248460188009341 82.2324983205495 
! Gamma         0                0                0                0                
! Port Impedance         50               0                50               0                
1.8                            0.0262798479229756 82.3685955898258 0.997117289539472 -2.13962115252532 0.997117289539475 -2.13962115252532 0.026279599330431 82.3688716270678 
! Gamma         0                0                0                0                
! Port Impedance         50               0                50               0                
1.9                            0.027712826216436 82.4777412130338 0.997054958767223 -2.25771491578725 0.997054958767225 -2.25771491578725 0.0277126057518349 82.4780389886579 
! Gamma         0                0                0                0                
! Port Impedance         50               0                50               0                
2                              0.0291451842611848 82.5636852068119 0.996989856769312 -2.37577315889705 0.996989856769315 -2.37577315889706 0.0291449899052701 82.5639947074704 
! Gamma         0                0                0                0                
! Port Impedance         50               0                50               0                
2.1                            0.0305768770952123 82.6296681206355 0.996921969366017 -2.49379215558639 0.99692196936602 -2.49379215558641 0.0305767066388224 82.6299823797236 
! Gamma         0                0                0                0                
! Port Impedance         50               0                50               0                
2.2                            0.0320078613052927 82.6783515470811 0.996851292282204 -2.61176845022431 0.996851292282207 -2.61176845022433 0.0320077124883358 82.6786658523997 
! Gamma         0                0                0                0                
! Port Impedance         50               0                50               0                
2.3                            0.0334380944292385 82.711943989722  0.996777829042846 -2.72969884414687 0.996777829042849 -2.7296988441469 0.0334379650331757 82.7122552827855 
! Gamma         0                0                0                0                
! Port Impedance         50               0                50               0                
2.4                            0.0348675347372173 82.7322950184946 0.996701589364837 -2.8475803794872 0.996701589364839 -2.84758037948723 0.0348674226438615 82.7326014424958 
! Gamma         0                0                0                0                
! Port Impedance         50               0                50               0                
2.5                            0.0362961412203487 82.7409666546143 0.996622587913909 -2.96541032262981 0.996622587913912 -2.96541032262984 0.0362960444467022 82.7412672163528 
! Gamma         0                0                0                0                
! Port Impedance         50               0                50               0                
2.6                            0.037723873683034 82.7392881714539 0.996540843332386 -3.08318614835595 0.996540843332389 -3.08318614835599 0.0377237903994034 82.7395824898814 
! Gamma         0                0                0                0                
! Port Impedance         50               0                50               0                
2.7                            0.0391506928780526 82.728398655312  0.996456377469621 -3.20090552515723 0.996456377469623 -3.20090552515728 0.0391506214147486 82.7286867754881 
! Gamma         0                0                0                0                
! Port Impedance         50               0                50               0                
2.8                            0.040576560649799 82.7092804188768 0.996369214765536 -3.31856630187213 0.996369214765539 -3.31856630187217 0.0405764994962554 82.7095626750726 
! Gamma         0                0                0                0                
! Port Impedance         50               0                50               0                
2.9                            0.0420014400671177 82.6827854982934 0.996279381750912 -3.43616649563087 0.996279381750914 -3.43616649563092 0.0420013878661668 82.6830624138784 
! Gamma         0                0                0                0                
! Port Impedance         50               0                50               0                
3                              0.0434252955368405 82.6496568629282 0.996186906637568 -3.55370428101116 0.99618690663757 -3.55370428101121 0.0434252510760688 82.6499290776911 
! Gamma         0                0                0                0                
! Port Impedance         50               0                50               0                
3.1                            0.04484809289476 82.6105455413314 0.996091818978488 -3.67117798027281 0.996091818978491 -3.67117798027286 0.0448480550962767 82.6108137591976 
! Gamma         0                0                0                0                
! Port Impedance         50               0                50               0                
3.2                            0.0462697994739328 82.5660245622871 0.995994149382932 -3.78858605453185 0.995994149382934 -3.7885860545319 0.0462697673834596 82.566289514154  
! Gamma         0                0                0                0                
! Port Impedance         50               0                50               0                
3.3                            0.0476903841518591 82.5166003893296 0.995893929275234 -3.9059270957404 0.995893929275236 -3.90592709574046 0.0476903569277409 82.5168628070683 
! Gamma         0                0                0                0                
! Port Impedance         50               0                50               0                
3.4                            0.0491098173788397 82.4627223657264 0.995791190688739 -4.02319981935138 0.995791190688741 -4.02319981935144 0.0491097942813644 82.4629829643981 
! Gamma         0                0                0                0                
! Port Impedance         50               0                50               0                
3.5                            0.050528071190052 82.404790567615  0.995685966088294 -4.14040305756189 0.995685966088296 -4.14040305756195 0.0505280515713154 82.4050500337026 
! Gamma         0                0                0                0                
! Port Impedance         50               0                50               0                
3.6                            0.0519451192038394 82.3431623738925 0.995578288216242 -4.25753575304458 0.995578288216244 -4.25753575304464 0.0519451024982857 82.3434213579085 
! Gamma         0                0                0                0                
! Port Impedance         50               0                50               0                
3.7                            0.053360936608514 82.2781579943174 0.995468189957992 -4.37459695309055 0.995468189957994 -4.37459695309061 0.0533609223242147 82.2784171065713 
! Gamma         0                0                0                0                
! Port Impedance         50               0                50               0                
3.8                            0.0547755001397188 82.2100651462342 0.995355704224088 -4.49158580410022 0.99535570422409 -4.49158580410028 0.0547754878504042 82.2103249548571 
! Gamma         0                0                0                0                
! Port Impedance         50               0                50               0                
3.9                            0.0561887880501286 82.1391430311903 0.995240863846351 -4.60850154637011 0.995240863846352 -4.60850154637016 0.0561887773879549 82.1394040617487 
! Gamma         0                0                0                0                
! Port Impedance         50               0                50               0                
4                              0.0576007800730069 82.0656257324564 0.995123701486165 -4.725343509133  0.995123701486166 -4.72534350913306 0.0576007707220259 82.0658884686632 
! Gamma         0                0                0                0                
! Port Impedance         50               0                50               0                
4.1                            0.0590114573809033 81.9897251309005 0.995004249553359 -4.84211110581745 0.99500424955336 -4.84211110581751 0.0590114490711885 81.9899900160619 
! Gamma         0                0                0                0                
! Port Impedance         50               0                50               0                
4.2                            0.0604208025405711 81.9116334181791 0.994882540134421 -4.9588038294993 0.994882540134422 -4.95880382949936 0.0604207950429507 81.9119008571132 
! Gamma         0                0                0                0                
! Port Impedance         50               0                50               0                
4.3                            0.0618287994650049 81.8315252716059 0.994758604929017 -5.0754212485238 0.994758604929018 -5.07542124852386 0.0618287925863488 81.8317956328413 
! Gamma         0                0                0                0                
! Port Impedance         50               0                50               0                
4.4                            0.0632354333633494 81.7495597434514 0.994632475193953 -5.19196300228167 0.994632475193954 -5.19196300228173 0.0632354269423596 81.7498333615692 
! Gamma         0                0                0                0                
! Port Impedance         50               0                50               0                
4.5                            0.064640690689304 81.6658819081373 0.994504181693874 -5.30842879712611 0.994504181693875 -5.30842879712617 0.0646406845927601 81.6661590861583 
! Gamma         0                0                0                0                
! Port Impedance         50               0                50               0                
4.6                            0.0660445590885443 81.5806243033182 0.994373754658067 -5.42481840242118 0.994373754658069 -5.42481840242123 0.0660445532079574 81.5809053150677 
! Gamma         0                0                0                0                
! Port Impedance         50               0                50               0                
4.7                            0.0674470273455926 81.493908194794  0.994241223742865 -5.54113164671433 0.994241223742866 -5.54113164671438 0.0674470215942249 81.4941932871975 
! Gamma         0                0                0                0                
! Port Impedance         50               0                50               0                
4.8                            0.0688480853304992 81.4058446902758 0.994106617999164 -5.6573684140278 0.994106617999165 -5.65736841402785 0.0688480796407122 81.4061340855569 
! Gamma         0                0                0                0                
! Port Impedance         50               0                50               0                
4.9                            0.0702477239456356 81.3165357230097 0.99396996584467 -5.77352864026532 0.993969965844671 -5.77352864026537 0.0702477182665299 81.3168296207696 
! Gamma         0                0                0                0                
! Port Impedance         50               0                50               0                
5                              0.0716459350728533 81.2260749229536 0.993831295040494 -5.88961230973158 0.993831295040495 -5.88961230973163 0.0716459293681698 81.2263735021246 
! Gamma         0                0                0                0                
! Port Impedance         50               0                50               0                
5.1                            0.0730427115212184 81.1345483904785 0.993690632671775 -6.00561945176292 0.993690632671776 -6.00561945176297 0.0730427057674714 81.1348518111447 
! Gamma         0                0                0                0                
! Port Impedance         50               0                50               0                
5.2                            0.0744380469754991 81.0420353853039 0.993548005132016 -6.1215501374683 0.993548005132017 -6.12155013746835 0.0744380411603175 81.0423437903923 
! Gamma         0                0                0                0                
! Port Impedance         50               0                50               0                
5.3                            0.0758319359455577 80.9486089414974 0.99340343811087 -6.23740447658001 0.99340343811087 -6.23740447658005 0.0758319300662088 80.9489224583392 
! Gamma         0                0                0                0                
! Port Impedance         50               0                50               0                
5.4                            0.0772243737167665 80.8543364177938 0.993256956585098 -6.35318261441393 0.993256956585099 -6.35318261441398 0.0772243677788459 80.8546551595638 
! Gamma         0                0                0                0                
! Port Impedance         50               0                50               0                
5.5                            0.0786153563015577 80.7592799911755 0.993108584812482 -6.46888472893931 0.993108584812483 -6.46888472893936 0.0786153503178237 80.7596040582136 
! Gamma         0                0                0                0                
! Port Impedance         50               0                50               0                
5.6                            0.0800048803921883 80.6634971005419 0.992958346328428 -6.58451102795782 0.992958346328429 -6.58451102795787 0.0800048743815276 80.6638265815649 
! Gamma         0                0                0                0                
! Port Impedance         50               0                50               0                
5.7                            0.0813929433147949 80.5670408463611 0.992806263945086 -6.70006174639207 0.992806263945087 -6.70006174639211 0.0813929373013042 80.5673758195712 
! Gamma         0                0                0                0                
! Port Impedance         50               0                50               0                
5.8                            0.0827795429847958 80.4699603514036 0.992652359752749 -6.81553714368314 0.99265235975275 -6.81553714368318 0.0827795369969664 80.4703008855014 
! Gamma         0                0                0                0                
! Port Impedance         50               0                50               0                
5.9                            0.0841646778636854 80.3723010869812 0.992496655123358 -6.930937501297  0.992496655123358 -6.93093750129704 0.0841646719336804 80.3726472420896 
! Gamma         0                0                0                0                
! Port Impedance         50               0                50               0                
6                              0.0855483469172594 80.2741051685395 0.992339170715923 -7.04626312033916 0.992339170715923 -7.04626312033919 0.0855483410802733 80.2744569970465 
! Gamma         0                0                0                0                
! Port Impedance         50               0                50               0                
6.1                            0.0869305495752969 80.1754116239628 0.992179926483688 -7.16151431927679 0.992179926483689 -7.16151431927683 0.0869305438689888 80.1757691712883 
! Gamma         0                0                0                0                
! Port Impedance         50               0                50               0                
6.2                            0.0883112856927194 80.0762566375237 0.992018941682877 -7.27669143176762 0.992018941682878 -7.27669143176765 0.0883112801567113 80.0766199428185 
! Gamma         0                0                0                0                
! Port Impedance         50               0                50               0                
6.3                            0.0896905555122379 79.9766737720538 0.991856234882857 -7.39179480459407 0.991856234882857 -7.3917948045941 0.0896905501876722 79.9770428688335 
! Gamma         0                0                0                0                
! Port Impedance         50               0                50               0                
6.4                            0.0910683596284945 79.8766941715918 0.991691823977582 -7.50682479570162 0.991691823977582 -7.50682479570165 0.0910683545576441 79.8770690883149 
! Gamma         0                0                0                0                
! Port Impedance         50               0                50               0                
6.5                            0.0924446989536981 79.7763467465025 0.99152572619817 -7.62178177233954 0.991525726198171 -7.62178177233957 0.0924446941796223 79.7767275070941 
! Gamma         0                0                0                0                
! Port Impedance         50               0                50               0                
6.6                            0.0938195746847474 79.6756583428218 0.991357958126484 -7.73666610930234 0.991357958126485 -7.73666610930236 0.0938195702509913 79.6760449671498 
! Gamma         0                0                0                0                
! Port Impedance         50               0                50               0                
6.7                            0.095192988271833 79.574653897381  0.991188535709585 -7.85147818726986 0.991188535709585 -7.85147818726989 0.0951929842221631 79.5750464016884 
! Gamma         0                0                0                0                
! Port Impedance         50               0                50               0                
6.8                            0.0965649413885014 79.4733565800884 0.991017474274953 -7.96621839124398 0.991017474274954 -7.96621839124401 0.0965649377666757 79.4737549773846 
! Gamma         0                0                0                0                
! Port Impedance         50               0                50               0                
6.9                            0.097935435903165 79.3717879245898 0.990844788546357 -8.0808871090794 0.990844788546357 -8.08088710907942 0.0979354327527323 79.3721922250067 
! Gamma         0                0                0                0                
! Port Impedance         50               0                50               0                
7                              0.0993044738520333 79.2699679483982 0.990670492660265 -8.19548473010622 0.990670492660266 -8.19548473010624 0.0993044712161603 79.2703781595117 
! Gamma         0                0                0                0                
! Port Impedance         50               0                50               0                
7.1                            0.100672057413443 79.1679152634606 0.990494600182715 -8.31001164384171 0.990494600182716 -8.31001164384174 0.100672055334765 79.1683313905828 
! Gamma         0                0                0                0                
! Port Impedance         50               0                50               0                
7.2                            0.102038188883558 79.0656471780318 0.990317124126538 -8.42446823878843 0.990317124126538 -8.42446823878845 0.102038187404051 79.0660692244751 
! Gamma         0                0                0                0                
! Port Impedance         50               0                50               0                
7.3                            0.103402870653408 78.9631797906293 0.990138076968859 -8.53885490131605 0.99013807696886 -8.53885490131607 0.103402869814279 78.9636077579453 
! Gamma         0                0                0                0                
! Port Impedance         50               0                50               0                
7.4                            0.104766105187234 78.8605280767668 0.989957470668803 -8.653172014624  0.989957470668804 -8.65317201462402 0.104766105028832 78.8609619649628 
! Gamma         0                0                0                0                
! Port Impedance         50               0                50               0                
7.5                            0.106127895002112 78.7577059690907 0.98977531668532 -8.76741995778194 0.989775316685321 -8.76741995778196 0.10612789556385 78.758145776825  
! Gamma         0                0                0                0                
! Port Impedance         50               0                50               0                
7.6                            0.107488242648808 78.6547264314829 0.989591625995079 -8.88159910484522 0.98959162599508 -8.88159910484523 0.107488243969104 78.6551721562414 
! Gamma         0                0                0                0                
! Port Impedance         50               0                50               0                
7.7                            0.108847150693841 78.5516015276384 0.989406409110357 -8.9957098240422 0.989406409110358 -8.99570982404222 0.108847152810062 78.5520531658939 
! Gamma         0                0                0                0                
! Port Impedance         50               0                50               0                
7.8                            0.110204621702701 78.4483424845737 0.989219676096878 -9.10975247703063 0.989219676096878 -9.10975247703064 0.110204624651129 78.4488000319298 
! Gamma         0                0                0                0                
! Port Impedance         50               0                50               0                
7.9                            0.111560658224202 78.3449597514832 0.989031436591544 -9.22372741821989 0.989031436591544 -9.2237274182199 0.111560662040004 78.3454232028036 
! Gamma         0                0                0                0                
! Port Impedance         50               0                50               0                
8                              0.112915262775915 78.2414630543176 0.98884169982002 -9.33763499415629 0.98884169982002 -9.3376349941563 0.11291526749312 78.2419324038427 
! Gamma         0                0                0                0                
! Port Impedance         50               0                50               0                
8.1                            0.114268437830645 78.1378614464262 0.988650474614121 -9.45147554296833 0.988650474614122 -9.45147554296834 0.114268443482131 78.1383366878777 
! Gamma         0                0                0                0                
! Port Impedance         50               0                50               0                
8.2                            0.115620185803923 78.0341633555716 0.98845776942898 -9.56524939386919 0.98845776942898 -9.5652493938692 0.115620192421413 78.034644482247  
! Gamma         0                0                0                0                
! Port Impedance         50               0                50               0                
8.3                            0.116970509042454 77.9303766276017 0.988263592359942 -9.67895686671334 0.988263592359942 -9.67895686671335 0.116970516656512 77.9308636324581 
! Gamma         0                0                0                0                
! Port Impedance         50               0                50               0                
8.4                            0.118319409813504 77.8265085670322 0.988067951159182 -9.79259827160465 0.988067951159182 -9.79259827160466 0.118319418453542 77.8270014427623 
! Gamma         0                0                0                0                
! Port Impedance         50               0                50               0                
8.5                            0.119666890295163 77.7225659747782 0.987870853251994 -9.90617390855316 0.987870853251995 -9.90617390855317 0.11966689998945 77.7230647138776 
! Gamma         0                0                0                0                
! Port Impedance         50               0                50               0                
8.6                            0.121012952567468 77.618555183247  0.987672305752754 -10.0196840671778 0.987672305752754 -10.0196840671778 0.121012963343141 77.6190597780743 
! Gamma         0                0                0                0                
! Port Impedance         50               0                50               0                
8.7                            0.122357598604326 77.5144820889891 0.987472315480511 -10.1331290264524 0.987472315480511 -10.1331290264524 0.12235761048741 77.5149925318198 
! Gamma         0                0                0                0                
! Port Impedance         50               0                50               0                
8.8                            0.123700830266221 77.4103521830882 0.987270888974222 -10.2465090544927 0.987270888974223 -10.2465090544927 0.123700843281645 77.4108684661619 
! Gamma         0                0                0                0                
! Port Impedance         50               0                50               0                
8.9                            0.125042649293642 77.3061705794543 0.987068032507586 -10.3598244083813 0.987068032507586 -10.3598244083813 0.125042663465264 77.3066926950171 
! Gamma         0                0                0                0                
! Port Impedance         50               0                50               0                
9                              0.126383057301222 77.2019420411725 0.986863752103483 -10.4730753340289 0.986863752103483 -10.4730753340289 0.126383072651854 77.202469981514  
! Gamma         0                0                0                0                
! Port Impedance         50               0                50               0                
9.1                            0.127722055772535 77.0976710050465 0.986658053548013 -10.5862620660691 0.986658053548014 -10.5862620660691 0.127722072323964 77.0982047625327 
! Gamma         0                0                0                0                
! Port Impedance         50               0                50               0                
9.2                            0.129059646055519 76.9933616044653 0.986450942404112 -10.699384827784 0.986450942404112 -10.699384827784 0.129059663828541 76.9939011715672 
! Gamma         0                0                0                0                
! Port Impedance         50               0                50               0                
9.3                            0.130395829358494 76.8890176907129 0.986242424024754 -10.8124438310602 0.986242424024754 -10.8124438310602 0.13039584837294 76.8895630600313 
! Gamma         0                0                0                0                
! Port Impedance         50               0                50               0                
9.4                            0.131730606746749 76.784642852828  0.986032503565734 -10.9254392763709 0.986032503565734 -10.9254392763709 0.131730627021514 76.7851940171153 
! Gamma         0                0                0                0                
! Port Impedance         50               0                50               0                
9.5                            0.133063979139644 76.6802404361164 0.985821185998025 -11.0383713527838 0.985821185998025 -11.0383713527838 0.13306400069272 76.6807973882953 
! Gamma         0                0                0                0                
! Port Impedance         50               0                50               0                
9.6                            0.134395947308221 76.5758135594094 0.985608476119713 -11.1512402379921 0.985608476119713 -11.1512402379921 0.134395970156728 76.5763762925885 
! Gamma         0                0                0                0                
! Port Impedance         50               0                50               0                
9.7                            0.135726511873283 76.4713651311534 0.985394378567511 -11.2640460983673 0.985394378567511 -11.2640460983673 0.135726536033498 76.471933638641  
! Gamma         0                0                0                0                
! Port Impedance         50               0                50               0                
9.8                            0.137055673303907 76.3668978644116 0.985178897827861 -11.3767890890314 0.985178897827862 -11.3767890890314 0.1370556987913  76.3674721397269 
! Gamma         0                0                0                0                
! Port Impedance         50               0                50               0                
9.9                            0.138383431916372 76.2624142908517 0.984962038247611 -11.489469353948 0.98496203824761 -11.489469353948 0.138383458745636 76.262994327734  
! Gamma         0                0                0                0                
! Port Impedance         50               0                50               0                
10                             0.139709787873475 76.1579167737885 0.984743804044287 -11.6020870260294 0.984743804044287 -11.6020870260294 0.139709816058557 76.1585025662049 
! Gamma         0                0                0                0                
! Port Impedance         50               0                50               0                
10.1                           0.141034741184199 76.0534075203447 0.984524199315967 -11.7146422272592 0.984524199315967 -11.7146422272592 0.141034770738334 76.0539990624956 
! Gamma         0                0                0                0                
! Port Impedance         50               0                50               0                
10.2                           0.142358291703727 75.9488885927891 0.98430322805075 -11.8271350688289 0.98430322805075 -11.8271350688289 0.142358322639469 75.9494858791132 
! Gamma         0                0                0                0                
! Port Impedance         50               0                50               0                
10.3                           0.143680439133755 75.8443619191086 0.984080894135835 -11.9395656512863 0.984080894135834 -11.9395656512863 0.143680471463008 75.8449649442855 
! Gamma         0                0                0                0                
! Port Impedance         50               0                50               0                
10.4                           0.145001183023105 75.7398293028632 0.983857201366217 -12.0519340646961 0.983857201366217 -12.0519340646961 0.145001216757155 75.7404380618158 
! Gamma         0                0                0                0                
! Port Impedance         50               0                50               0                
10.5                           0.146320522768597 75.6352924323731 0.983632153453014 -12.1642403888098 0.983632153453014 -12.1642403888098 0.146320557918142 75.6359069202685 
! Gamma         0                0                0                0                
! Port Impedance         50               0                50               0                
10.6                           0.147638457616174 75.5307528892816 0.983405754031419 -12.276484693245 0.983405754031419 -12.276484693245 0.147638494191353 75.5313731015313 
! Gamma         0                0                0                0                
! Port Impedance         50               0                50               0                
10.7                           0.148954986662251 75.4262121565356 0.983178006668298 -12.3886670376728 0.983178006668298 -12.3886670376728 0.148955024672676 75.4268380887945 
! Gamma         0                0                0                0                
! Port Impedance         50               0                50               0                
10.8                           0.150270108855274 75.3216716258214 0.98294891486944 -12.5007874720113 0.982948914869439 -12.5007874720113 0.150270148310056 75.3223032739869 
! Gamma         0                0                0                0                
! Port Impedance         50               0                50               0                
10.9                           0.151583822997471 75.2171326044926 0.982718482086463 -12.6128460366266 0.982718482086463 -12.6128460366265 0.151583863905251 75.2177699647019 
! Gamma         0                0                0                0                
! Port Impedance         50               0                50               0                
11                             0.152896127746776 75.1125963220228 0.982486711723399 -12.7248427625373 0.982486711723399 -12.7248427625373 0.152896170115752 75.113239390651  
! Gamma         0                0                0                0                
! Port Impedance         50               0                50               0                
11.1                           0.154207021618913 75.008063936015  0.98225360714295 -12.8367776716253 0.982253607142949 -12.8367776716253 0.154207065456866 75.0087127096715 
! Gamma         0                0                0                0                
! Port Impedance         50               0                50               0                
11.2                           0.155516502989625 74.903536537796  0.982019171672433 -12.9486507768486 0.982019171672433 -12.9486507768486 0.155516548303945 74.9041910133213 
! Gamma         0                0                0                0                
! Port Impedance         50               0                50               0                
11.3                           0.156824570097028 74.7990151576242 0.981783408609433 -13.0604620824581 0.981783408609433 -13.0604620824581 0.156824616894743 74.799675332086  
! Gamma         0                0                0                0                
! Port Impedance         50               0                50               0                
11.4                           0.158131221044088 74.6945007695345 0.981546321227155 -13.1722115842165 0.981546321227155 -13.1722115842165 0.158131269331885 74.6951666402237 
! Gamma         0                0                0                0                
! Port Impedance         50               0                50               0                
11.5                           0.159436453801195 74.5899942958466 0.981307912779496 -13.2838992696189 0.981307912779496 -13.2838992696189 0.159436503585447 74.5906658602727 
! Gamma         0                0                0                0                
! Port Impedance         50               0                50               0                
11.6                           0.160740266208834 74.4854966113555 0.981068186505852 -13.3955251181142 0.981068186505852 -13.3955251181142 0.160740317495622 74.4861738672421 
! Gamma         0                0                0                0                
! Port Impedance         50               0                50               0                
11.7                           0.162042655980333 74.381008547228  0.980827145635651 -13.5070891013285 0.980827145635651 -13.5070891013285 0.162042708775471 74.3816914925084 
! Gamma         0                0                0                0                
! Port Impedance         50               0                50               0                
11.8                           0.163343620704686 74.2765308946234 0.980584793392642 -13.618591183287 0.980584793392642 -13.618591183287 0.163343675013739 74.2772195274349 
! Gamma         0                0                0                0                
! Port Impedance         50               0                50               0                
11.9                           0.164643157849427 74.1720644080553 0.980341132998935 -13.7300313206369 0.980341132998935 -13.7300313206369 0.164643213677736 74.172758726735  
! Gamma         0                0                0                0                
! Port Impedance         50               0                50               0                
12                             0.165941264763568 74.0676098085143 0.980096167678809 -13.8414094628694 0.980096167678809 -13.8414094628694 0.16594132211627 74.0683098115934 
! Gamma         0                0                0                0                
! Port Impedance         50               0                50               0                
12.1                           0.167237938680567 73.9631677863639 0.97984990066229 -13.9527255525405 0.979849900662289 -13.9527255525404 0.167237997562616 73.9638734725631 
! Gamma         0                0                0                0                
! Port Impedance         50               0                50               0                
12.2                           0.168533176721343 73.8587390040282 0.979602335188514 -14.0639795254905 0.979602335188514 -14.0639795254905 0.168533237137526 73.859450372252  
! Gamma         0                0                0                0                
! Port Impedance         50               0                50               0                
12.3                           0.169826975897303 73.7543240984814 0.979353474508885 -14.1751713110627 0.979353474508885 -14.1751713110627 0.169827037852264 73.7550411478133 
! Gamma         0                0                0                0                
! Port Impedance         50               0                50               0                
12.4                           0.171119333113406 73.6499236835559 0.979103321890026 -14.2863008323187 0.979103321890026 -14.2863008323187 0.171119396611658 73.650646413253  
! Gamma         0                0                0                0                
! Port Impedance         50               0                50               0                
12.5                           0.172410245171226 73.5455383520781 0.978851880616541 -14.3973680062531 0.97885188061654 -14.3973680062531 0.172410310217173 73.5462667615659 
! Gamma         0                0                0                0                
! Port Impedance         50               0                50               0                
12.6                           0.173699708772031 73.4411686778445 0.978599153993593 -14.5083727440051 0.978599153993593 -14.5083727440051 0.173699775369983 73.4419027667119 
! Gamma         0                0                0                0                
! Port Impedance         50               0                50               0                
12.7                           0.174987720519861 73.3368152174492 0.978345145349308 -14.6193149510673 0.978345145349308 -14.6193149510673 0.174987788674053 73.3375549854435 
! Gamma         0                0                0                0                
! Port Impedance         50               0                50               0                
12.8                           0.176274276924607 73.2324785119721 0.978089858037004 -14.7301945274925 0.978089858037004 -14.7301945274925 0.176274346639209 73.2332239589937 
! Gamma         0                0                0                0                
! Port Impedance         50               0                50               0                
12.9                           0.177559374405073 73.1281590885368 0.977833295437265 -14.8410113680971 0.977833295437264 -14.8410113680971 0.177559445684209 73.1289102146343 
! Gamma         0                0                0                0                
! Port Impedance         50               0                50               0                
13                             0.178843009292033 73.0238574617481 0.977575460959854 -14.9517653626616 0.977575460959853 -14.9517653626615 0.178843082139797 73.0246142671136 
! Gamma         0                0                0                0                
! Port Impedance         50               0                50               0                
13.1                           0.180125177831275 72.9195741350156 0.977316358045487 -15.0624563961277 0.977316358045486 -15.0624563961277 0.180125252251741 72.9203366199797 
! Gamma         0                0                0                0                
! Port Impedance         50               0                50               0                
13.2                           0.181405876186614 72.8153096017733 0.977055990167459 -15.1730843487931 0.977055990167458 -15.173084348793 0.18140595218385 72.8160777668002 
! Gamma         0                0                0                0                
! Port Impedance         50               0                50               0                
13.3                           0.18268510044289 72.7110643465993 0.976794360833135 -15.2836490965012 0.976794360833134 -15.2836490965012 0.182685178020975 72.7118381922827 
! Gamma         0                0                0                0                
! Port Impedance         50               0                50               0                
13.4                           0.183962846608938 72.6068388462459 0.976531473585322 -15.3941505108294 0.976531473585321 -15.3941505108293 0.18396292577197 72.6076183733038 
! Gamma         0                0                0                0                
! Port Impedance         50               0                50               0                
13.5                           0.18523911062053 72.5026335705826 0.976267332003507 -15.5045884592721 0.976267332003506 -15.5045884592721 0.185239191372637 72.5034187798535 
! Gamma         0                0                0                0                
! Port Impedance         50               0                50               0                
13.6                           0.186513888343277 72.3984489834614 0.976001939704985 -15.6149628054215 0.976001939704984 -15.6149628054215 0.186513970688635 72.3992398758995 
! Gamma         0                0                0                0                
! Port Impedance         50               0                50               0                
13.7                           0.187787175575513 72.2942855435074 0.97573530034588 -15.7252734091441 0.975735300345879 -15.725273409144 0.18778725951835 72.2950821201782 
! Gamma         0                0                0                0                
! Port Impedance         50               0                50               0                
13.8                           0.189058968051125 72.1901437048401 0.975467417622048 -15.8355201267535 0.975467417622047 -15.8355201267534 0.189059053595735 72.190945966917  
! Gamma         0                0                0                0                
! Port Impedance         50               0                50               0                
13.9                           0.19032926144236 72.0860239177321 0.975198295269895 -15.9457028111802 0.975198295269894 -15.9457028111802 0.190329348593112 72.0868318664917 
! Gamma         0                0                0                0                
! Port Impedance         50               0                50               0                
14                             0.191598051362582 71.9819266292075 0.974927937067089 -16.0558213121372 0.974927937067088 -16.0558213121371 0.19159814012393 71.9827402660257 
! Gamma         0                0                0                0                
! Port Impedance         50               0                50               0                
14.1                           0.192865333368996 71.8778522835847 0.974656346833186 -16.1658754762818 0.974656346833185 -16.1658754762817 0.192865423745488 71.8786716099333 
! Gamma         0                0                0                0                
! Port Impedance         50               0                50               0                
14.2                           0.194131102965323 71.7738013229689 0.974383528430167 -16.2758651473745 0.974383528430166 -16.2758651473744 0.194131194961612 71.7746263404116 
! Gamma         0                0                0                0                
! Port Impedance         50               0                50               0                
14.3                           0.195395355604438 71.6697741876961 0.9741094857629  -16.3857901664334 0.974109485762899 -16.3857901664334 0.195395449225287 71.6706048978849 
! Gamma         0                0                0                0                
! Port Impedance         50               0                50               0                
14.4                           0.196658086690962 71.5657713167333 0.973834222779518 -16.4956503718856 0.973834222779517 -16.4956503718856 0.196658181941253 71.5666077214048 
! Gamma         0                0                0                0                
! Port Impedance         50               0                50               0                
14.5                           0.197919291583802 71.4617931480372 0.973557743471726 -16.6054455997144 0.973557743471725 -16.6054455997144 0.197919388468548 71.4626352490096 
! Gamma         0                0                0                0                
! Port Impedance         50               0                50               0                
14.6                           0.19917896559866 71.357840118876  0.973280051875043 -16.7151756836037 0.973280051875041 -16.7151756836037 0.199179064123008 71.3586879180455 
! Gamma         0                0                0                0                
! Port Impedance         50               0                50               0                
14.7                           0.200437104010484 71.2539126661143 0.973001152068969 -16.8248404550778 0.973001152068968 -16.8248404550778 0.200437204179721 71.254766165452  
! Gamma         0                0                0                0                
! Port Impedance         50               0                50               0                
14.8                           0.201693702055873 71.1500112264671 0.972721048177104 -16.9344397436387 0.972721048177103 -16.9344397436387 0.201693803875439 71.150870428016  
! Gamma         0                0                0                0                
! Port Impedance         50               0                50               0                
14.9                           0.202948754935446 71.0461362367226 0.972439744367196 -17.0439733768993 0.972439744367194 -17.0439733768993 0.202948858410934 71.0470011425943 
! Gamma         0                0                0                0                
! Port Impedance         50               0                50               0                
15                             0.204202257816149 70.9422881339377 0.972157244851137 -17.1534411807132 0.972157244851135 -17.1534411807131 0.204202362953317 70.9431587463098 
! Gamma         0                0                0                0                
! Port Impedance         50               0                50               0                
15.1                           0.205454205833528 70.8384673556074 0.971873553884913 -17.2628429793012 0.971873553884912 -17.2628429793012 0.205454312638301 70.8393436767204 
! Gamma         0                0                0                0                
! Port Impedance         50               0                50               0                
15.2                           0.20670459409395 70.7346743398107 0.971588675768502 -17.3721785953748 0.971588675768501 -17.3721785953747 0.206704702572426 70.7355563719655 
! Gamma         0                0                0                0                
! Port Impedance         50               0                50               0                
15.3                           0.20795341767677 70.6309095253348 0.971302614845718 -17.4814478502554 0.971302614845716 -17.4814478502554 0.207953527835229 70.6317972708899 
! Gamma         0                0                0                0                
! Port Impedance         50               0                50               0                
15.4                           0.209200671636467 70.5271733517788 0.971015375504024 -17.5906505639916 0.971015375504023 -17.5906505639915 0.209200783481373 70.5280668131479 
! Gamma         0                0                0                0                
! Port Impedance         50               0                50               0                
15.5                           0.210446351004717 70.4234662596391 0.970726962174297 -17.6997865554717 0.970726962174296 -17.6997865554716 0.210446464542723 70.4243654392886 
! Gamma         0                0                0                0                
! Port Impedance         50               0                50               0                
15.6                           0.211690450792429 70.3197886903783 0.970437379330558 -17.8088556425347 0.970437379330557 -17.8088556425347 0.211690566030384 70.3206935908247 
! Gamma         0                0                0                0                
! Port Impedance         50               0                50               0                
15.7                           0.212932965991737 70.2161410864773 0.970146631489661 -17.917857642077 0.97014663148966 -17.917857642077 0.212933082936689 70.2170517102853 
! Gamma         0                0                0                0                
! Port Impedance         50               0                50               0                
15.8                           0.214173891577934 70.1125238914745 0.969854723210956 -18.0267923701564 0.969854723210955 -18.0267923701564 0.214174010237136 70.1134402412545 
! Gamma         0                0                0                0                
! Port Impedance         50               0                50               0                
15.9                           0.215413222511374 70.008937549991  0.969561659095913 -18.1356596420934 0.969561659095912 -18.1356596420933 0.215413342892286 70.009859628397  
! Gamma         0                0                0                0                
! Port Impedance         50               0                50               0                
16                             0.216650953739325 69.9053825077445 0.969267443787724 -18.244459272569 0.969267443787723 -18.2444592725689 0.21665107584962 69.9063103174719 
! Gamma         0                0                0                0                
! Port Impedance         50               0                50               0                
16.1                           0.217887080197772 69.8018592115518 0.968972081970872 -18.3531910757204 0.968972081970871 -18.3531910757204 0.217887204045339 69.8027927553359 
! Gamma         0                0                0                0                
! Port Impedance         50               0                50               0                
16.2                           0.219121596813183 69.698368109322  0.968675578370676 -18.4618548652331 0.968675578370675 -18.461854865233 0.21912172240613 69.6993073899355 
! Gamma         0                0                0                0                
! Port Impedance         50               0                50               0                
16.3                           0.220354498504229 69.5949096500404 0.968377937752814 -18.5704504544305 0.968377937752812 -18.5704504544305 0.220354625850888 69.5958546702918 
! Gamma         0                0                0                0                
! Port Impedance         50               0                50               0                
16.4                           0.221585780183461 69.4914842837444 0.968079164922822 -18.6789776563613 0.96807916492282 -18.6789776563613 0.221585909292392 69.4924350464761 
! Gamma         0                0                0                0                
! Port Impedance         50               0                50               0                
16.5                           0.222815436758946 69.3880924614919 0.967779264725573 -18.7874362838835 0.967779264725572 -18.7874362838834 0.222815567638937 69.3890489695788 
! Gamma         0                0                0                0                
! Port Impedance         50               0                50               0                
16.6                           0.22404346313586 69.2847346353237 0.967478242044741 -18.8958261497459 0.967478242044739 -18.8958261497459 0.224043595795933 69.2856968916712 
! Gamma         0                0                0                0                
! Port Impedance         50               0                50               0                
16.7                           0.22526985421804 69.1814112582197 0.967176101802238 -19.0041470666681 0.967176101802237 -19.004147066668 0.225269988667454 69.1823792657621 
! Gamma         0                0                0                0                
! Port Impedance         50               0                50               0                
16.8                           0.226494604909497 69.0781227840491 0.966872848957648 -19.1123988474163 0.966872848957647 -19.1123988474162 0.226494741157749 69.0790965457484 
! Gamma         0                0                0                0                
! Port Impedance         50               0                50               0                
16.9                           0.227717710115891 68.9748696675177 0.966568488507634 -19.2205813048784 0.966568488507633 -19.2205813048783 0.227717848172719 68.9758491863616 
! Gamma         0                0                0                0                
! Port Impedance         50               0                50               0                
17                             0.228939164745958 68.8716523641091 0.96626302548534 -19.3286942521354 0.966263025485339 -19.3286942521354 0.228939304621345 68.87263764311   
! Gamma         0                0                0                0                
! Port Impedance         50               0                50               0                
17.1                           0.230158963712914 68.7684713300238 0.965956464959777 -19.4367375025315 0.965956464959776 -19.4367375025314 0.230159105417089 68.7694623722172 
! Gamma         0                0                0                0                
! Port Impedance         50               0                50               0                
17.2                           0.231377101935804 68.6653270221144 0.9656488120352  -19.5447108697409 0.965648812035198 -19.5447108697409 0.231377245479247 68.6663238305577 
! Gamma         0                0                0                0                
! Port Impedance         50               0                50               0                
17.3                           0.232593574340829 68.5622198978182 0.96534007185047 -19.6526141678338 0.965340071850469 -19.6526141678337 0.232593719734269 68.5632224755893 
! Gamma         0                0                0                0                
! Port Impedance         50               0                50               0                
17.4                           0.233808375862629 68.4591504150875 0.965030249578418 -19.7604472113386 0.965030249578417 -19.7604472113385 0.233808523117049 68.4601587652837 
! Gamma         0                0                0                0                
! Port Impedance         50               0                50               0                
17.5                           0.235021501445527 68.3561190323182 0.964719350425185 -19.8682098153036 0.964719350425184 -19.8682098153036 0.235021650572166 68.3571331580548 
! Gamma         0                0                0                0                
! Port Impedance         50               0                50               0                
17.6                           0.23623294604475 68.2531262082762 0.964407379629569 -19.9759017953555 0.964407379629568 -19.9759017953555 0.236233097055105 68.2541461126856 
! Gamma         0                0                0                0                
! Port Impedance         50               0                50               0                
17.7                           0.237442704627602 68.1501724020231 0.96409434246236 -20.0835229677564 0.964094342462359 -20.0835229677563 0.237442857533428 68.1511980882537 
! Gamma         0                0                0                0                
! Port Impedance         50               0                50               0                
17.8                           0.238650772174614 68.0472580728407 0.963780244225666 -20.1910731494587 0.963780244225665 -20.1910731494587 0.238650926987928 68.0482895440555 
! Gamma         0                0                0                0                
! Port Impedance         50               0                50               0                
17.9                           0.239857143680655 67.9443836801544 0.963465090252242 -20.2985521581586 0.963465090252241 -20.2985521581585 0.239857300413737 67.9454209395303 
! Gamma         0                0                0                0                
! Port Impedance         50               0                50               0                
18                             0.241061814156012 67.8415496834565 0.96314888590481 -20.4059598123467 0.963148885904809 -20.4059598123467 0.241061972821406 67.8425927341833 
! Gamma         0                0                0                0                
! Port Impedance         50               0                50               0                
18.1                           0.242264778627441 67.7387565422289 0.962831636575377 -20.5132959313582 0.962831636575376 -20.5132959313582 0.242264939237958 67.7398053875084 
! Gamma         0                0                0                0                
! Port Impedance         50               0                50               0                
18.2                           0.243466032139185 67.6360047158662 0.962513347684548 -20.6205603354199 0.962513347684547 -20.6205603354199 0.243466194707903 67.6370593589111 
! Gamma         0                0                0                0                
! Port Impedance         50               0                50               0                
18.3                           0.24466556975396 67.5332946635982 0.962194024680841 -20.7277528456967 0.962194024680841 -20.7277528456967 0.244665734294225 67.5343551076312 
! Gamma         0                0                0                0                
! Port Impedance         50               0                50               0                
18.4                           0.245863386553914 67.4306268444131 0.961873673040001 -20.8348732843357 0.961873673040001 -20.8348732843357 0.245863553079344 67.4316930926664 
! Gamma         0                0                0                0                
! Port Impedance         50               0                50               0                
18.5                           0.247059477641557 67.3280017169809 0.961552298264307 -20.9419214745089 0.961552298264306 -20.9419214745089 0.247059646166042 67.3290737726951 
! Gamma         0                0                0                0                
! Port Impedance         50               0                50               0                
18.6                           0.248253838140664 67.2254197395777 0.961229905881882 -21.0488972404547 0.961229905881881 -21.0488972404546 0.248254008678365 67.2264976060011 
! Gamma         0                0                0                0                
! Port Impedance         50               0                50               0                
18.7                           0.249446463197141 67.1228813700101 0.960906501446008 -21.1558004075168 0.960906501446007 -21.1558004075167 0.249446635762497 67.123965050398  
! Gamma         0                0                0                0                
! Port Impedance         50               0                50               0                
18.8                           0.250637347979883 67.020387065541  0.960582090534435 -21.2626308021831 0.960582090534435 -21.2626308021831 0.250637522587603 67.0214765631549 
! Gamma         0                0                0                0                
! Port Impedance         50               0                50               0                
18.9                           0.25182648768158 66.9179372828158 0.960256678748694 -21.3693882521221 0.960256678748693 -21.369388252122 0.251826664346654 66.9190326009227 
! Gamma         0                0                0                0                
! Port Impedance         50               0                50               0                
19                             0.253013877519523 66.8155324777895 0.959930271713406 -21.4760725862177 0.959930271713405 -21.4760725862177 0.253014056257216 66.8166336196613 
! Gamma         0                0                0                0                
! Port Impedance         50               0                50               0                
19.1                           0.254199512736364 66.7131731056557 0.959602875075605 -21.5826836346038 0.959602875075604 -21.5826836346038 0.254199693562221 66.7142800745687 
! Gamma         0                0                0                0                
! Port Impedance         50               0                50               0                
19.2                           0.255383388600864 66.6108596207755 0.959274494504051 -21.6892212286964 0.959274494504051 -21.6892212286964 0.255383571530709 66.6119724200095 
! Gamma         0                0                0                0                
! Port Impedance         50               0                50               0                
19.3                           0.256565500408613 66.5085924766089 0.958945135688551 -21.7956852012249 0.958945135688551 -21.7956852012249 0.256565685458549 66.5097111094467 
! Gamma         0                0                0                0                
! Port Impedance         50               0                50               0                
19.4                           0.257745843482724 66.406372125646  0.958614804339282 -21.9020753862622 0.958614804339282 -21.9020753862622 0.257746030669137 66.4074965953728 
! Gamma         0                0                0                0                
! Port Impedance         50               0                50               0                
19.5                           0.258924413174507 66.3041990193407 0.958283506186118 -22.0083916192533 0.958283506186118 -22.0083916192533 0.258924602514063 66.3053293292439 
! Gamma         0                0                0                0                
! Port Impedance         50               0                50               0                
19.6                           0.260101204864118 66.2020736080455 0.957951246977958 -22.114633737043 0.957951246977958 -22.114633737043 0.260101396373769 66.2032097614136 
! Gamma         0                0                0                0                
! Port Impedance         50               0                50               0                
19.7                           0.261276213961191 66.0999963409467 0.95761803248206 -22.220801577902 0.95761803248206 -22.220801577902 0.26127640765817 66.1011383410694 
! Gamma         0                0                0                0                
! Port Impedance         50               0                50               0                
19.8                           0.262449435905443 65.9979676660028 0.95728386848338 -22.3268949815525 0.957283868483379 -22.3268949815525 0.262449631807269 65.9991155161698 
! Gamma         0                0                0                0                
! Port Impedance         50               0                50               0                
19.9                           0.263620866167261 65.8959880298823 0.956948760783907 -22.4329137891922 0.956948760783907 -22.4329137891921 0.263621064291737 65.8971417333834 
! Gamma         0                0                0                0                
! Port Impedance         50               0                50               0                
20                             0.264790500248266 65.7940578779045 0.956612715202017 -22.538857843517 0.956612715202016 -22.538857843517 0.264790700613481 65.7952174380291 
! Gamma         -0               -0               -0               -0               
! Port Impedance         50               0                50               0                
