! Touchstone file exported from HFSS 2026.1.0
!        File:           C:/ffzhzh/LocalFiles/Ansys_Project_Files/temp_train_TMRDL_1041_1783160213_22436.aedt
!        Generated:      06:18:21 PM Jul  4, 2026
!        Design:         TMRDL
!        Project:        temp_train_TMRDL_1041_1783160213_22436
!
! Variables:
!        h_bsmrdl = 2um
!        h_ox = 20um
!        h_rdl = 5um
!        h_sub = 80um
!        h_tmrdl = 5.83um
!        h_tsv = 80um
!        h_via = 3um
!        l_bsmrdl = 300um
!        l_sub = 1109.58um
!        l_tmrdl = 709.58um
!        m_sub = 200um
!        pitch = 54.46um
!        r_tsv = 6um
!        s_tmrdl = 10um
!        w_bsmrdl = 18um
!        w_sub = 500um
!        w_tmrdl = 21.81um
!        x_tsv_center1 = 720.485um
!        x_tsv_center2 = 1038.485um
!        x_tsv_center3 = 1769.875um
!        x_tsv_center4 = 2087.875um
!        x_tsv_center5 = 2819.265um
!        x_tsv_center6 = 3137.265um
!
# GHz S MA R 50.000000
! Terminal data exported
! Port[1] = TM_RDL1_1_T1
! Port[2] = TM_RDL1_1_T2
0.1                            0.00365371151639253 54.0830807472586 0.997866575666415 -0.276209447958812 0.997866575666414 -0.276209447958809 0.00365370548896022 54.0832108029798 
! Gamma         0                0                0                0                
! Port Impedance         50               0                50               0                
0.2                            0.00626355025352858 68.2433683850085 0.997715513972   -0.54579615710032 0.997715513971999 -0.545796157099881 0.00626357357145922 68.2439072334786 
! Gamma         0                0                0                0                
! Port Impedance         50               0                50               0                
0.3                            0.00895883174413586 73.7369450706055 0.997586536456409 -0.811465641334607 0.997586536456413 -0.811465641333923 0.00895889040931271 73.7374786640601 
! Gamma         0                0                0                0                
! Port Impedance         50               0                50               0                
0.4                            0.0116684099886174 76.6640819670837 0.997480914886994 -1.07604319567122 0.997480914887004 -1.07604319567053 0.0116684797187815 76.6646234754832 
! Gamma         0                0                0                0                
! Port Impedance         50               0                50               0                
0.5                            0.0143896456083093 78.4569626133581 0.997384234083058 -1.3404806729437 0.997384234083072 -1.34048067294311 0.0143897088806995 78.4575929878172 
! Gamma         0                0                0                0                
! Port Impedance         50               0                50               0                
0.6                            0.0171209863389821 79.6277094427386 0.99728685129171 -1.60497475601525 0.997286851291727 -1.6049747560148 0.0171210347606869 79.6284846261525 
! Gamma         0                0                0                0                
! Port Impedance         50               0                50               0                
0.7                            0.0198597353375365 80.415439865279  0.997183588155989 -1.86951294459875 0.997183588156006 -1.86951294459843 0.0198597657542442 80.4163902370869 
! Gamma         0                0                0                0                
! Port Impedance         50               0                50               0                
0.8                            0.0226032079173784 80.9501220286812 0.997071765204937 -2.13403717446378 0.997071765204955 -2.13403717446359 0.0226032196976547 80.9512626389812 
! Gamma         0                0                0                0                
! Port Impedance         50               0                50               0                
0.9                            0.025349146061402 81.3092187527601 0.996950017147985 -2.39848716981048 0.996950017148004 -2.39848716981041 0.0253491397121543 81.3105564509994 
! Gamma         0                0                0                0                
! Port Impedance         50               0                50               0                
1                              0.0280957475068457 81.5418903108779 0.996817684801965 -2.66281034528681 0.996817684801983 -2.66281034528685 0.0280957240195448 81.5434277002441 
! Gamma         0                0                0                0                
! Port Impedance         50               0                50               0                
1.1                            0.0308415893254625 81.6808351958009 0.996674504727213 -2.92696282293047 0.996674504727232 -2.92696282293061 0.0308415498733646 81.6825727110802 
! Gamma         0                0                0                0                
! Port Impedance         50               0                50               0                
1.2                            0.0335855426701161 81.7486287279274 0.996520445268985 -3.19090836971908 0.996520445269003 -3.19090836971929 0.0335854884689307 81.7505657181206 
! Gamma         0                0                0                0                
! Port Impedance         50               0                50               0                
1.3                            0.0363267030488239 81.7613429327009 0.996355615783116 -3.45461709263438 0.996355615783133 -3.45461709263466 0.0363266352932828 81.7634782277617 
! Gamma         0                0                0                0                
! Port Impedance         50               0                50               0                
1.4                            0.039064338187279 81.7307194209357 0.996180213759252 -3.71806432705263 0.996180213759269 -3.71806432705297 0.039064258023037 81.7330516301276 
! Gamma         0                0                0                0                
! Port Impedance         50               0                50               0                
1.5                            0.0417978501039069 81.6655274747437 0.995994492392557 -3.98122976848099 0.995994492392573 -3.98122976848139 0.0417977586158501 81.6680551436972 
! Gamma         0                0                0                0                
! Port Impedance         50               0                50               0                
1.6                            0.0445267475746129 81.5724421612438 0.995798739674754 -4.24409680487722 0.995798739674769 -4.24409680487766 0.0445266457826918 81.5751638536589 
! Gamma         0                0                0                0                
! Port Impedance         50               0                50               0                
1.7                            0.0472506259161138 81.4566289038752 0.995593264269602 -4.50665199636785 0.995593264269616 -4.50665199636833 0.0472505147745344 81.4595432426218 
! Gamma         0                0                0                0                
! Port Impedance         50               0                50               0                
1.8                            0.0499691518626177 81.3221426867288 0.995378385573388 -4.76888465890206 0.995378385573401 -4.76888465890256 0.0499690322604677 81.3252483729553 
! Gamma         0                0                0                0                
! Port Impedance         50               0                50               0                
1.9                            0.0526820519875056 81.172206895812  0.995154426484556 -5.03078652040738 0.995154426484567 -5.03078652040791 0.0526819247499635 81.1755027161627 
! Gamma         0                0                0                0                
! Port Impedance         50               0                50               0                
2                              0.0553891036102238 81.0094120612099 0.994921708015946 -5.29235142790887 0.994921708015957 -5.29235142790941 0.0553889695000061 81.0128968886921 
! Gamma         0                0                0                0                
! Port Impedance         50               0                50               0                
2.1                            0.0580901274671782 80.8358601137809 0.994680545222702 -5.55357509129533 0.994680545222712 -5.55357509129588 0.05808998718611 80.8395329053369 
! Gamma         0                0                0                0                
! Port Impedance         50               0                50               0                
2.2                            0.0607849816561952 80.6532708411776 0.99443124411276 -5.81445485442211 0.994431244112768 -5.81445485442266 0.0607848358468924 80.6571306336481 
! Gamma         0                0                0                0                
! Port Impedance         50               0                50               0                
2.3                            0.063473556520486 80.4630616452824 0.994174099320067 -6.07498948760757 0.994174099320075 -6.07498948760813 0.0634734057681677 80.4671075506824 
! Gamma         0                0                0                0                
! Port Impedance         50               0                50               0                
2.4                            0.0661557702438351 80.2664081316983 0.993909392388121 -6.335178997797  0.993909392388128 -6.33517899779754 0.0661556150782915 80.2706393323009 
! Gamma         0                0                0                0                
! Port Impedance         50               0                50               0                
2.5                            0.0688315650003125 80.0642907294097 0.993637390552614 -6.59502445409184 0.99363739055262 -6.59502445409238 0.0688314058980441 80.0687064728946 
! Gamma         0                0                0                0                
! Port Impedance         50               0                50               0                
2.6                            0.0715009035502187 79.8575309864768 0.993358345937825 -6.85452782723064 0.99335834593783 -6.85452782723117 0.0715007409367521 79.8621305812675 
! Gamma         0                0                0                0                
! Port Impedance         50               0                50               0                
2.7                            0.0741637662066686 79.6468201367807 0.993072495098126 -7.11369184213629 0.993072495098131 -7.1136918421368 0.0741636004590413 79.6516029476216 
! Gamma         0                0                0                0                
! Port Impedance         50               0                50               0                
2.8                            0.0768201481192213 79.4327418101809 0.992780058847469 -7.37251984293712 0.992780058847473 -7.37251984293762 0.076819979568618 79.4377072539704 
! Gamma         0                0                0                0                
! Port Impedance         50               0                50               0                
2.9                            0.0794700568356856 79.2157902542581 0.992481242327934 -7.63101567000933 0.992481242327938 -7.6310156700098 0.079469885770201 79.2209377961314 
! Gamma         0                0                0                0                
! Port Impedance         50               0                50               0                
3                              0.0821135101129941 78.9963850793167 0.992176235274772 -7.88918354863418 0.992176235274776 -7.88918354863463 0.0821133367804936 79.001714228966  
! Gamma         0                0                0                0                
! Port Impedance         50               0                50               0                
3.1                            0.0847505339544542 78.7748832831132 0.991865212440591 -8.14702798885449 0.991865212440594 -8.14702798885492 0.0847503585654991 78.7803935913307 
! Gamma         0                0                0                0                
! Port Impedance         50               0                50               0                
3.2                            0.0873811608548411 78.5515891269568 0.991548334145762 -8.40455369607727 0.991548334145764 -8.40455369607767 0.0873809835856459 78.557280182385  
! Gamma         0                0                0                0                
! Port Impedance         50               0                50               0                
3.3                            0.0900054282374649 78.3267622995237 0.991225746926146 -8.66176549192112 0.991225746926147 -8.6617654919215 0.0900052492328557 78.3326337255988 
! Gamma         0                0                0                0                
! Port Impedance         50               0                50               0                
3.4                            0.0926233770690452 78.1006247046542 0.99089758425284 -8.91866824475841 0.990897584252841 -8.91866824475876 0.0926231964453871 78.1066761567314 
! Gamma         0                0                0                0                
! Port Impedance         50               0                50               0                
3.5                            0.0952350506393153 77.8733661346683 0.990563967302007 -9.17526680936056 0.990563967302007 -9.17526680936089 0.0952348684873836 77.8795972973197 
! Gamma         0                0                0                0                
! Port Impedance         50               0                50               0                
3.6                            0.0978404934930094 77.6451490344087 0.990225005755903 -9.43156597502365 0.990225005755903 -9.43156597502395 0.0978403098807796 77.6515596188829 
! Gamma         0                0                0                0                
! Port Impedance         50               0                50               0                
3.7                            0.100439750502411 77.4161125183814 0.9898807986191  -9.68757042153151 0.989880798619101 -9.6875704215318 0.100439565477748 77.4227022602197 
! Gamma         0                0                0                0                
! Port Impedance         50               0                50               0                
3.8                            0.103032866069075 77.1863757705121 0.989531435036434 -9.94328468230591 0.989531435036434 -9.94328468230616 0.103032679662301 77.1931444273139 
! Gamma         0                0                0                0                
! Port Impedance         50               0                50               0                
3.9                            0.105619883443733 76.9560409306309 0.989176995101591 -10.1987131140964 0.989176995101591 -10.1987131140966 0.105619695670069 76.9629882799616 
! Gamma         0                0                0                0                
! Port Impedance         50               0                50               0                
4                              0.108200844153812 76.7251955519868 0.988817550647345 -10.4538598725755 0.988817550647346 -10.4538598725757 0.108200655015673 76.7323213894236 
! Gamma         0                0                0                0                
! Port Impedance         50               0                50               0                
4.1                            0.110775787528421 76.4939146985334 0.988453166010315 -10.708728893225 0.988453166010315 -10.7087288932252 0.11077559701757 76.5012188358434 
! Gamma         0                0                0                0                
! Port Impedance         50               0                50               0                
4.2                            0.113344750311161 76.2622627384056 0.988083898764765 -10.9633238769284 0.988083898764764 -10.9633238769286 0.113344558410699 76.2697450018499 
! Gamma         0                0                0                0                
! Port Impedance         50               0                50               0                
4.3                            0.115907766351577 76.0302948801779 0.987709800421407 -11.217648279714 0.987709800421407 -11.2176482797142 0.115907573037793 76.0379551089376 
! Gamma         0                0                0                0                
! Port Impedance         50               0                50               0                
4.4                            0.118464866366669 75.7980584906027 0.987330917088386 -11.4717053061315 0.987330917088385 -11.4717053061316 0.118464671610726 75.8058965353208 
! Gamma         0                0                0                0                
! Port Impedance         50               0                50               0                
4.5                            0.121016077764382 75.5655942261396 0.986947290092657 -11.7254979057815 0.986947290092656 -11.7254979057816 0.121015881533858 75.5736099475729 
! Gamma         0                0                0                0                
! Port Impedance         50               0                50               0                
4.6                            0.1235614245216  75.3329370053857 0.986558956560882 -11.9790287725556 0.986558956560882 -11.9790287725557 0.123561226781881 75.3411302731624 
! Gamma         0                0                0                0                
! Port Impedance         50               0                50               0                
4.7                            0.126100927109727 75.1001168452577 0.986165949959646 -12.2323003461856 0.986165949959646 -12.2323003461856 0.126100727825259 75.1084875367339 
! Gamma         0                0                0                0                
! Port Impedance         50               0                50               0                
4.8                            0.128634602461522 74.8671595802588 0.985768300595414 -12.4853148157352 0.985768300595414 -12.4853148157353 0.128634401596926 74.8757075794698 
! Gamma         0                0                0                0                
! Port Impedance         50               0                50               0                
4.9                            0.131162463973385 74.6340874812547 0.985366036075102 -12.7380741247087 0.985366036075102 -12.7380741247087 0.131162261494445 74.6428126779543 
! Gamma         0                0                0                0                
! Port Impedance         50               0                50               0                
5                              0.133684521537861 74.4009197877492 0.984959181728514 -12.9905799774817 0.984959181728514 -12.9905799774817 0.133684317412389 74.4098220765322 
! Gamma         0                0                0                0                
! Port Impedance         50               0                50               0                
5.1                            0.136200781601614 74.1676731656168 0.984547760994152 -13.2428338467963 0.984547760994152 -13.2428338467963 0.136200575800204 74.1767524451199 
! Gamma         0                0                0                0                
! Port Impedance         50               0                50               0                
5.2                            0.138711247244634 73.934362100539  0.984131795770125 -13.4948369820909 0.984131795770125 -13.4948369820909 0.138711039741306 73.9436182727143 
! Gamma         0                0                0                0                
! Port Impedance         50               0                50               0                
5.3                            0.14121591827688 73.7009992359381 0.983711306732005 -13.7465904184647 0.983711306732005 -13.7465904184647 0.14121570904963 73.7104322053942 
! Gamma         0                0                0                0                
! Port Impedance         50               0                50               0                
5.4                            0.143714791349   73.4675956629784 0.983286313619569 -13.9980949861034 0.983286313619569 -13.9980949861034 0.143714580380255 73.4772053363847 
! Gamma         0                0                0                0                
! Port Impedance         50               0                50               0                
5.5                            0.146207860074164 73.2341611691574 0.982856835494387 -14.2493513200157 0.982856835494388 -14.2493513200156 0.146207647351157 73.2439474547064 
! Gamma         0                0                0                0                
! Port Impedance         50               0                50               0                
5.6                            0.148695115158395 73.0007044511134 0.98242289097025 -14.5003598699516 0.98242289097025 -14.5003598699515 0.148694900673467 73.0106672580377 
! Gamma         0                0                0                0                
! Port Impedance         50               0                50               0                
5.7                            0.151176544537145 72.7672332965172 0.981984498418355 -14.7511209103941 0.981984498418356 -14.751120910394 0.151176328287971 72.777372534655  
! Gamma         0                0                0                0                
! Port Impedance         50               0                50               0                
5.8                            0.153652133516127 72.5337547392505 0.981541676149183 -15.0016345505315 0.981541676149183 -15.0016345505314 0.153651915505885 72.544070318658  
! Gamma         0                0                0                0                
! Port Impedance         50               0                50               0                
5.9                            0.156121864914717 72.3002751915157 0.981094442572867 -15.2519007441337 0.981094442572868 -15.2519007441336 0.1561216451522  72.3107670221206 
! Gamma         0                0                0                0                
! Port Impedance         50               0                50               0                
6                              0.158585719210472 72.06680055603   0.980642816339839 -15.5019192992698 0.98064281633984 -15.5019192992698 0.158585497710152 72.0774685473237 
! Gamma         0                0                0                0                
! Port Impedance         50               0                50               0                
6.1                            0.161043674683534 71.8333363210368 0.980186816463399 -15.751689887815 0.980186816463399 -15.7516898878149 0.161043451465578 71.8441803818019 
! Gamma         0                0                0                0                
! Port Impedance         50               0                50               0                
6.2                            0.163495707559875 71.5998876405052 0.9797264624258  -16.0012120547057 0.979726462425801 -16.0012120547057 0.163495482650123 71.6109076785749 
! Gamma         0                0                0                0                
! Port Impedance         50               0                50               0                
6.3                            0.165941792152525 71.3664594015715 0.979261774269338 -16.250485226912 0.979261774269339 -16.2504852269119 0.165941565582438 71.3776553236175 
! Gamma         0                0                0                0                
! Port Impedance         50               0                50               0                
6.4                            0.168381901000077 71.1330562810036 0.97879277267382 -16.4995087221011 0.978792772673821 -16.499508722101 0.16838167280665 71.1444279923516 
! Gamma         0                0                0                0                
! Port Impedance         50               0                50               0                
6.5                            0.170816005001879 70.8996827922344 0.978319479021711 -16.7482817569766 0.978319479021713 -16.7482817569765 0.170815775227528 70.9112301967024 
! Gamma         0                0                0                0                
! Port Impedance         50               0                50               0                
6.6                            0.173244073549465 70.6663433243018 0.977841915452174 -16.9968034552794 0.977841915452175 -16.9968034552793 0.173243842241896 70.6780663240607 
! Gamma         0                0                0                0                
! Port Impedance         50               0                50               0                
6.7                            0.175666074653858 70.4330421738569 0.977360104905085 -17.2450728554448 0.977360104905087 -17.2450728554447 0.175665841865913 70.4449406693104 
! Gamma         0                0                0                0                
! Port Impedance         50               0                50               0                
6.8                            0.178081975068484 70.1997835712456 0.976874071156084 -17.4930889179113 0.976874071156085 -17.4930889179112 0.178081740857975 70.211857460928  
! Gamma         0                0                0                0                
! Port Impedance         50               0                50               0                
6.9                            0.180491740407498 69.966571701534  0.976383838843566 -17.7408505320826 0.976383838843568 -17.7408505320825 0.180491504837024 69.9788208820231 
! Gamma         0                0                0                0                
! Port Impedance         50               0                50               0                
7                              0.182895335259391 69.7334107212316 0.97588943348851 -17.9883565229449 0.975889433488511 -17.9883565229448 0.182895098396152 69.7458350870766 
! Gamma         0                0                0                0                
! Port Impedance         50               0                50               0                
7.1                            0.185292723295814 69.500304771363  0.975390881507907 -18.2356056573456 0.975390881507909 -18.2356056573455 0.185292485211405 69.5129042150243 
! Gamma         0                0                0                0                
! Port Impedance         50               0                50               0                
7.2                            0.18768386737558 69.2672579874522 0.974888210222531 -18.4825966499398 0.974888210222533 -18.4825966499397 0.187683628145792 69.2800323992533 
! Gamma         0                0                0                0                
! Port Impedance         50               0                50               0                
7.3                            0.190068729643868 69.0342745069051 0.974381447859693 -18.7293281688136 0.974381447859694 -18.7293281688135 0.190068489348476 69.0472237749937 
! Gamma         0                0                0                0                
! Port Impedance         50               0                50               0                
7.4                            0.192447271626668 68.8013584742087 0.97387062355158 -18.9757988407939 0.973870623551582 -18.9757988407938 0.192447030349219 68.814482484527  
! Gamma         0                0                0                0                
! Port Impedance         50               0                50               0                
7.5                            0.194819454320534 68.5685140443084 0.97335576732973 -19.2220072564554 0.973355767329732 -19.2220072564553 0.194819212148136 68.5818126805718 
! Gamma         0                0                0                0                
! Port Impedance         50               0                50               0                
7.6                            0.197185238277752 68.3357453844748 0.972836910116108 -19.4679519748353 0.97283691011611 -19.4679519748352 0.197184995300862 68.3492185281567 
! Gamma         0                0                0                0                
! Port Impedance         50               0                50               0                
7.7                            0.199544583687024 68.1030566749244 0.972314083711256 -19.713631527868 0.972314083711258 -19.7136315278679 0.199544339999233 68.1167042052475 
! Gamma         0                0                0                0                
! Port Impedance         50               0                50               0                
7.8                            0.201897450449786 67.8704521084245 0.971787320779889 -19.959044424551 0.971787320779891 -19.9590444245509 0.201897206147616 67.8842739023576 
! Gamma         0                0                0                0                
! Port Impedance         50               0                50               0                
7.9                            0.204243798252317 67.637935889077  0.971256654834315 -20.2041891548545 0.971256654834317 -20.2041891548544 0.204243553435008 67.651931821336  
! Gamma         0                0                0                0                
! Port Impedance         50               0                50               0                
8                              0.206583586633751 67.4055122304483 0.970722120215994 -20.4490641933856 0.970722120215996 -20.4490641933855 0.206583341403068 67.4196821735012 
! Gamma         0                0                0                0                
! Port Impedance         50               0                50               0                
8.1                            0.208916775050169 67.1731853531863 0.970183752075521 -20.6936680028199 0.970183752075522 -20.6936680028198 0.208916529510196 67.187529177262  
! Gamma         0                0                0                0                
! Port Impedance         50               0                50               0                
8.2                            0.211243322934894 66.9409594822465 0.969641586351304 -20.9379990371109 0.969641586351306 -20.9379990371108 0.21124307719185 66.9554770553464 
! Gamma         0                0                0                0                
! Port Impedance         50               0                50               0                
8.3                            0.213563189755169 66.7088388438281 0.969095659747164 -21.1820557444894 0.969095659747166 -21.1820557444893 0.213562943917216 66.7235300317399 
! Gamma         0                0                0                0                
! Port Impedance         50               0                50               0                
8.4                            0.215876335065338 66.4768276621064 0.968546009709053 -21.4258365702635 0.968546009709054 -21.4258365702634 0.215876089242405 66.49169232842   
! Gamma         0                0                0                0                
! Port Impedance         50               0                50               0                
8.5                            0.218182718556713 66.2449301558334 0.96799267440109 -21.6693399594296 0.967992674401091 -21.6693399594295 0.218182472860317 66.2599681619589 
! Gamma         0                0                0                0                
! Port Impedance         50               0                50               0                
8.6                            0.22048230010425 66.0131505348673 0.967435692681076 -21.9125643591048 0.967435692681078 -21.9125643591047 0.220482054647335 66.0283617400537 
! Gamma         0                0                0                0                
! Port Impedance         50               0                50               0                
8.7                            0.222775039810199 65.7814929966799 0.966875104075621 -22.1555082207907 0.966875104075623 -22.1555082207906 0.222774794706969 65.7968772580355 
! Gamma         0                0                0                0                
! Port Impedance         50               0                50               0                
8.8                            0.225060898044854 65.549961722884  0.966310948755025 -22.3981700024779 0.966310948755026 -22.3981700024779 0.225060653410625 65.5655188953971 
! Gamma         0                0                0                0                
! Port Impedance         50               0                50               0                
8.9                            0.227339835484556 65.3185608758134 0.965743267508013 -22.6405481706004 0.965743267508015 -22.6405481706003 0.227339591435608 65.3342908123739 
! Gamma         0                0                0                0                
! Port Impedance         50               0                50               0                
9                              0.229611813147077 65.087294595183  0.965172101716445 -22.8826412018478 0.965172101716446 -22.8826412018478 0.229611569800512 65.103197146604  
! Gamma         0                0                0                0                
! Port Impedance         50               0                50               0                
9.1                            0.231876792424512 64.8561669948506 0.964597493330056 -23.1244475848454 0.964597493330057 -23.1244475848454 0.231876549898126 64.8722420098907 
! Gamma         0                0                0                0                
! Port Impedance         50               0                50               0                
9.2                            0.23413473511381 64.625182159697  0.964019484841335 -23.3659658217074 0.964019484841336 -23.3659658217074 0.234134493525967 64.6414294850821 
! Gamma         0                0                0                0                
! Port Impedance         50               0                50               0                
9.3                            0.236385603445066 64.3943441426372 0.963438119260585 -23.6071944294729 0.963438119260587 -23.6071944294729 0.236385362914577 64.4107636230825 
! Gamma         0                0                0                0                
! Port Impedance         50               0                50               0                
9.4                            0.238629360107677 64.1636569617722 0.962853440091238 -23.8481319414309 0.962853440091239 -23.8481319414309 0.238629120753696 64.1802484400038 
! Gamma         0                0                0                0                
! Port Impedance         50               0                50               0                
9.5                            0.240865968274488 63.933124597688  0.962265491305457 -24.0887769083406 0.962265491305459 -24.0887769083405 0.240865730216404 63.949887914464  
! Gamma         0                0                0                0                
! Port Impedance         50               0                50               0                
9.6                            0.24309539162403 63.7027509909058 0.961674317320089 -24.3291278995539 0.96167431732009 -24.3291278995539 0.243095154981374 63.7196859850375 
! Gamma         0                0                0                0                
! Port Impedance         50               0                50               0                
9.7                            0.245317594360943 63.4725400394859 0.961079962972984 -24.5691835040466 0.961079962972985 -24.5691835040465 0.245317359253297 63.4896465478577 
! Gamma         0                0                0                0                
! Port Impedance         50               0                50               0                
9.8                            0.24753254123469 63.2424955967854 0.960482473499724 -24.8089423313619 0.960482473499725 -24.8089423313619 0.247532307781603 63.2597734543747 
! Gamma         0                0                0                0                
! Port Impedance         50               0                50               0                
9.9                            0.249740197556647 63.0126214693692 0.959881894510783 -25.0484030124748 0.959881894510784 -25.0484030124748 0.249739965877564 63.0300705092652 
! Gamma         0                0                0                0                
! Port Impedance         50               0                50               0                
10                             0.251940529215665 62.7829214150717 0.959278271969133 -25.2875642005788 0.959278271969134 -25.2875642005788 0.251940299429856 62.800541468494  
! Gamma         0                0                0                0                
! Port Impedance         50               0                50               0                
10.1                           0.254133502692181 62.5533991412079 0.958671652168328 -25.526424571803 0.958671652168328 -25.526424571803 0.254133274918677 62.5711900375236 
! Gamma         0                0                0                0                
! Port Impedance         50               0                50               0                
10.2                           0.256319085070953 62.3240583029278 0.958062081711056 -25.7649828258614 0.958062081711057 -25.7649828258613 0.256318859428491 62.3420198696683 
! Gamma         0                0                0                0                
! Port Impedance         50               0                50               0                
10.3                           0.258497244052508 62.0949025017122 0.957449607488197 -26.0032376866405 0.957449607488197 -26.0032376866405 0.258497020659481 62.1130345645893 
! Gamma         0                0                0                0                
! Port Impedance         50               0                50               0                
10.4                           0.26066794796336 61.8659352840043 0.956834276658366 -26.2411879027284 0.956834276658366 -26.2411879027284 0.260667726937773 61.8842376669251 
! Gamma         0                0                0                0                
! Port Impedance         50               0                50               0                
10.5                           0.262831165765077 61.6371601399722 0.956216136627969 -26.4788322478888 0.956216136627969 -26.4788322478888 0.262830947224507 61.655632665053  
! Gamma         0                0                0                0                
! Port Impedance         50               0                50               0                
10.6                           0.264986867062246 61.4085805023976 0.955595235031762 -26.7161695214843 0.955595235031762 -26.7161695214843 0.264986651123812 61.4272229899772 
! Gamma         0                0                0                0                
! Port Impedance         50               0                50               0                
10.7                           0.267135022109421 61.1801997456844 0.954971619713914 -26.9531985488513 0.954971619713914 -26.9531985488513 0.267134808889756 61.1990120143365 
! Gamma         0                0                0                0                
! Port Impedance         50               0                50               0                
10.8                           0.269275601817087 60.9520211849835 0.95434533870958 -27.1899181816307 0.95434533870958 -27.1899181816307 0.269275391432314 60.9710030515281 
! Gamma         0                0                0                0                
! Port Impedance         50               0                50               0                
10.9                           0.271408577756709 60.724048075427  0.953716440226979 -27.4263272980565 0.953716440226979 -27.4263272980565 0.271408370322426 60.7431993549408 
! Gamma         0                0                0                0                
! Port Impedance         50               0                50               0                
11                             0.273533922164913 60.4962836114671 0.953084972629966 -27.6624248032054 0.953084972629966 -27.6624248032054 0.273533717796181 60.5156041172929 
! Gamma         0                0                0                0                
! Port Impedance         50               0                50               0                
11.1                           0.275651607946854 60.2687309263139 0.952450984421107 -27.8982096292097 0.952450984421108 -27.8982096292097 0.275651406758187 60.2882204700695 
! Gamma         0                0                0                0                
! Port Impedance         50               0                50               0                
11.2                           0.277761608678801 60.0413930914682 0.951814524225242 -28.1336807354362 0.951814524225242 -28.1336807354362 0.277761410784167 60.0610514830541 
! Gamma         0                0                0                0                
! Port Impedance         50               0                50               0                
11.3                           0.27986389861001 59.8142731163427 0.951175640773528 -28.3688371086336 0.951175640773528 -28.3688371086336 0.27986370412283 59.8341001639485 
! Gamma         0                0                0                0                
! Port Impedance         50               0                50               0                
11.4                           0.2819584526639  59.587373947967  0.950534382887965 -28.6036777630499 0.950534382887965 -28.6036777630499 0.281958261697053 59.6073694580778 
! Gamma         0                0                0                0                
! Port Impedance         50               0                50               0                
11.5                           0.284045246438588 59.3606984707727 0.949890799466391 -28.8382017405223 0.949890799466391 -28.8382017405223 0.284045059104421 59.3808622481737 
! Gamma         0                0                0                0                
! Port Impedance         50               0                50               0                
11.6                           0.286124256206813 59.1342495064527 0.949244939467934 -29.0724081105411 0.949244939467933 -29.0724081105411 0.286124072617156 59.1545813542335 
! Gamma         0                0                0                0                
! Port Impedance         50               0                50               0                
11.7                           0.288195458915291 58.9080298138909 0.948596851898921 -29.3062959702902 0.948596851898921 -29.3062959702902 0.288195279181469 58.9285295334485 
! Gamma         0                0                0                0                
! Port Impedance         50               0                50               0                
11.8                           0.290258832183522 58.6820420891575 0.947946585799235 -29.5398644446643 0.947946585799235 -29.5398644446643 0.290258656416381 58.702709480199  
! Gamma         0                0                0                0                
! Port Impedance         50               0                50               0                
11.9                           0.292314354302103 58.4562889655669 0.9472941902291  -29.7731126862662 0.9472941902291  -29.7731126862662 0.292314182612026 58.4771238261108 
! Gamma         0                0                0                0                
! Port Impedance         50               0                50               0                
12                             0.294362004230548 58.2307730137929 0.946639714256299 -30.0060398753846 0.946639714256298 -30.0060398753846 0.294361836727486 58.2517751401697 
! Gamma         0                0                0                0                
! Port Impedance         50               0                50               0                
12.1                           0.296401761594672 58.0054967420381 0.945983206943806 -30.2386452199533 0.945983206943805 -30.2386452199533 0.29640159838817 58.0266659288903 
! Gamma         0                0                0                0                
! Port Impedance         50               0                50               0                
12.2                           0.298433606683543 57.7804625962543 0.945324717337831 -30.4709279554948 0.94532471733783 -30.4709279554948 0.298433447882772 57.8017986365351 
! Gamma         0                0                0                0                
! Port Impedance         50               0                50               0                
12.3                           0.300457520446049 57.5556729604098 0.944664294456258 -30.7028873450474 0.944664294456258 -30.7028873450474 0.30045736615984 57.5771756453817 
! Gamma         0                0                0                0                
! Port Impedance         50               0                50               0                
12.4                           0.302473484487081 57.3311301568005 0.944001987277478 -30.9345226790788 0.944001987277478 -30.9345226790788 0.302473334823959 57.3527992760325 
! Gamma         0                0                0                0                
! Port Impedance         50               0                50               0                
12.5                           0.304481481063381 57.1068364464024 0.943337844729597 -31.1658332753862 0.943337844729597 -31.1658332753862 0.304481336131602 57.1286717877667 
! Gamma         0                0                0                0                
! Port Impedance         50               0                50               0                
12.6                           0.306481493079049 56.8827940292616 0.942671915680021 -31.3968184789835 0.942671915680021 -31.3968184789835 0.306481352986641 56.9047953789296 
! Gamma         0                0                0                0                
! Port Impedance         50               0                50               0                
12.7                           0.30847350408076 56.6590050449196 0.942004248925396 -31.6274776619784 0.942004248925396 -31.6274776619784 0.308473368935561 56.6811721873571 
! Gamma         0                0                0                0                
! Port Impedance         50               0                50               0                
12.8                           0.310457498252681 56.4354715728716 0.941334893181909 -31.857810223438 0.941334893181909 -31.857810223438 0.310457368162384 56.4578042908331 
! Gamma         0                0                0                0                
! Port Impedance         50               0                50               0                
12.9                           0.312433460411133 56.2121956330544 0.940663897075924 -32.0878155892452 0.940663897075923 -32.0878155892452 0.312433335483326 56.2346937075768 
! Gamma         0                0                0                0                
! Port Impedance         50               0                50               0                
13                             0.314401375998996 55.989179186362  0.939991309134956 -32.3174932119464 0.939991309134956 -32.3174932119464 0.314401256341207 56.0118423967582 
! Gamma         0                0                0                0                
! Port Impedance         50               0                50               0                
13.1                           0.316361231079886 55.7664241351876 0.939317177778977 -32.5468425705908 0.939317177778976 -32.5468425705908 0.316361116799629 55.7892522590384 
! Gamma         0                0                0                0                
! Port Impedance         50               0                50               0                
13.2                           0.318313012332116 55.5439323239885 0.938641551312028 -32.7758631705621 0.938641551312027 -32.7758631705621 0.318312903536934 55.5669251371343 
! Gamma         0                0                0                0                
! Port Impedance         50               0                50               0                
13.3                           0.320256707042455 55.3217055398722 0.937964477914146 -33.004554543404 0.937964477914146 -33.004554543404 0.320256603839967 55.3448628164045 
! Gamma         0                0                0                0                
! Port Impedance         50               0                50               0                
13.4                           0.322192303099704 55.0997455132031 0.937286005633596 -33.2329162466388 0.937286005633595 -33.2329162466388 0.322192205597652 55.1230670254548 
! Gamma         0                0                0                0                
! Port Impedance         50               0                50               0                
13.5                           0.3241197889881  54.8780539182265 0.936606182379382 -33.460947863581 0.936606182379381 -33.460947863581 0.324119697294391 54.9015394367618 
! Gamma         0                0                0                0                
! Port Impedance         50               0                50               0                
13.6                           0.326039153780558 54.6566323737091 0.935925055914058 -33.6886490031449 0.935925055914058 -33.6886490031449 0.326039068003313 54.6802816673127 
! Gamma         0                0                0                0                
! Port Impedance         50               0                50               0                
13.7                           0.327950387131771 54.4354824435944 0.935242673846803 -33.9160192996485 0.935242673846802 -33.9160192996485 0.32795030737937 54.4592952792605 
! Gamma         0                0                0                0                
! Port Impedance         50               0                50               0                
13.8                           0.329853479271177 54.2146056376713 0.934559083626768 -34.1430584126125 0.934559083626767 -34.1430584126125 0.329853405652302 54.2385817805915 
! Gamma         0                0                0                0                
! Port Impedance         50               0                50               0                
13.9                           0.331748420995801 53.9940034122545 0.93387433253669 -34.3697660265562 0.933874332536689 -34.3697660265562 0.33174835361948 54.0181426258058 
! Gamma         0                0                0                0                
! Port Impedance         50               0                50               0                
14                             0.333635203662987 53.7736771708761 0.933188467686752 -34.5961418507889 0.933188467686751 -34.5961418507889 0.333635142638639 53.7979792166077 
! Gamma         0                0                0                0                
! Port Impedance         50               0                50               0                
14.1                           0.335513819183028 53.5536282649864 0.932501536008691 -34.8221856192   0.93250153600869 -34.8221856192   0.335513764620503 53.5780929026063 
! Gamma         0                0                0                0                
! Port Impedance         50               0                50               0                
14.2                           0.337384260011708 53.3338579946626 0.931813584250151 -35.0478970900448 0.93181358425015 -35.0478970900448 0.337384212021331 53.3584849820243 
! Gamma         0                0                0                0                
! Port Impedance         50               0                50               0                
14.3                           0.339246519142761 53.1143676093261 0.931124658969261 -35.2732760457292 0.931124658969261 -35.2732760457292 0.339246477835367 53.1391567024136 
! Gamma         0                0                0                0                
! Port Impedance         50               0                50               0                
14.4                           0.341100590100257 52.8951583084644 0.930434806529449 -35.4983222925918 0.930434806529448 -35.4983222925918 0.341100555587232 52.9201092613778 
! Gamma         0                0                0                0                
! Port Impedance         50               0                50               0                
14.5                           0.342946466930925 52.67623124236   0.92974407309446 -35.7230356606846 0.929744073094459 -35.7230356606846 0.342946439324239 52.7013438073002 
! Gamma         0                0                0                0                
! Port Impedance         50               0                50               0                
14.6                           0.344784144196419 52.457587512823  0.929052504623606 -35.9474160035519 0.929052504623605 -35.9474160035519 0.344784123608663 52.482861440076  
! Gamma         0                0                0                0                
! Port Impedance         50               0                50               0                
14.7                           0.346613616965541 52.2392281739272 0.92836014686721 -36.1714631980084 0.92836014686721 -36.1714631980084 0.346613603509958 52.264663211848  
! Gamma         0                0                0                0                
! Port Impedance         50               0                50               0                
14.8                           0.348434880806417 52.0211542327498 0.927667045362255 -36.3951771439162 0.927667045362255 -36.3951771439162 0.348434874596932 52.0467501277464 
! Gamma         0                0                0                0                
! Port Impedance         50               0                50               0                
14.9                           0.350247931778648 51.803366650113  0.926973245428231 -36.6185577639613 0.92697324542823 -36.6185577639613 0.350247932929895 51.8291231466291 
! Gamma         0                0                0                0                
! Port Impedance         50               0                50               0                
15                             0.352052766425427 51.5858663413272 0.926278792163163 -36.841605003429 0.926278792163163 -36.841605003429 0.352052775052774 51.6117831818253 
! Gamma         0                0                0                0                
! Port Impedance         50               0                50               0                
15.1                           0.353849381765643 51.3686541769352 0.925583730439838 -37.0643188299796 0.925583730439838 -37.0643188299796 0.353849397985212 51.394731101879  
! Gamma         0                0                0                0                
! Port Impedance         50               0                50               0                
15.2                           0.355637775285965 51.1517309834565 0.924888104902192 -37.2866992334237 0.924888104902192 -37.2866992334237 0.355637799214656 51.177967731293  
! Gamma         0                0                0                0                
! Port Impedance         50               0                50               0                
15.3                           0.357417944932928 50.9350975441318 0.92419195996189 -37.5087462254973 0.924191959961889 -37.5087462254973 0.357417976688432 50.9614938512734 
! Gamma         0                0                0                0                
! Port Impedance         50               0                50               0                
15.4                           0.359189889105007 50.7187545996666 0.923495339795054 -37.7304598396377 0.923495339795054 -37.7304598396377 0.359189928805818 50.7453102004725 
! Gamma         0                0                0                0                
! Port Impedance         50               0                50               0                
15.5                           0.360953606644701 50.5027028489736 0.922798288339175 -37.9518401307588 0.922798288339175 -37.9518401307589 0.36095365441013 50.5294174757312 
! Gamma         0                0                0                0                
! Port Impedance         50               0                50               0                
15.6                           0.362709096830625 50.2869429499137 0.922100849290167 -38.1728871750279 0.922100849290167 -38.1728871750279 0.362709152780804 50.3138163328195 
! Gamma         0                0                0                0                
! Port Impedance         50               0                50               0                
15.7                           0.364456359369615 50.0714755200347 0.921403066099583 -38.3936010696418 0.921403066099583 -38.3936010696419 0.364456423625497 50.0985073871752 
! Gamma         0                0                0                0                
! Port Impedance         50               0                50               0                
15.8                           0.36619539438885 49.8563011373075 0.920704981971981 -38.6139819326053 0.920704981971981 -38.6139819326053 0.366195467072215 49.8834912146397 
! Gamma         0                0                0                0                
! Port Impedance         50               0                50               0                
15.9                           0.367926202428001 49.6414203408602 0.920006639862428 -38.8340299025084 0.920006639862429 -38.8340299025084 0.367926283661444 49.6687683521919 
! Gamma         0                0                0                0                
! Port Impedance         50               0                50               0                
16                             0.369648784431403 49.4268336317083 0.919308082474156 -39.0537451383064 0.919308082474156 -39.0537451383064 0.369648874338333 49.4543392986783 
! Gamma         0                0                0                0                
! Port Impedance         50               0                50               0                
16.1                           0.371363141740264 49.2125414734818 0.918609352256341 -39.2731278190996 0.918609352256341 -39.2731278190996 0.371363240444883 49.2402045155399 
! Gamma         0                0                0                0                
! Port Impedance         50               0                50               0                
16.2                           0.373069276084901 48.9985442931488 0.917910491402027 -39.4921781439146 0.917910491402028 -39.4921781439147 0.373069383712194 49.0263644275353 
! Gamma         0                0                0                0                
! Port Impedance         50               0                50               0                
16.3                           0.374767189577021 48.7848424817346 0.917211541846169 -39.710896331487 0.917211541846169 -39.710896331487 0.374767306252732 48.8128194234604 
! Gamma         0                0                0                0                
! Port Impedance         50               0                50               0                
16.4                           0.376456884702046 48.5714363950373 0.916512545263805 -39.9292826200444 0.916512545263806 -39.9292826200445 0.376457010552653 48.5995698568628 
! Gamma         0                0                0                0                
! Port Impedance         50               0                50               0                
16.5                           0.378138364311481 48.3583263543381 0.915813543068353 -40.1473372670921 0.915813543068354 -40.1473372670921 0.378138499464164 48.386616046753  
! Gamma         0                0                0                0                
! Port Impedance         50               0                50               0                
16.6                           0.379811631615325 48.1455126471078 0.915114576410014 -40.3650605491984 0.915114576410014 -40.3650605491984 0.379811776197936 48.1739582783101 
! Gamma         0                0                0                0                
! Port Impedance         50               0                50               0                
16.7                           0.381476690174551 47.9329955277074 0.914415686174299 -40.5824527617831 0.9144156861743  -40.5824527617831 0.381476844315569 47.9615968035827 
! Gamma         0                0                0                0                
! Port Impedance         50               0                50               0                
16.8                           0.383133543893621 47.720775218085  0.913716912980665 -40.7995142189061 0.913716912980665 -40.7995142189062 0.38313370772211 47.7495318421853 
! Gamma         0                0                0                0                
! Port Impedance         50               0                50               0                
16.9                           0.384782197013072 47.5088519084658 0.913018297181252 -41.0162452530582 0.913018297181252 -41.0162452530582 0.384782370658633 47.5377635819887 
! Gamma         0                0                0                0                
! Port Impedance         50               0                50               0                
17                             0.386422654102162 47.2972257580383 0.912319878859732 -41.2326462149528 0.912319878859732 -41.2326462149528 0.386422837694877 47.3262921798059 
! Gamma         0                0                0                0                
! Port Impedance         50               0                50               0                
17.1                           0.388054920051571 47.085896895634  0.911621697830252 -41.4487174733202 0.911621697830252 -41.4487174733202 0.388055113721943 47.1151177620717 
! Gamma         0                0                0                0                
! Port Impedance         50               0                50               0                
17.2                           0.389679000066172 46.8748654204017 0.91092379363648 -41.6644594147026 0.910923793636481 -41.6644594147026 0.389679203945063 46.9042404255171 
! Gamma         0                0                0                0                
! Port Impedance         50               0                50               0                
17.3                           0.391294899657872 46.664131402476  0.910226205550742 -41.8798724432508 0.910226205550743 -41.8798724432508 0.39129511387643 46.6936602378378 
! Gamma         0                0                0                0                
! Port Impedance         50               0                50               0                
17.4                           0.39290262463852 46.4536948836402 0.909528972573253 -42.0949569805234 0.909528972573254 -42.0949569805235 0.392902849328105 46.483377238357  
! Gamma         0                0                0                0                
! Port Impedance         50               0                50               0                
17.5                           0.394502181112883 46.2435558779824 0.908832133431438 -42.3097134652866 0.908832133431439 -42.3097134652867 0.394502416404987 46.2733914386814 
! Gamma         0                0                0                0                
! Port Impedance         50               0                50               0                
17.6                           0.396093575471703 46.0337143725464 0.908135726579335 -42.5241423533165 0.908135726579336 -42.5241423533166 0.39609382149786 46.0637028233528 
! Gamma         0                0                0                0                
! Port Impedance         50               0                50               0                
17.7                           0.397676814384819 45.8241703279762 0.907439790197088 -42.7382441172028 0.907439790197089 -42.7382441172028 0.397677071276519 45.8543113504914 
! Gamma         0                0                0                0                
! Port Impedance         50               0                50               0                
17.8                           0.39925190479438 45.6149236791535 0.906744362190519 -42.9520192461541 0.906744362190519 -42.9520192461541 0.399252172682965 45.6452169524347 
! Gamma         0                0                0                0                
! Port Impedance         50               0                50               0                
17.9                           0.40081885390812 45.4059743358301 0.906049480190773 -43.1654682458057 0.906049480190774 -43.1654682458058 0.400819132924685 45.4364195363689 
! Gamma         0                0                0                0                
! Port Impedance         50               0                50               0                
18                             0.402377669192726 45.1973221832528 0.905355181554053 -43.3785916380283 0.905355181554054 -43.3785916380283 0.402377959468008 45.2279189849549 
! Gamma         0                0                0                0                
! Port Impedance         50               0                50               0                
18.1                           0.403928358367279 44.9889670827827 0.904661503361414 -43.5913899607388 0.904661503361415 -43.5913899607389 0.403928660031541 45.0197151569464 
! Gamma         0                0                0                0                
! Port Impedance         50               0                50               0                
18.2                           0.405470929396782 44.7809088725071 0.903968482418637 -43.8038637677133 0.903968482418638 -43.8038637677134 0.405471242579695 44.8118078878034 
! Gamma         0                0                0                0                
! Port Impedance         50               0                50               0                
18.3                           0.407005390485769 44.5731473678461 0.903276155256176 -44.0160136284013 0.903276155256177 -44.0160136284013 0.407005715316283 44.6041969902975 
! Gamma         0                0                0                0                
! Port Impedance         50               0                50               0                
18.4                           0.408531750072002 44.3656823621512 0.902584558129161 -44.2278401277421 0.902584558129162 -44.2278401277421 0.408532086678211 44.3968822551118 
! Gamma         0                0                0                0                
! Port Impedance         50               0                50               0                
18.5                           0.410050016820245 44.1585136272986 0.901893727017479 -44.4393438659828 0.901893727017479 -44.4393438659828 0.410050365329254 44.1898634514335 
! Gamma         0                0                0                0                
! Port Impedance         50               0                50               0                
18.6                           0.41156019961614 43.9516409142746 0.901203697625909 -44.6505254584986 0.90120369762591 -44.6505254584986 0.411560560153912 43.9831403275402 
! Gamma         0                0                0                0                
! Port Impedance         50               0                50               0                
18.7                           0.413062307560151 43.7450639537557 0.900514505384327 -44.861385535614 0.900514505384327 -44.8613855356141 0.413062680251365 43.7767126113792 
! Gamma         0                0                0                0                
! Port Impedance         50               0                50               0                
18.8                           0.414556349961617 43.5387824566806 0.899826185447958 -45.071924742427 0.899826185447959 -45.0719247424271 0.414556734929502 43.5705800111409 
! Gamma         0                0                0                0                
! Port Impedance         50               0                50               0                
18.9                           0.416042336332875 43.3327961148168 0.899138772697703 -45.282143738634 0.899138772697703 -45.282143738634 0.416042733699051 43.3647422158244 
! Gamma         0                0                0                0                
! Port Impedance         50               0                50               0                
19                             0.417520276383483 43.1271046013194 0.898452301740504 -45.4920431983571 0.898452301740504 -45.4920431983572 0.417520686267792 43.1591988957974 
! Gamma         0                0                0                0                
! Port Impedance         50               0                50               0                
19.1                           0.418990180014535 42.9217075712839 0.897766806909777 -45.7016238099736 0.897766806909778 -45.7016238099737 0.418990602534864 42.9539497033489 
! Gamma         0                0                0                0                
! Port Impedance         50               0                50               0                
19.2                           0.420452057313056 42.7166046622919 0.897082322265892 -45.9108862759464 0.897082322265892 -45.9108862759465 0.420452492585154 42.748994273235  
! Gamma         0                0                0                0                
! Port Impedance         50               0                50               0                
19.3                           0.421905918546501 42.5117954949502 0.896398881596698 -46.1198313126568 0.896398881596698 -46.1198313126569 0.421906366683792 42.5443322232185 
! Gamma         0                0                0                0                
! Port Impedance         50               0                50               0                
19.4                           0.423351774157334 42.3072796734233 0.89571651841811 -46.3284596502391 0.895716518418111 -46.3284596502392 0.423352235270722 42.3399631546013 
! Gamma         0                0                0                0                
! Port Impedance         50               0                50               0                
19.5                           0.424789634757705 42.1030567859587 0.895035265974734 -46.5367720324168 0.895035265974734 -46.5367720324168 0.424790108955374 42.1358866527504 
! Gamma         0                0                0                0                
! Port Impedance         50               0                50               0                
19.6                           0.42621951112422 41.8991264054062 0.894355157240539 -46.7447692163407 0.894355157240539 -46.7447692163407 0.426219998511426 41.9321022876172 
! Gamma         0                0                0                0                
! Port Impedance         50               0                50               0                
19.7                           0.427641414192797 41.6954880897297 0.893676224919578 -46.9524519724287 0.893676224919578 -46.9524519724287 0.427641914871654 41.7286096142497 
! Gamma         0                0                0                0                
! Port Impedance         50               0                50               0                
19.8                           0.429055355053618 41.4921413825128 0.892998501446748 -47.1598210842079 0.892998501446748 -47.1598210842079 0.429055869122881 41.5254081732983 
! Gamma         0                0                0                0                
! Port Impedance         50               0                50               0                
19.9                           0.430461344946178 41.2890858134577 0.892322018988592 -47.3668773481573 0.892322018988593 -47.3668773481573 0.430461872501017 41.3224974915153 
! Gamma         0                0                0                0                
! Port Impedance         50               0                50               0                
20                             0.431859395254415 41.0863208988771 0.891646809444149 -47.5736215735537 0.891646809444149 -47.5736215735537 0.43185993638618 41.1198770822465 
! Gamma         0                0                0                0                
! Port Impedance         50               0                50               0                
