! Touchstone file exported from HFSS 2026.1.0
!        File:           C:/ffzhzh/LocalFiles/Ansys_Project_Files/temp_train_TMRDL_1343_1783165381_43440.aedt
!        Generated:      07:44:10 PM Jul  4, 2026
!        Design:         TMRDL
!        Project:        temp_train_TMRDL_1343_1783165381_43440
!
! Variables:
!        h_bsmrdl = 2um
!        h_ox = 20um
!        h_rdl = 5um
!        h_sub = 80um
!        h_tmrdl = 3.87um
!        h_tsv = 80um
!        h_via = 3um
!        l_bsmrdl = 300um
!        l_sub = 940.66um
!        l_tmrdl = 540.66um
!        m_sub = 200um
!        pitch = 29.51um
!        r_tsv = 6um
!        s_tmrdl = 10um
!        w_bsmrdl = 18um
!        w_sub = 500um
!        w_tmrdl = 16.93um
!        x_tsv_center1 = 549.125um
!        x_tsv_center2 = 867.125um
!        x_tsv_center3 = 1424.715um
!        x_tsv_center4 = 1742.715um
!        x_tsv_center5 = 2300.305um
!        x_tsv_center6 = 2618.305um
!
# GHz S MA R 50.000000
! Terminal data exported
! Port[1] = TM_RDL1_1_T1
! Port[2] = TM_RDL1_1_T2
0.1                            0.00346676018714086 27.2628752382186 0.996922352599653 -0.190158347310768 0.99692235259965 -0.190158347310766 0.00346676323026801 27.2627137485786 
! Gamma         0                0                0                0                
! Port Impedance         50               0                50               0                
0.2                            0.00448805431936864 43.734112221127  0.99676988016748 -0.375913958340658 0.996769880167476 -0.375913958340614 0.00448810003548561 43.736502153395  
! Gamma         0                0                0                0                
! Port Impedance         50               0                50               0                
0.3                            0.00568371700283942 52.8395190329979 0.99659836014783 -0.556587473351723 0.996598360147826 -0.556587473351617 0.00568403831283556 52.8424761110927 
! Gamma         0                0                0                0                
! Port Impedance         50               0                50               0                
0.4                            0.00691392713963203 58.495467175893  0.996446707754789 -0.733839249318624 0.996446707754786 -0.73383924931847 0.00691456593994303 58.4970903772051 
! Gamma         0                0                0                0                
! Port Impedance         50               0                50               0                
0.5                            0.00815194490987027 62.4383117903334 0.996323005747043 -0.909352283171974 0.996323005747042 -0.909352283171796 0.0081528226763075 62.4380418045811 
! Gamma         0                0                0                0                
! Port Impedance         50               0                50               0                
0.6                            0.00939760767939981 65.3905042069618 0.99622263919613 -1.08414958305286 0.996222639196129 -1.08414958305267 0.00939862549850345 65.3885027448618 
! Gamma         0                0                0                0                
! Port Impedance         50               0                50               0                
0.7                            0.0106533050116857 67.6910332077904 0.996138736426722 -1.25873780646639 0.996138736426721 -1.25873780646621 0.010654384012263 67.6876653088436 
! Gamma         0                0                0                0                
! Port Impedance         50               0                50               0                
0.8                            0.0119198655663053 69.5261122952473 0.996065503666355 -1.43333833791878 0.996065503666355 -1.4333383379186 0.0119209525728541 69.5217269907075 
! Gamma         0                0                0                0                
! Port Impedance         50               0                50               0                
0.9                            0.0131967938640631 71.0121927901979 0.995998711427876 -1.6080339011411 0.995998711427877 -1.60803390114094 0.0131978561499614 71.0070631112378 
! Gamma         0                0                0                0                
! Port Impedance         50               0                50               0                
1                              0.0144829512678149 72.228611170957  0.995935415794419 -1.78284404587128 0.995935415794419 -1.78284404587113 0.0144839701434968 72.2229338305309 
! Gamma         0                0                0                0                
! Port Impedance         50               0                50               0                
1.1                            0.0157770041553698 73.232321356052  0.995873593271213 -1.95776120122584 0.995873593271214 -1.95776120122571 0.0157779699744338 73.2262324517082 
! Gamma         0                0                0                0                
! Port Impedance         50               0                50               0                
1.2                            0.017077648827767 74.0655755039101 0.995811850704473 -2.13276733512768 0.995811850704474 -2.13276733512756 0.017078557588   74.0591669947995 
! Gamma         0                0                0                0                
! Port Impedance         50               0                50               0                
1.3                            0.0183837044892472 74.7604341174534 0.99574922221314 -2.30784145832589 0.995749222213142 -2.30784145832578 0.018384555642762 74.7537670213721 
! Gamma         0                0                0                0                
! Port Impedance         50               0                50               0                
1.4                            0.019694139744973 75.3416444562487 0.995685032866575 -2.48296286783086 0.995685032866577 -2.48296286783076 0.0196949348207789 75.3347584668928 
! Gamma         0                0                0                0                
! Port Impedance         50               0                50               0                
1.5                            0.0210080690457549 75.8285799329293 0.995618808127129 -2.65811242493128 0.995618808127131 -2.65811242493119 0.0210088107923273 75.821500152051  
! Gamma         0                0                0                0                
! Port Impedance         50               0                50               0                
1.6                            0.0223247374085858 76.2365939549699 0.995550213491171 -2.83327294115636 0.995550213491172 -2.83327294115628 0.0223254292626069 76.2293355244052 
! Gamma         0                0                0                0                
! Port Impedance         50               0                50               0                
1.7                            0.023643502034123 76.5779884788859 0.995479013855831 -3.00842917463059 0.995479013855833 -3.00842917463052 0.0236441477923177 76.5705597482361 
! Gamma         0                0                0                0                
! Port Impedance         50               0                50               0                
1.8                            0.0249638145714877 76.8627198015367 0.995405045804059 -3.18356767121624 0.995405045804061 -3.18356767121619 0.024964418188735 76.855124493546  
! Gamma         0                0                0                0                
! Port Impedance         50               0                50               0                
1.9                            0.0262852054409439 77.0989206041451 0.995328198424071 -3.35867655811349 0.995328198424073 -3.35867655811344 0.0262857709069573 77.0911592985345 
! Gamma         0                0                0                0                
! Port Impedance         50               0                50               0                
2                              0.0276072705516171 77.2932910661077 0.99524839983342 -3.53374533744064 0.995248399833421 -3.5337453374406 0.0276078018165525 77.2853622201409 
! Gamma         0                0                0                0                
! Port Impedance         50               0                50               0                
2.1                            0.0289296602939394 77.4513952595882 0.995165607566267 -3.70876469886936 0.995165607566269 -3.70876469886933 0.0289301612244473 77.4432959128046 
! Gamma         0                0                0                0                
! Port Impedance         50               0                50               0                
2.2                            0.0302520705202263 77.57788812844   0.995079801612434 -3.8837263571616 0.995079801612435 -3.88372635716157 0.0302525448743841 77.5696143910627 
! Gamma         0                0                0                0                
! Port Impedance         50               0                50               0                
2.3                            0.0315742351925694 77.6766910058916 0.994990979301418 -4.05862291455829 0.99499097930142 -4.05862291455827 0.0315746866064294 77.6682383982668 
! Gamma         0                0                0                0                
! Port Impedance         50               0                50               0                
2.4                            0.0328959203983867 77.7511285777551 0.994899151487192 -4.23344774558699 0.994899151487193 -4.23344774558698 0.0328963523795702 77.7424922666379 
! Gamma         0                0                0                0                
! Port Impedance         50               0                50               0                
2.5                            0.0342169194744763 77.8040366771137 0.994804339661993 -4.40819490112391 0.994804339661995 -4.4081949011239 0.0342173353999444 77.795211640147  
! Gamma         0                0                0                0                
! Port Impedance         50               0                50               0                
2.6                            0.0355370490240653 77.8378478083544 0.994706573741991 -4.58285902855789 0.994706573741992 -4.58285902855789 0.0355374521402677 77.8288289483232 
! Gamma         0                0                0                0                
! Port Impedance         50               0                50               0                
2.7                            0.0368561456514312 77.8546595197102 0.994605890344799 -4.75743530521768 0.994605890344801 -4.75743530521768 0.0368565390757207 77.8454417435259 
! Gamma         0                0                0                0                
! Port Impedance         50               0                50               0                
2.8                            0.038174063272984 77.8562894584781 0.99450233143141 -4.93191938263019 0.994502331431411 -4.93191938263019 0.0381744499956206 77.8468677313162 
! Gamma         0                0                0                0                
! Port Impedance         50               0                50               0                
2.9                            0.0394906708920052 77.8443200056455 0.994395943221292 -5.10630733958289 0.994395943221293 -5.10630733958289 0.0394910537783506 77.8346893875439 
! Gamma         0                0                0                0                
! Port Impedance         50               0                50               0                
3                              0.0408058507471169 77.8201346965011 0.994286775314672 -5.28059564232715 0.994286775314673 -5.28059564232715 0.0408062325397972 77.8102903665671 
! Gamma         0                0                0                0                
! Port Impedance         50               0                50               0                
3.1                            0.0421194967628353 77.7849481212681 0.994174879973797 -5.45478111057135 0.994174879973798 -5.45478111057136 0.0421198800837614 77.7748853931365 
! Gamma         0                0                0                0                
! Port Impedance         50               0                50               0                
3.2                            0.04343151324508 77.7398306160244 0.994060311527622 -5.62886088817171 0.994060311527623 -5.62886088817172 0.0434319005972839 77.7295449471534 
! Gamma         0                0                0                0                
! Port Impedance         50               0                50               0                
3.3                            0.0447418137760067 77.6857287645548 0.993943125873478 -5.80283241764142 0.993943125873479 -5.80283241764143 0.0447422075452937 77.6752157612004 
! Gamma         0                0                0                0                
! Port Impedance         50               0                50               0                
3.4                            0.0460503202716269 77.623482511561  0.993823380055871 -5.97669341777096 0.993823380055872 -5.97669341777097 0.0460507227280675 77.6127379307445 
! Gamma         0                0                0                0                
! Port Impedance         50               0                50               0                
3.5                            0.0473569621728861 77.5538395190233 0.993701131907375 -6.15044186379158 0.993701131907376 -6.15044186379159 0.0473573754721839 77.5428592684265 
! Gamma         0                0                0                0                
! Port Impedance         50               0                50               0                
3.6                            0.0486616757465864 77.477467267464  0.993576439740145 -6.3240759696258 0.993576439740146 -6.32407596962581 0.0486621019313641 77.4662474039213 
! Gamma         0                0                0                0                
! Port Impedance         50               0                50               0                
3.7                            0.0499644034770867 77.3949633029483 0.99344936207922 -6.49759417185877 0.993449362079221 -6.49759417185879 0.0499648444781318 77.3835000300087 
! Gamma         0                0                0                0                
! Port Impedance         50               0                50               0                
3.8                            0.0512650935333393 77.3068639518312 0.993319957430742 -6.67099511513654 0.993319957430743 -6.67099511513655 0.0512655511708504 77.2951536167264 
! Gamma         0                0                0                0                
! Port Impedance         50               0                50               0                
3.9                            0.0525636992987212 77.2136517633273 0.993188284079723 -6.84427763875518 0.993188284079723 -6.84427763875519 0.0525641752835902 77.2016908535807 
! Gamma         0                0                0                0                
! Port Impedance         50               0                50               0                
4                              0.0538601789534442 77.1157618910416 0.993054399913101 -7.01744076425162 0.993054399913102 -7.01744076425163 0.0538606748886082 77.1035470308826 
! Gamma         0                0                0                0                
! Port Impedance         50               0                50               0                
4.1                            0.0551544951012038 77.0135875857086 0.99291836226469 -7.19048368384422 0.99291836226469 -7.19048368384423 0.0551550124830906 77.001115532403  
! Gamma         0                0                0                0                
! Port Impedance         50               0                50               0                
4.2                            0.0564466144332321 76.9074849403215 0.992780227779267 -7.36340574960154 0.992780227779267 -7.36340574960155 0.0564471546533244 76.8947525804938 
! Gamma         0                0                0                0                
! Port Impedance         50               0                50               0                
4.3                            0.0577365074241514 76.7977770038945 0.992640052293573 -7.53620646324181 0.992640052293574 -7.53620646324182 0.0577370717706839 76.7847813498894 
! Gamma         0                0                0                0                
! Port Impedance         50               0                50               0                
4.4                            0.0590241480550128 76.6847573599766 0.992497890732362 -7.70888546648535 0.992497890732363 -7.70888546648536 0.0590247377148167 76.67149554629   
! Gamma         0                0                0                0                
! Port Impedance         50               0                50               0                
4.5                            0.0603095135597161 76.5686932497288 0.992353797017949 -7.88144253189764 0.992353797017949 -7.88144253189765 0.060310129620218 76.5551625295246 
! Gamma         0                0                0                0                
! Port Impedance         50               0                50               0                
4.6                            0.0615925841916657 76.4498283060952 0.99220782399195 -8.05387755417352 0.99220782399195 -8.05387755417353 0.0615932276430465 76.4360260478155 
! Gamma         0                0                0                0                
! Port Impedance         50               0                50               0                
4.7                            0.0628733430080586 76.3283849547441 0.992060023348081 -8.22619054182287 0.992060023348081 -8.22619054182288 0.062874014745573 76.3143086388135 
! Gamma         0                0                0                0                
! Port Impedance         50               0                50               0                
4.8                            0.0641517756696413 76.2045665285365 0.991910445575032 -8.39838160922631 0.991910445575032 -8.39838160922632 0.0641524764960956 76.1902137441597 
! Gamma         0                0                0                0                
! Port Impedance         50               0                50               0                
4.9                            0.0654278702541344 76.0785591349356 0.991759139908558 -8.57045096903586 0.991759139908558 -8.57045096903586 0.0654286008825197 76.0639275769812 
! Gamma         0                0                0                0                
! Port Impedance         50               0                50               0                
5                              0.0667016170818248 75.9505333096868 0.991606154292012 -8.74239892490022 0.991606154292012 -8.74239892490022 0.0667023781380979 75.9356207756534 
! Gamma         0                0                0                0                
! Port Impedance         50               0                50               0                
5.1                            0.0679730085520678 75.8206454850494 0.991451535344623 -8.91422586449895 0.991451535344622 -8.91422586449894 0.0679738005780712 75.8054498721053 
! Gamma         0                0                0                0                
! Port Impedance         50               0                50               0                
5.2                            0.0692420389896436 75.6890392966527 0.991295328336893 -9.08593225287197 0.991295328336893 -9.08593225287196 0.069242862446156 75.6735585987441 
! Gamma         0                0                0                0                
! Port Impedance         50               0                50               0                
5.3                            0.0705087045000816 75.5558467495288 0.991137577172535 -9.2575186260342 0.991137577172535 -9.2575186260342 0.0705095597699856 75.5400790545487 
! Gamma         0                0                0                0                
! Port Impedance         50               0                50               0                
5.4                            0.071773002833198 75.4211892609219 0.990978324376404 -9.42898558486595 0.990978324376404 -9.42898558486594 0.0717738902247552 75.4051327479351 
! Gamma         0                0                0                0                
! Port Impedance         50               0                50               0                
5.5                            0.0730349332542109 75.2851785949887 0.990817611087938 -9.60033378927184 0.990817611087938 -9.60033378927183 0.0730358530044294 75.2688315315063 
! Gamma         0                0                0                0                
! Port Impedance         50               0                50               0                
5.6                            0.0742944964218843 75.1479177024049 0.990655477059638 -9.77156395260138 0.990655477059637 -9.77156395260137 0.0742954486999663 75.1312784417051 
! Gamma         0                0                0                0                
! Port Impedance         50               0                50               0                
5.7                            0.0755516942732336 75.0095014761178 0.990491960660142 -9.94267683632532 0.990491960660141 -9.94267683632531 0.0755526791840895 74.9925684546083 
! Gamma         0                0                0                0                
! Port Impedance         50               0                50               0                
5.8                            0.0768065299143853 74.8700174329759 0.990327098881506 -10.1136732449623 0.990327098881506 -10.1136732449623 0.0768075475021997 74.8527891675953 
! Gamma         0                0                0                0                
! Port Impedance         50               0                50               0                
5.9                            0.078059007517236 74.7295463296803 0.990160927350283 -10.2845540212501 0.990160927350283 -10.2845540212501 0.078060057769072 74.7120214153358 
! Gamma         0                0                0                0                
! Port Impedance         50               0                50               0                
6                              0.079309132221599 74.588162720408  0.989993480342044 -10.4553200415574 0.989993480342044 -10.4553200415574 0.0793102150710279 74.5703398274481 
! Gamma         0                0                0                0                
! Port Impedance         50               0                50               0                
6.1                            0.0805569100425603 74.4459354625179 0.98982479079901 -10.6259722115291 0.989824790799009 -10.625972211529 0.080558025373302 74.4278133342383 
! Gamma         0                0                0                0                
! Port Impedance         50               0                50               0                
6.2                            0.0818023477827957 74.3029281759437 0.989654890350452 -10.7965114619616 0.989654890350451 -10.7965114619616 0.0818034954323583 74.284505626126  
! Gamma         0                0                0                0                
! Port Impedance         50               0                50               0                
6.3                            0.0830454529496235 74.1591996611861 0.989483809335573 -10.9669387449024 0.989483809335573 -10.9669387449024 0.0830466327129282 74.1404755716692 
! Gamma         0                0                0                0                
! Port Impedance         50               0                50               0                
6.4                            0.084286233676586 74.0148042802193 0.989311576828572 -11.1372550299677 0.989311576828571 -11.1372550299677 0.0842874453095659 73.995777598503  
! Gamma         0                0                0                0                
! Port Impedance         50               0                50               0                
6.5                            0.0855246986493689 73.869792304109  0.989138220665626 -11.3074613008732 0.989138220665626 -11.3074613008732 0.0855259418725312 73.850462040991  
! Gamma         0                0                0                0                
! Port Impedance         50               0                50               0                
6.6                            0.0867608570358822 73.7242102306942 0.988963767473543 -11.4775585521721 0.988963767473543 -11.4775585521721 0.0867621315378212 73.7045754579399 
! Gamma         0                0                0                0                
! Port Impedance         50               0                50               0                
6.7                            0.0879947184203335 73.578101075294  0.988788242699835 -11.6475477861944 0.988788242699834 -11.6475477861944 0.0879960238611854 73.5581609233415 
! Gamma         0                0                0                0                
! Port Impedance         50               0                50               0                
6.8                            0.089226292741136 73.4315046370656 0.988611670644005 -11.8174300101811 0.988611670644005 -11.817430010181 0.0892276287559673 73.4112582927651 
! Gamma         0                0                0                0                
! Port Impedance         50               0                50               0                
6.9                            0.0904555902325003 73.2844577433428 0.988434074489835 -11.9872062336074 0.988434074489834 -11.9872062336073 0.0904569564346184 73.2639044477334 
! Gamma         0                0                0                0                
! Port Impedance         50               0                50               0                
7                              0.0916826213695647 73.136994474029  0.988255476338475 -12.1568774656885 0.988255476338475 -12.1568774656884 0.0916840173537455 73.1161335201517 
! Gamma         0                0                0                0                
! Port Impedance         50               0                50               0                
7.1                            0.0929073968169228 72.989146367892  0.988075897242177 -12.3264447130615 0.988075897242177 -12.3264447130615 0.0929088221625468 72.9679770986427 
! Gamma         0                0                0                0                
! Port Impedance         50               0                50               0                
7.2                            0.0941299273804153 72.8409426124113 0.987895357238479 -12.495908977637 0.987895357238479 -12.495908977637 0.0941313816545052 72.8194644184324 
! Gamma         0                0                0                0                
! Port Impedance         50               0                50               0                
7.3                            0.0953502239620511 72.6924102186549 0.987713875384719 -12.665271254613 0.987713875384718 -12.665271254613 0.0953517067222077 72.6706225362685 
! Gamma         0                0                0                0                
! Port Impedance         50               0                50               0                
7.4                            0.0965682975179337 72.5435741825086 0.987531469792709 -12.8345325306466 0.987531469792709 -12.8345325306465 0.0965698083151611 72.5214764916912 
! Gamma         0                0                0                0                
! Port Impedance         50               0                50               0                
7.5                            0.0977841590190636 72.3944576334481 0.987348157663473 -13.003693782174 0.987348157663473 -13.003693782174 0.0977856974004836 72.3720494558487 
! Gamma         0                0                0                0                
! Port Impedance         50               0                50               0                
7.6                            0.098997819414898 72.2450819719227 0.987163955321897 -13.1727559738755 0.987163955321896 -13.1727559738754 0.0989993849263471 72.2223628689247 
! Gamma         0                0                0                0                
! Port Impedance         50               0                50               0                
7.7                            0.100209289599548 72.0954669963154 0.986978878251217 -13.3417200572757 0.986978878251216 -13.3417200572756 0.100210881788055 72.0724365671429 
! Gamma         0                0                0                0                
! Port Impedance         50               0                50               0                
7.8                            0.101418580380496 71.9456310203493 0.986792941127229 -13.5105869694751 0.986792941127229 -13.5105869694751 0.101420198796636 71.9222889002197 
! Gamma         0                0                0                0                
! Port Impedance         50               0                50               0                
7.9                            0.102625702449719 71.7955909817293 0.986606157852145 -13.6793576320057 0.986606157852145 -13.6793576320057 0.10262734664985 71.7719368400512 
! Gamma         0                0                0                0                
! Port Impedance         50               0                50               0                
8                              0.103830666357115 71.6453625427298 0.98641854158801 -13.8480329498037 0.98641854158801 -13.8480329498036 0.103832335905477 71.621396081348  
! Gamma         0                0                0                0                
! Port Impedance         50               0                50               0                
8.1                            0.105033482486107 71.4949601833775 0.986230104789619 -14.0166138102944 0.986230104789618 -14.0166138102944 0.105035176956809 71.4706811348655 
! Gamma         0                0                0                0                
! Port Impedance         50               0                50               0                
8.2                            0.106234161031337 71.3443972878166 0.986040859236863 -14.1851010825828 0.986040859236862 -14.1851010825828 0.106235880010211 71.3198054138162 
! Gamma         0                0                0                0                
! Port Impedance         50               0                50               0                
8.3                            0.107432711978344 71.1936862243914 0.985850816066471 -14.3534956167436 0.985850816066471 -14.3534956167435 0.107434455064668 71.1687813139998 
! Gamma         0                0                0                0                
! Port Impedance         50               0                50               0                
8.4                            0.108629145085112 71.0428384199342 0.985659985803073 -14.5217982432055 0.985659985803073 -14.5217982432055 0.108630911893219 71.0176202881395 
! Gamma         0                0                0                0                
! Port Impedance         50               0                50               0                
8.5                            0.109823469865409 70.8918644287036 0.98546837838957 -14.6900097722243 0.98546837838957 -14.6900097722242 0.10982526002616 70.8663329148674 
! Gamma         0                0                0                0                
! Port Impedance         50               0                50               0                
8.6                            0.111015695573815 70.7407739963796 0.985276003216763 -14.8581309934386 0.985276003216763 -14.8581309934385 0.111017508735957 70.7149289627682 
! Gamma         0                0                0                0                
! Port Impedance         50               0                50               0                
8.7                            0.112205831192344 70.5895761194885 0.985082869152218 -15.0261626755041 0.985082869152218 -15.026162675504 0.11220766702374 70.5634174498507 
! Gamma         0                0                0                0                
! Port Impedance         50               0                50               0                
8.8                            0.113393885418582 70.4382791005978 0.984888984568346 -15.1941055658007 0.984888984568346 -15.1941055658007 0.113395743607326 70.4118066987906 
! Gamma         0                0                0                0                
! Port Impedance         50               0                50               0                
8.9                            0.114579866655242 70.2868905995951 0.984694357369677 -15.3619603902077 0.984694357369677 -15.3619603902076 0.114581746910652 70.2601043882559 
! Gamma         0                0                0                0                
! Port Impedance         50               0                50               0                
9                              0.11576378300107 70.1354176813366 0.984498995019313 -15.5297278529425 0.984498995019312 -15.5297278529425 0.115765685054569 70.1083176006022 
! Gamma         0                0                0                0                
! Port Impedance         50               0                50               0                
9.1                            0.116945642243007 69.9838668599323 0.984302904564556 -15.697408636459 0.984302904564555 -15.697408636459 0.116947565848889 69.9564528662033 
! Gamma         0                0                0                0                
! Port Impedance         50               0                50               0                
9.2                            0.118125451849537 69.8322441399074 0.984106092661705 -15.8650034013999 0.984106092661705 -15.8650034013998 0.118127396785625 69.8045162046585 
! Gamma         0                0                0                0                
! Port Impedance         50               0                50               0                
9.3                            0.119303218965158 69.680555054468  0.983908565600011 -16.0325127866006 0.983908565600011 -16.0325127866006 0.119305185033351 69.6525131631025 
! Gamma         0                0                0                0                
! Port Impedance         50               0                50               0                
9.4                            0.120478950405878 69.5288047010742 0.983710329324804 -16.19993740914  0.983710329324803 -16.1999374091399 0.120480937432601 69.5004488518226 
! Gamma         0                0                0                0                
! Port Impedance         50               0                50               0                
9.5                            0.121652652655704 69.3769977745144 0.983511389459779 -16.3672778644337 0.983511389459779 -16.3672778644336 0.121654660492251 69.3483279773764 
! Gamma         0                0                0                0                
! Port Impedance         50               0                50               0                
9.6                            0.122824331864025 69.2251385976551 0.983311751328471 -16.5345347263681 0.98331175132847 -16.5345347263681 0.122826360386807 69.1961548733835 
! Gamma         0                0                0                0                
! Port Impedance         50               0                50               0                
9.7                            0.123993993843858 69.0732311500302 0.983111419974894 -16.7017085474702 0.983111419974894 -16.7017085474701 0.123996042954556 69.0439335291569 
! Gamma         0                0                0                0                
! Port Impedance         50               0                50               0                
9.8                            0.125161644070866 68.9212790944203 0.982910400183391 -16.8687998591104 0.982910400183391 -16.8687998591103 0.125163713696496 68.8916676163224 
! Gamma         0                0                0                0                
! Port Impedance         50               0                50               0                
9.9                            0.126327287683124 68.7692858015624 0.982708696497673 -17.0358091717361 0.982708696497673 -17.0358091717361 0.12632937777601 68.7393605135685 
! Gamma         0                0                0                0                
! Port Impedance         50               0                50               0                
10                             0.12749092948155 68.6172543731188 0.982506313239084 -17.2027369751327 0.982506313239084 -17.2027369751326 0.127493040019222 68.5870153296537 
! Gamma         0                0                0                0                
! Port Impedance         50               0                50               0                
10.1                           0.128652573930975 68.4651876630259 0.982303254524096 -17.3695837387086 0.982303254524096 -17.3695837387085 0.128654704915975 68.4346349247934 
! Gamma         0                0                0                0                
! Port Impedance         50               0                50               0                
10.2                           0.129812225161782 68.3130882973339 0.982099524281051 -17.5363499118033 0.982099524281051 -17.5363499118032 0.129814376621401 68.2822219305364 
! Gamma         0                0                0                0                
! Port Impedance         50               0                50               0                
10.3                           0.130969886972079 68.1609586926417 0.981895126266167 -17.7030359240148 0.981895126266167 -17.7030359240147 0.130972058958025 68.1297787682355 
! Gamma         0                0                0                0                
! Port Impedance         50               0                50               0                
10.4                           0.132125562830369 68.0088010732227 0.981690064078828 -17.869642185545 0.981690064078827 -17.8696421855449 0.132127755418353 67.9773076662084 
! Gamma         0                0                0                0                
! Port Impedance         50               0                50               0                
10.5                           0.133279255878651 67.8566174869304 0.981484341176169 -18.0361690875601 0.981484341176168 -18.0361690875601 0.133281469167917 67.824810675677  
! Gamma         0                0                0                0                
! Port Impedance         50               0                50               0                
10.6                           0.134430968935946 67.7044098199687 0.981277960886985 -18.2026170025655 0.981277960886984 -18.2026170025655 0.134433203048735 67.6722896855705 
! Gamma         0                0                0                0                
! Port Impedance         50               0                50               0                
10.7                           0.135580704502179 67.5521798106024 0.981070926424974 -18.3689862847914 0.981070926424974 -18.3689862847913 0.135582959583134 67.5197464362681 
! Gamma         0                0                0                0                
! Port Impedance         50               0                50               0                
10.8                           0.136728464762405 67.3999290618808 0.980863240901338 -18.5352772705892 0.980863240901338 -18.5352772705891 0.136730740977919 67.3671825323529 
! Gamma         0                0                0                0                
! Port Impedance         50               0                50               0                
10.9                           0.137874251591337 67.2476590534419 0.980654907336758 -18.7014902788365 0.980654907336758 -18.7014902788364 0.137876549128848 67.2145994544466 
! Gamma         0                0                0                0                
! Port Impedance         50               0                50               0                
11                             0.139018066558141 67.0953711524589 0.980445928672766 -18.8676256113484 0.980445928672765 -18.8676256113483 0.139020385625381 67.0619985701844 
! Gamma         0                0                0                0                
! Port Impedance         50               0                50               0                
11.1                           0.140159910931479 66.9430666237878 0.980236307782533 -19.033683553295 0.980236307782533 -19.033683553295 0.140162251755671 66.9093811443906 
! Gamma         0                0                0                0                
! Port Impedance         50               0                50               0                
11.2                           0.141299785684762 66.7907466393698 0.980026047481093 -19.1996643736235 0.980026047481093 -19.1996643736234 0.141302148511776 66.7567483485082 
! Gamma         0                0                0                0                
! Port Impedance         50               0                50               0                
11.3                           0.142437691501596 66.63841228694   0.979815150535018 -19.3655683254824 0.979815150535017 -19.3655683254823 0.142440076595067 66.6041012693332 
! Gamma         0                0                0                0                
! Port Impedance         50               0                50               0                
11.4                           0.143573628781391 66.4860645780886 0.979603619671567 -19.5313956466493 0.979603619671567 -19.5313956466492 0.143576036421794 66.4514409171013 
! Gamma         0                0                0                0                
! Port Impedance         50               0                50               0                
11.5                           0.144707597645116 66.3337044557197 0.979391457587333 -19.6971465599586 0.979391457587332 -19.6971465599585 0.144710028128812 66.2987682329705 
! Gamma         0                0                0                0                
! Port Impedance         50               0                50               0                
11.6                           0.145839597941171 66.1813328009475 0.979178666956393 -19.8628212737301 0.979178666956393 -19.8628212737301 0.145842051579416 66.1460840959408 
! Gamma         0                0                0                0                
! Port Impedance         50               0                50               0                
11.7                           0.146969629251367 66.0289504394696 0.978965250437998 -20.0284199821968 0.978965250437998 -20.0284199821968 0.146972106369292 65.9933893292496 
! Gamma         0                0                0                0                
! Port Impedance         50               0                50               0                
11.8                           0.148097690896983 65.8765581474521 0.978751210683801 -20.1939428659309 0.978751210683801 -20.1939428659308 0.148100191832551 65.8406847062786 
! Gamma         0                0                0                0                
! Port Impedance         50               0                50               0                
11.9                           0.149223781944897 65.7241566569604 0.97853655034466 -20.3593900922681 0.97853655034466 -20.359390092268 0.14922630704783 65.6879709560054 
! Gamma         0                0                0                0                
! Port Impedance         50               0                50               0                
12                             0.150347901213764 65.5717466609669 0.978321272077019 -20.5247618157293 0.978321272077018 -20.5247618157292 0.150350450844452 65.5352487680307 
! Gamma         0                0                0                0                
! Port Impedance         50               0                50               0                
12.1                           0.151470047280233 65.4193288179646 0.978105378548891 -20.6900581784383 0.978105378548891 -20.6900581784383 0.151472621808621 65.3825187972112 
! Gamma         0                0                0                0                
! Port Impedance         50               0                50               0                
12.2                           0.152590218485186 65.2669037562138 0.977888872445463 -20.8552793105364 0.977888872445462 -20.8552793105363 0.152592818289643 65.2297816679247 
! Gamma         0                0                0                0                
! Port Impedance         50               0                50               0                
12.3                           0.153708412939987 65.1144720776468 0.977671756474323 -21.0204253305918 0.977671756474322 -21.0204253305917 0.15371103840616 65.0770379779922 
! Gamma         0                0                0                0                
! Port Impedance         50               0                50               0                
12.4                           0.154824628532734 64.9620343614557 0.97745403337035 -21.1854963460051 0.977454033370349 -21.185496346005 0.154827280052387 64.9242883022826 
! Gamma         0                0                0                0                
! Port Impedance         50               0                50               0                
12.5                           0.155938862934495 64.8095911673838 0.97723570590026 -21.350492453409 0.977235705900259 -21.350492453409 0.15594154090434 64.7715331960202 
! Gamma         0                0                0                0                
! Port Impedance         50               0                50               0                
12.6                           0.157051113605526 64.6571430387418 0.977016776866831 -21.5154137390631 0.97701677686683 -21.5154137390631 0.157053818426039 64.6187731978164 
! Gamma         0                0                0                0                
! Port Impedance         50               0                50               0                
12.7                           0.15816137780146 64.5046905051688 0.976797249112828 -21.6802602792422 0.976797249112827 -21.6802602792421 0.158164109875691 64.4660088324458 
! Gamma         0                0                0                0                
! Port Impedance         50               0                50               0                
12.8                           0.159269652579455 64.3522340851558 0.976577125524629 -21.845032140619 0.976577125524628 -21.845032140619 0.159272412311832 64.3132406133828 
! Gamma         0                0                0                0                
! Port Impedance         50               0                50               0                
12.9                           0.160375934804298 64.1997742883469 0.976356409035578 -22.009729380641 0.976356409035578 -22.0097293806409 0.160378722599426 64.1604690451179 
! Gamma         0                0                0                0                
! Port Impedance         50               0                50               0                
13                             0.161480221154462 64.0473116176374 0.976135102629066 -22.1743520478997 0.976135102629066 -22.1743520478997 0.161483037415917 64.0076946252674 
! Gamma         0                0                0                0                
! Port Impedance         50               0                50               0                
13.1                           0.162582508128095 63.8948465710796 0.975913209341365 -22.3389001824945 0.975913209341364 -22.3389001824945 0.162585353257218 63.854917846492  
! Gamma         0                0                0                0                
! Port Impedance         50               0                50               0                
13.2                           0.163682792048953 63.7423796436126 0.975690732264215 -22.503373816389 0.975690732264214 -22.503373816389 0.163685666443643 63.7021391982389 
! Gamma         0                0                0                0                
! Port Impedance         50               0                50               0                
13.3                           0.164781069072267 63.5899113286285 0.975467674547188 -22.6677729737606 0.975467674547187 -22.6677729737606 0.164783973125773 63.5493591683184 
! Gamma         0                0                0                0                
! Port Impedance         50               0                50               0                
13.4                           0.165877335190528 63.4374421193853 0.975244039399827 -22.8320976713435 0.975244039399826 -22.8320976713435 0.165880269290244 63.3965782443282 
! Gamma         0                0                0                0                
! Port Impedance         50               0                50               0                
13.5                           0.166971586239201 63.2849725102806 0.975019830093585 -22.9963479187642 0.975019830093584 -22.9963479187642 0.166974550765465 63.2437969149369 
! Gamma         0                0                0                0                
! Port Impedance         50               0                50               0                
13.6                           0.168063817902362 63.1325029979927 0.974795049963558 -23.1605237188702 0.974795049963557 -23.1605237188702 0.168066813227259 63.0910156710354 
! Gamma         0                0                0                0                
! Port Impedance         50               0                50               0                
13.7                           0.169154025718248 62.9800340825027 0.974569702410043 -23.3246250680517 0.974569702410042 -23.3246250680517 0.169157052204416 62.9382350067679 
! Gamma         0                0                0                0                
! Port Impedance         50               0                50               0                
13.8                           0.170242205084719 62.827566268004  0.974343790899903 -23.4886519565557 0.974343790899902 -23.4886519565557 0.170245263084165 62.7854554204503 
! Gamma         0                0                0                0                
! Port Impedance         50               0                50               0                
13.9                           0.17132835126464 62.6751000637085 0.974117318967782 -23.6526043687936 0.974117318967782 -23.6526043687936 0.171331441117556 62.632677415385  
! Gamma         0                0                0                0                
! Port Impedance         50               0                50               0                
14                             0.172412459391162 62.5226359845572 0.973890290217146 -23.8164822836413 0.973890290217145 -23.8164822836413 0.172415581424761 62.4799015005796 
! Gamma         0                0                0                0                
! Port Impedance         50               0                50               0                
14.1                           0.173494524472927 62.3701745518431 0.973662708321178 -23.9802856747326 0.973662708321177 -23.9802856747325 0.173497679000276 62.3271281913771 
! Gamma         0                0                0                0                
! Port Impedance         50               0                50               0                
14.2                           0.174574541399166 62.217716293753  0.973434577023536 -24.1440145107449 0.973434577023535 -24.1440145107448 0.174577728718034 62.1743580100053 
! Gamma         0                0                0                0                
! Port Impedance         50               0                50               0                
14.3                           0.17565250494471 62.0652617458332 0.973205900138966 -24.3076687556788 0.973205900138965 -24.3076687556787 0.175655725336426 62.0215914860494 
! Gamma         0                0                0                0                
! Port Impedance         50               0                50               0                
14.4                           0.176728409774906 61.9128114513879 0.972976681553796 -24.4712483691301 0.972976681553795 -24.4712483691301 0.176731663503228 61.8688291568567 
! Gamma         0                0                0                0                
! Port Impedance         50               0                50               0                
14.5                           0.17780225045044 61.7603659618128 0.972746925226304 -24.6347533065557 0.972746925226303 -24.6347533065557 0.177805537760434 61.7160715678769 
! Gamma         0                0                0                0                
! Port Impedance         50               0                50               0                
14.6                           0.178874021432063 61.6079258368717 0.972516635186978 -24.7981835195313 0.972516635186977 -24.7981835195313 0.178877342548996 61.5633192729441 
! Gamma         0                0                0                0                
! Port Impedance         50               0                50               0                
14.7                           0.179943717085219 61.4554916449184 0.972285815538661 -24.9615389560045 0.97228581553866 -24.9615389560045 0.179947072213462 61.4105728345044 
! Gamma         0                0                0                0                
! Port Impedance         50               0                50               0                
14.8                           0.181011331684581 61.3030639630704 0.972054470456605 -25.1248195605393 0.972054470456604 -25.1248195605393 0.18101472100653 61.2578328237955 
! Gamma         0                0                0                0                
! Port Impedance         50               0                50               0                
14.9                           0.182076859418496 61.1506433773377 0.971822604188421 -25.2880252745554 0.97182260418842 -25.2880252745554 0.1820802830935  61.1050998209798 
! Gamma         0                0                0                0                
! Port Impedance         50               0                50               0                
15                             0.183140294393323 60.9982304827106 0.971590221053946 -25.4511560365606 0.971590221053945 -25.4511560365606 0.183143752556633 60.9523744152372 
! Gamma         0                0                0                0                
! Port Impedance         50               0                50               0                
15.1                           0.184201630637694 60.8458258832099 0.971357325445024 -25.6142117823769 0.971357325445023 -25.6142117823768 0.18420512339942 60.7996572048202 
! Gamma         0                0                0                0                
! Port Impedance         50               0                50               0                
15.2                           0.185260862106664 60.6934301919032 0.971123921825204 -25.7771924453603 0.971123921825203 -25.7771924453602 0.185264389550751 60.6469487970741 
! Gamma         0                0                0                0                
! Port Impedance         50               0                50               0                
15.3                           0.186317982685782 60.5410440308907 0.970890014729377 -25.940097956615 0.970890014729376 -25.9400979566149 0.186321544869   60.4942498084267 
! Gamma         0                0                0                0                
! Port Impedance         50               0                50               0                
15.4                           0.187372986195061 60.3886680312623 0.970655608763324 -26.102928245201 0.970655608763323 -26.1029282452009 0.187376583146011 60.3415608643495 
! Gamma         0                0                0                0                
! Port Impedance         50               0                50               0                
15.5                           0.188425866392866 60.2363028330297 0.97042070860322 -26.2656832383362 0.970420708603219 -26.2656832383361 0.188429498110996 60.1888825992934 
! Gamma         0                0                0                0                
! Port Impedance         50               0                50               0                
15.6                           0.189476616979698 60.0839490850355 0.970185318995063 -26.4283628615925 0.970185318995062 -26.4283628615925 0.189480283434345 60.0362156566014 
! Gamma         0                0                0                0                
! Port Impedance         50               0                50               0                
15.7                           0.190525231601907 59.9316074448423 0.969949444754052 -26.5909670390868 0.96994944475405 -26.5909670390868 0.190528932731348 59.8835606883999 
! Gamma         0                0                0                0                
! Port Impedance         50               0                50               0                
15.8                           0.191571703855303 59.7792785786021 0.969713090763911 -26.7534956936654 0.96971309076391 -26.7534956936654 0.19157543956582 59.7309183554726 
! Gamma         0                0                0                0                
! Port Impedance         50               0                50               0                
15.9                           0.192616027288685 59.6269631609103 0.969476261976169 -26.9159487470841 0.969476261976168 -26.9159487470841 0.192619797453657 59.5782893271162 
! Gamma         0                0                0                0                
! Port Impedance         50               0                50               0                
16                             0.193658195407289 59.4746618746451 0.969238963409387 -27.0783261201826 0.969238963409386 -27.0783261201825 0.193661999866286 59.4256742809828 
! Gamma         0                0                0                0                
! Port Impedance         50               0                50               0                
16.1                           0.194698201676144 59.3223754107928 0.969001200148343 -27.2406277330531 0.969001200148342 -27.240627733053 0.194702040234052 59.2730739029081 
! Gamma         0                0                0                0                
! Port Impedance         50               0                50               0                
16.2                           0.195736039523353 59.1701044682631 0.968762977343188 -27.4028535052051 0.968762977343187 -27.402853505205 0.195739911949504 59.1204888867282 
! Gamma         0                0                0                0                
! Port Impedance         50               0                50               0                
16.3                           0.196771702343285 59.0178497536937 0.968524300208553 -27.5650033557239 0.968524300208552 -27.5650033557239 0.196775608370614 58.9679199340871 
! Gamma         0                0                0                0                
! Port Impedance         50               0                50               0                
16.4                           0.197805183499698 58.865611981246  0.968285174022631 -27.7270772034254 0.968285174022629 -27.7270772034254 0.197809122823905 58.8153677542344 
! Gamma         0                0                0                0                
! Port Impedance         50               0                50               0                
16.5                           0.198836476328769 58.7133918723944 0.968045604126223 -27.8890749670051 0.968045604126222 -27.8890749670051 0.198840448607511 58.6628330638161 
! Gamma         0                0                0                0                
! Port Impedance         50               0                50               0                
16.6                           0.19986557414206 58.5611901557082 0.967805595921763 -28.0509965651835 0.967805595921762 -28.0509965651834 0.19986957899415 58.5103165866587 
! Gamma         0                0                0                0                
! Port Impedance         50               0                50               0                
16.7                           0.200892470229402 58.409007566629  0.967565154872309 -28.212841916846 0.967565154872307 -28.212841916846 0.200896507234029 58.357819053548  
! Gamma         0                0                0                0                
! Port Impedance         50               0                50               0                
16.8                           0.201917157861701 58.2568448472437 0.967324286500512 -28.3746109411796 0.967324286500511 -28.3746109411796 0.201921226557669 58.2053412020039 
! Gamma         0                0                0                0                
! Port Impedance         50               0                50               0                
16.9                           0.202939630293685 58.104702746054  0.967082996387572 -28.536303557804 0.967082996387571 -28.536303557804 0.202943730178661 58.0528837760509 
! Gamma         0                0                0                0                
! Port Impedance         50               0                50               0                
17                             0.20395988076656 57.952582017743  0.966841290172164 -28.6979196868993 0.966841290172163 -28.6979196868993 0.203964011296352 57.9004475259865 
! Gamma         0                0                0                0                
! Port Impedance         50               0                50               0                
17.1                           0.204977902510614 57.8004834229409 0.966599173549352 -28.8594592493297 0.966599173549351 -28.8594592493297 0.204982063098453 57.7480332081479 
! Gamma         0                0                0                0                
! Port Impedance         50               0                50               0                
17.2                           0.205993688747744 57.648407727988  0.966356652269485 -29.0209221667627 0.966356652269484 -29.0209221667626 0.205997878763588 57.5956415846762 
! Gamma         0                0                0                0                
! Port Impedance         50               0                50               0                
17.3                           0.207007232693911 57.4963557046989 0.966113732137083 -29.1823083617846 0.966113732137082 -29.1823083617845 0.20701145146377 57.4432734232814 
! Gamma         0                0                0                0                
! Port Impedance         50               0                50               0                
17.4                           0.208018527561544 57.3443281301251 0.965870419009706 -29.3436177580126 0.965870419009705 -29.3436177580126 0.208022774366815 57.2909294970063 
! Gamma         0                0                0                0                
! Port Impedance         50               0                50               0                
17.5                           0.209027566561864 57.1923257863191 0.965626718796816 -29.5048502802031 0.965626718796815 -29.504850280203 0.209031840638685 57.1386105839912 
! Gamma         0                0                0                0                
! Port Impedance         50               0                50               0                
17.6                           0.210034342907155 57.0403494600993 0.965382637458626 -29.6660058543554 0.965382637458624 -29.6660058543554 0.210038643445779 56.9863174672392 
! Gamma         0                0                0                0                
! Port Impedance         50               0                50               0                
17.7                           0.211038849812972 56.8883999428154 0.965138181004945 -29.8270844078138 0.965138181004944 -29.8270844078138 0.211043175957153 56.8340509343836 
! Gamma         0                0                0                0                
! Port Impedance         50               0                50               0                
17.8                           0.212041080500284 56.736478030117  0.964893355494015 -29.9880858693647 0.964893355494014 -29.9880858693646 0.21204543134668 56.6818117774555 
! Gamma         0                0                0                0                
! Port Impedance         50               0                50               0                
17.9                           0.213041028197565 56.5845845217233 0.964648167031342 -30.1490101693308 0.964648167031341 -30.1490101693307 0.213045402795162 56.529600792655  
! Gamma         0                0                0                0                
! Port Impedance         50               0                50               0                
18                             0.214038686142824 56.432720221195  0.964402621768519 -30.3098572396627 0.964402621768517 -30.3098572396627 0.214043083492369 56.3774187801234 
! Gamma         0                0                0                0                
! Port Impedance         50               0                50               0                
18.1                           0.215034047585576 56.28088593571   0.964156725902055 -30.4706270140267 0.964156725902054 -30.4706270140266 0.215038466639032 56.2252665437193 
! Gamma         0                0                0                0                
! Port Impedance         50               0                50               0                
18.2                           0.216027105788767 56.1290824758407 0.963910485672194 -30.6313194278896 0.963910485672193 -30.6313194278896 0.216031545448782 56.0731448907961 
! Gamma         0                0                0                0                
! Port Impedance         50               0                50               0                
18.3                           0.217017854030636 55.9773106553352 0.963663907361736 -30.791934418601 0.963663907361735 -30.791934418601 0.217022313150027 55.9210546319836 
! Gamma         0                0                0                0                
! Port Impedance         50               0                50               0                
18.4                           0.218006285606528 55.8255712909016 0.963416997294854 -30.9524719254722 0.963416997294854 -30.9524719254722 0.218010762987784 55.7689965809728 
! Gamma         0                0                0                0                
! Port Impedance         50               0                50               0                
18.5                           0.21899239383066 55.6738652019959 0.963169761835921 -31.1129318898525 0.96316976183592 -31.1129318898524 0.218996888225456 55.6169715543034 
! Gamma         0                0                0                0                
! Port Impedance         50               0                50               0                
18.6                           0.219976172037833 55.5221932106129 0.962922207388322 -31.2733142552027 0.962922207388321 -31.2733142552027 0.219980682146564 55.4649803711554 
! Gamma         0                0                0                0                
! Port Impedance         50               0                50               0                
18.7                           0.220957613585095 55.3705561410821 0.962674340393287 -31.4336189671664 0.962674340393287 -31.4336189671664 0.22096213805642 55.3130238531447 
! Gamma         0                0                0                0                
! Port Impedance         50               0                50               0                
18.8                           0.221936711853355 55.2189548198658 0.962426167328713 -31.5938459736379 0.962426167328712 -31.5938459736379 0.221941249283766 55.1611028241214 
! Gamma         0                0                0                0                
! Port Impedance         50               0                50               0                
18.9                           0.222913460248962 55.0673900753627 0.962177694707991 -31.7539952248282 0.96217769470799 -31.7539952248282 0.222918009182355 55.0092181099733 
! Gamma         0                0                0                0                
! Port Impedance         50               0                50               0                
19                             0.223887852205219 54.9158627377143 0.961928929078846 -31.9140666733285 0.961928929078845 -31.9140666733285 0.223892411132495 54.8573705384324 
! Gamma         0                0                0                0                
! Port Impedance         50               0                50               0                
19.1                           0.224859881183874 54.7643736386159 0.961679877022169 -32.0740602741711 0.961679877022169 -32.0740602741711 0.224864448542538 54.7055609388857 
! Gamma         0                0                0                0                
! Port Impedance         50               0                50               0                
19.2                           0.22582954067655 54.6129236111318 0.961430545150867 -32.233975984888 0.961430545150866 -32.233975984888 0.225834114850343 54.5537901421902 
! Gamma         0                0                0                0                
! Port Impedance         50               0                50               0                
19.3                           0.226796824206149 54.4615134895142 0.961180940108703 -32.3938137655678 0.961180940108703 -32.3938137655678 0.226801403524677 54.4020589804917 
! Gamma         0                0                0                0                
! Port Impedance         50               0                50               0                
19.4                           0.227761725328198 54.3101441090267 0.960931068569159 -32.5535735789095 0.960931068569159 -32.5535735789095 0.227766308066592 54.2503682870483 
! Gamma         0                0                0                0                
! Port Impedance         50               0                50               0                
19.5                           0.228724237632171 54.1588163057717 0.960680937234292 -32.7132553902749 0.960680937234292 -32.7132553902749 0.228728822010747 54.0987188960569 
! Gamma         0                0                0                0                
! Port Impedance         50               0                50               0                
19.6                           0.229684354742764 54.0075309165218 0.960430552833605 -32.8728591677389 0.960430552833606 -32.8728591677389 0.229688938926707 53.9471116424852 
! Gamma         0                0                0                0                
! Port Impedance         50               0                50               0                
19.7                           0.23064207032113 53.8562887785558 0.96017992212292 -33.0323848821373 0.96017992212292 -33.0323848821373 0.230646652420188 53.7955473619069 
! Gamma         0                0                0                0                
! Port Impedance         50               0                50               0                
19.8                           0.231597378066084 53.7050907294986 0.959929051883261 -33.1918325071134 0.959929051883261 -33.1918325071134 0.231601956134276 53.6440268903411 
! Gamma         0                0                0                0                
! Port Impedance         50               0                50               0                
19.9                           0.232550271715263 53.5539376071648 0.959677948919747 -33.3512020191619 0.959677948919747 -33.3512020191619 0.232554843750604 53.4925510640961 
! Gamma         0                0                0                0                
! Port Impedance         50               0                50               0                
20                             0.233500745046263 53.4028302494074 0.959426620060485 -33.5104933976715 0.959426620060485 -33.5104933976715 0.233505308990497 53.3411207196171 
! Gamma         0                0                0                0                
! Port Impedance         50               0                50               0                
