! Touchstone file exported from HFSS 2026.1.0
!        File:           C:/ffzhzh/LocalFiles/Ansys_Project_Files/temp_train_TMRDL_1_1782879288_39248.aedt
!        Generated:      12:16:28 PM Jul  1, 2026
!        Design:         TMRDL
!        Project:        temp_train_TMRDL_1_1782879288_39248
!
! Variables:
!        h_bsmrdl = 2um
!        h_ox = 20um
!        h_rdl = 5um
!        h_sub = 80um
!        h_tmrdl = 5.9um
!        h_tsv = 80um
!        h_via = 3um
!        l_bsmrdl = 300um
!        l_sub = 1320.25um
!        l_tmrdl = 920.25um
!        m_sub = 200um
!        pitch = 44.25um
!        r_tsv = 6um
!        s_tmrdl = 10um
!        w_bsmrdl = 18um
!        w_sub = 500um
!        w_tmrdl = 19.4um
!        x_tsv_center1 = 929.95um
!        x_tsv_center2 = 1247.95um
!        x_tsv_center3 = 2187.6um
!        x_tsv_center4 = 2505.6um
!        x_tsv_center5 = 3445.25um
!        x_tsv_center6 = 3763.25um
!
# GHz S MA R 50.000000
! Terminal data exported
! Port[1] = TM_RDL1_1_T1
! Port[2] = TM_RDL1_1_T2
0.1                            0.0044873302645543 47.771845582045  0.996998160713838 -0.337117382835791 0.996998160713838 -0.337117382835792 0.00448732807841704 47.7720296980429 
! Gamma         0                0                0                0                
! Port Impedance         50               0                50               0                
0.2                            0.00728102123590013 63.369043154751  0.996788849413718 -0.665764026904108 0.996788849413718 -0.665764026903945 0.00728098716344154 63.3693378842069 
! Gamma         0                0                0                0                
! Port Impedance         50               0                50               0                
0.3                            0.0102147897964942 69.8041487697417 0.996600334561765 -0.988558887016055 0.996600334561767 -0.98855888701578 0.010214711433884 69.8048271077547 
! Gamma         0                0                0                0                
! Port Impedance         50               0                50               0                
0.4                            0.0131742540371894 73.3194636668566 0.996445774459245 -1.30932539511158 0.996445774459249 -1.30932539511129 0.013174144811651 73.3205463486306 
! Gamma         0                0                0                0                
! Port Impedance         50               0                50               0                
0.5                            0.0161524547715539 75.5111285286323 0.996308571132787 -1.62965188430623 0.996308571132793 -1.62965188430598 0.0161523264699406 75.5125733959478 
! Gamma         0                0                0                0                
! Port Impedance         50               0                50               0                
0.6                            0.0191468260538138 76.9633421217664 0.996175041473926 -1.94997554962245 0.996175041473934 -1.94997554962226 0.0191466847221855 76.9651135281888 
! Gamma         0                0                0                0                
! Port Impedance         50               0                50               0                
0.7                            0.0221533957449073 77.9534112283434 0.996037119712988 -2.27035039553909 0.996037119712996 -2.27035039553896 0.0221532436125619 77.9554873363098 
! Gamma         0                0                0                0                
! Port Impedance         50               0                50               0                
0.8                            0.0251681504630036 78.6345145482496 0.995890365863061 -2.59072346277042 0.995890365863069 -2.59072346277035 0.0251679877112673 78.6368831741138 
! Gamma         0                0                0                0                
! Port Impedance         50               0                50               0                
0.9                            0.0281876673130476 79.0992629284129 0.995732381987051 -2.91102055959789 0.995732381987059 -2.91102055959788 0.0281874930743441 79.1019175900809 
! Gamma         0                0                0                0                
! Port Impedance         50               0                50               0                
1                              0.0312091909905345 79.4071247781618 0.995561911244407 -3.23117086762299 0.995561911244415 -3.23117086762302 0.0312090038561211 79.4100622270599 
! Gamma         0                0                0                0                
! Port Impedance         50               0                50               0                
1.1                            0.0342305360833071 79.5980279760207 0.995378351933734 -3.55111277869938 0.995378351933742 -3.55111277869946 0.0342303343564174 79.6012467924528 
! Gamma         0                0                0                0                
! Port Impedance         50               0                50               0                
1.2                            0.0372499647983629 79.6997454567396 0.995181492224884 -3.8707942081887 0.995181492224892 -3.87079420818882 0.0372497466220919 79.7032452652163 
! Gamma         0                0                0                0                
! Port Impedance         50               0                50               0                
1.3                            0.0402660828888262 79.7321679040097 0.994971360475408 -4.19017149769859 0.994971360475415 -4.19017149769874 0.0402658463128884 79.7359489321548 
! Gamma         0                0                0                0                
! Port Impedance         50               0                50               0                
1.4                            0.0432777601594684 79.7098971366025 0.994748137246786 -4.50920814747609 0.994748137246792 -4.50920814747628 0.0432775031769587 79.7139599633362 
! Gamma         0                0                0                0                
! Port Impedance         50               0                50               0                
1.5                            0.046284071916032 79.6438821810611 0.994512101287477 -4.82787370900023 0.994512101287484 -4.82787370900043 0.0462837924853236 79.6482275901282 
! Gamma         0                0                0                0                
! Port Impedance         50               0                50               0                
1.6                            0.0492842561662656 79.5424853468079 0.994263594885592 -5.14614288708712 0.994263594885598 -5.14614288708734 0.0492839522254567 79.5471142398972 
! Gamma         0                0                0                0                
! Port Impedance         50               0                50               0                
1.7                            0.0522776821260721 79.412196500203  0.994003000686797 -5.46399482291958 0.994003000686802 -5.46399482291982 0.0522773516036195 79.4171098443896 
! Gamma         0                0                0                0                
! Port Impedance         50               0                50               0                
1.8                            0.0552638267009482 79.2581234545233 0.993730725568327 -5.78141251598988 0.993730725568332 -5.78141251599013 0.0552634675242708 79.2633222498423 
! Gamma         0                0                0                0                
! Port Impedance         50               0                50               0                
1.9                            0.058242256575069 79.0843360298997 0.993447189036048 -6.09838234810073 0.993447189036053 -6.09838234810099 0.0582418666779714 79.0898212889417 
! Gamma         0                0                0                0                
! Port Impedance         50               0                50               0                
2                              0.0612126142605448 78.8941121901562 0.99315281464625 -6.41489368138848 0.993152814646255 -6.41489368138873 0.0612121915898498 78.8998849249677 
! Gamma         0                0                0                0                
! Port Impedance         50               0                50               0                
2.1                            0.0641746069700076 78.6901172538778 0.992848023539134 -6.73093851035187 0.992848023539137 -6.73093851035212 0.0641741494915607 78.6961784673838 
! Gamma         0                0                0                0                
! Port Impedance         50               0                50               0                
2.2                            0.0671279975295957 78.4745364865575 0.992533229509818 -7.0465111540974 0.992533229509821 -7.04651115409765 0.067127503233696 78.4808871668384 
! Gamma         0                0                0                0                
! Port Impedance         50               0                50               0                
2.3                            0.0700725967925074 78.2491746526973 0.992208835243071 -7.36160797953175 0.992208835243074 -7.361607979532  0.0700720636987725 78.2558157691088 
! Gamma         0                0                0                0                
! Port Impedance         50               0                50               0                
2.4                            0.073008257179829 78.0155317780087 0.991875229458767 -7.67622714939017 0.99187522945877 -7.67622714939042 0.0730076833414892 78.0224642785231 
! Gamma         0                0                0                0                
! Port Impedance         50               0                50               0                
2.5                            0.0759348670894374 77.7748615305759 0.99153278478942 -7.99036839113642 0.991532784789422 -7.99036839113665 0.0759342505970526 77.7820863399584 
! Gamma         0                0                0                0                
! Port Impedance         50               0                50               0                
2.6                            0.0788523459919901 77.5282167306792 0.991181856257792 -8.304032784192  0.991181856257793 -8.30403278419222 0.0788516849765907 77.5357347492554 
! Gamma         0                0                0                0                
! Port Impedance         50               0                50               0                
2.7                            0.0817606400866341 77.2764852082458 0.990822780252656 -8.61722256386523 0.990822780252657 -8.61722256386544 0.0817599327222963 77.2842973111035 
! Gamma         0                0                0                0                
! Port Impedance         50               0                50               0                
2.8                            0.0846597184257924 77.0204183361904 0.990455873920779 -8.92994094091279 0.99045587392078 -8.92994094091299 0.0846589629316673 77.0285253727149 
! Gamma         0                0                0                0                
! Port Impedance         50               0                50               0                
2.9                            0.087549569443468 76.7606539445376 0.990081434907012 -9.2421919359902 0.990081434907013 -9.24219193599039 0.087548764085292 76.7690567382078 
! Gamma         0                0                0                0                
! Port Impedance         50               0                50               0                
3                              0.0904301978385584 76.4977348782245 0.989699741384463 -9.5539802284144 0.989699741384464 -9.55398022841458 0.0904293409296788 76.5064342266245 
! Gamma         0                0                0                0                
! Port Impedance         50               0                50               0                
3.1                            0.093301621776202 76.2321241442916 0.989311052324418 -9.86531101872742 0.989311052324419 -9.86531101872758 0.093300711678156 76.2411208192988 
! Gamma         0                0                0                0                
! Port Impedance         50               0                50               0                
3.2                            0.0961638703779055 75.9642173639437 0.988915607961964 -10.1761899045547 0.988915607961964 -10.1761899045548 0.096162905500594 75.9735121120677 
! Gamma         0                0                0                0                
! Port Impedance         50               0                50               0                
3.3                            0.0990169814763527 75.6943530761032 0.988513630418526 -10.4866227692228 0.988513630418527 -10.4866227692229 0.0990159602778526 75.7039466189508 
! Gamma         0                0                0                0                
! Port Impedance         50               0                50               0                
3.4                            0.101860999614203 75.4228213139668 0.988105324447251 -10.7966156825576 0.988105324447251 -10.7966156825577 0.101859920600261 75.4327143488157 
! Gamma         0                0                0                0                
! Port Impedance         50               0                50               0                
3.5                            0.10469597426845 75.1498707825249 0.987690878271311 -11.1061748132356 0.987690878271311 -11.1061748132357 0.1046948359917  75.1600639829873 
! Gamma         0                0                0                0                
! Port Impedance         50               0                50               0                
3.6                            0.107521958283431 74.8757148943985 0.987270464489099 -11.4153063520199 0.9872704644891  -11.41530635202  0.107520759342378 74.8862089111609 
! Gamma         0                0                0                0                
! Port Impedance         50               0                50               0                
3.7                            0.11033900649664 74.6005368676182 0.986844241023748 -11.7240164451782 0.986844241023748 -11.7240164451783 0.110337745534447 74.6113323292428 
! Gamma         0                0                0                0                
! Port Impedance         50               0                50               0                
3.8                            0.113147174542291 74.3244940477349 0.986412352097664 -12.0323111373576 0.986412352097664 -12.0323111373577 0.113145850245408 74.3355915615095 
! Gamma         0                0                0                0                
! Port Impedance         50               0                50               0                
3.9                            0.115946517818232 74.0477215847483 0.985974929215736 -12.3401963231802 0.985974929215736 -12.3401963231802 0.115945128914899 74.0591217375752 
! Gamma         0                0                0                0                
! Port Impedance         50               0                50               0                
4                              0.118737090602395 73.7703355704773 0.985532092143511 -12.6476777068246 0.985532092143511 -12.6476777068247 0.118735635861051 73.782038929789  
! Gamma         0                0                0                0                
! Port Impedance         50               0                50               0                
4.1                            0.12151894530554 73.4924357224554 0.985083949869105 -12.9547607688694 0.985083949869105 -12.9547607688694 0.121517423533162 73.5044428371481 
! Gamma         0                0                0                0                
! Port Impedance         50               0                50               0                
4.2                            0.124292131847659 73.2141076849788 0.984630601539753 -13.2614507396923 0.984630601539753 -13.2614507396924 0.124290541888063 73.226419086356  
! Gamma         0                0                0                0                
! Port Impedance         50               0                50               0                
4.3                            0.127056697146003 72.9354250056136 0.984172137365823 -13.5677525787497 0.984172137365823 -13.5677525787497 0.12705503787812 72.948041208332  
! Gamma         0                0                0                0                
! Port Impedance         50               0                50               0                
4.4                            0.129812684703344 72.6564508355783 0.983708639486808 -13.8736709590886 0.983708639486808 -13.8736709590886 0.129810955039495 72.669372338589  
! Gamma         0                0                0                0                
! Port Impedance         50               0                50               0                
4.5                            0.132560134285764 72.3772393944267 0.983240182795292 -14.1792102564858 0.983240182795292 -14.1792102564859 0.132558333169948 72.390466681907  
! Gamma         0                0                0                0                
! Port Impedance         50               0                50               0                
4.6                            0.135299081679948 72.0978372329554 0.982766835716099 -14.4843745426443 0.9827668357161  -14.4843745426443 0.135297208086157 72.1113707752252 
! Gamma         0                0                0                0                
! Port Impedance         50               0                50               0                
4.7                            0.13802955852063 71.8182843229373 0.982288660938968 -14.7891675819199 0.982288660938969 -14.7891675819199 0.138027611451205 71.8321245773569 
! Gamma         0                0                0                0                
! Port Impedance         50               0                50               0                
4.8                            0.140751592179596 71.5386149979    0.981805716103936 -15.0935928310955 0.981805716103936 -15.0935928310955 0.140749570663628 71.5527624097458 
! Gamma         0                0                0                0                
! Port Impedance         50               0                50               0                
4.9                            0.143465205708273 71.2588587655364 0.981318054439398 -15.3976534417576 0.981318054439399 -15.3976534417576 0.143463108800058 71.273313768851  
! Gamma         0                0                0                0                
! Port Impedance         50               0                50               0                
5                              0.146170417826653 70.9790410093082 0.980825725353412 -15.7013522648755 0.980825725353413 -15.7013522648754 0.146168244604214 70.9938040277235 
! Gamma         0                0                0                0                
! Port Impedance         50               0                50               0                
5.1                            0.148867242951942 70.6991835942723 0.980328774979278 -16.0046918572195 0.980328774979279 -16.0046918572194 0.148864992515608 70.7142550418036 
! Gamma         0                0                0                0                
! Port Impedance         50               0                50               0                
5.2                            0.151555691260934 70.4193053900272 0.979827246676842 -16.3076744892949 0.979827246676843 -16.3076744892949 0.151553362731995 70.4346856718368 
! Gamma         0                0                0                0                
! Port Impedance         50               0                50               0                
5.3                            0.154235768780737 70.1394227218753 0.979321181491241 -16.6103021545018 0.979321181491242 -16.6103021545018 0.154233361300167 70.1551122350052 
! Gamma         0                0                0                0                
! Port Impedance         50               0                50               0                
5.4                            0.156907477503   69.8595497597696 0.978810618571007 -16.912576579265 0.978810618571008 -16.912576579265 0.156904990230245 69.8755488938427 
! Gamma         0                0                0                0                
! Port Impedance         50               0                50               0                
5.5                            0.159570815517342 69.5796988533089 0.97829559554763 -17.2144992339098 0.978295595547632 -17.2144992339098 0.159568247629188 69.5960079911986 
! Gamma         0                0                0                0                
! Port Impedance         50               0                50               0                
5.6                            0.16222577716016 69.2998808199352 0.977776148878728 -17.516071344086 0.977776148878729 -17.516071344086 0.162223127849668 69.316500338403  
! Gamma         0                0                0                0                
! Port Impedance         50               0                50               0                
5.7                            0.164872353175437 69.0201051925301 0.977252314157039 -17.8172939025699 0.97725231415704 -17.8172939025699 0.164869621650949 69.0370354628323 
! Gamma         0                0                0                0                
! Port Impedance         50               0                50               0                
5.8                            0.1675105308846  68.7403804317878 0.976724126387461 -18.1181676812964 0.976724126387462 -18.1181676812964 0.16750771636881 68.7576218202514 
! Gamma         0                0                0                0                
! Port Impedance         50               0                50               0                
5.9                            0.170140294362835 68.4607141080345 0.976191620234318 -18.4186932434956 0.97619162023432 -18.4186932434956 0.170137396091929 68.4782669766029 
! Gamma         0                0                0                0                
! Port Impedance         50               0                50               0                
6                              0.172761624619612 68.1811130565542 0.975654830241005 -18.7188709558255 0.975654830241007 -18.7188709558255 0.172758641842476 68.1989777633031 
! Gamma         0                0                0                0                
! Port Impedance         50               0                50               0                
6.1                            0.175374499781508 67.9015835099484 0.975113791024087 -19.0187010004123 0.975113791024089 -19.0187010004123 0.175371431758986 67.9197604095744 
! Gamma         0                0                0                0                
! Port Impedance         50               0                50               0                
6.2                            0.177978895275639 67.6221312106054 0.974568537443846 -19.3181833867211 0.974568537443847 -19.3181833867211 0.177975741279866 67.6406206548858 
! Gamma         0                0                0                0                
! Port Impedance         50               0                50               0                
6.3                            0.180574784012332 67.3427615059494 0.97401910475319 -19.6173179631963 0.974019104753192 -19.6173179631963 0.180571543326107 67.3615638441765 
! Gamma         0                0                0                0                
! Port Impedance         50               0                50               0                
6.4                            0.183162136565816 67.0634794288    0.973465528726729 -19.916104428622 0.973465528726731 -19.916104428622 0.183158808482042 67.0825950081894 
! Gamma         0                0                0                0                
! Port Impedance         50               0                50               0                
6.5                            0.185740921351971 66.7842897648672 0.972907845771726 -20.2145423431601 0.972907845771728 -20.2145423431601 0.18573750517314 66.8037189309422 
! Gamma         0                0                0                0                
! Port Impedance         50               0                50               0                
6.6                            0.188311104802309 66.5051971091487 0.97234609302253 -20.5126311390382 0.972346093022531 -20.5126311390382 0.18830759984003 66.5249402061008 
! Gamma         0                0                0                0                
! Port Impedance         50               0                50               0                
6.7                            0.190872651533521 66.2262059127635 0.971780308420001 -20.8103701308614 0.971780308420002 -20.8103701308614 0.190869057108105 66.2462632837918 
! Gamma         0                0                0                0                
! Port Impedance         50               0                50               0                
6.8                            0.193425524512081 65.947320521562  0.971210530777318 -21.1077585255323 0.971210530777319 -21.1077585255323 0.193421839952159 65.9676925091902 
! Gamma         0                0                0                0                
! Port Impedance         50               0                50               0                
6.9                            0.195969685213479 65.6685452076728 0.970636799833486 -21.4047954317685 0.970636799833488 -21.4047954317685 0.19596590985566 65.6892321540473 
! Gamma         0                0                0                0                
! Port Impedance         50               0                50               0                
7                              0.19850509377578 65.3898841950006 0.97005915629574 -21.7014798692105 0.970059156295742 -21.7014798692105 0.198501226964352 65.410886442169  
! Gamma         0                0                0                0                
! Port Impedance         50               0                50               0                
7.1                            0.2010317091473  65.1113416795531 0.969477641871963 -21.9978107771187 0.969477641871964 -21.9978107771187 0.20102775023396 65.132659569725  
! Gamma         0                0                0                0                
! Port Impedance         50               0                50               0                
7.2                            0.203549489228233 64.8329218453609 0.968892299294154 -22.2937870226604 0.968892299294156 -22.2937870226604 0.203545437571852 64.8545557211518 
! Gamma         0                0                0                0                
! Port Impedance         50               0                50               0                
7.3                            0.206058391006171 64.5546288766538 0.968303172333894 -22.5894074087909 0.968303172333895 -22.5894074087909 0.206054245972587 64.5765790813126 
! Gamma         0                0                0                0                
! Port Impedance         50               0                50               0                
7.4                            0.208558370685471 64.2764669668671 0.967710305810654 -22.8846706817353 0.967710305810655 -22.8846706817353 0.20855413164731 64.2987338444892 
! Gamma         0                0                0                0                
! Port Impedance         50               0                50               0                
7.5                            0.211049383810501 63.9984403249773 0.967113745593779 -23.1795755380793 0.96711374559378 -23.1795755380793 0.211045050147023 64.0210242207031 
! Gamma         0                0                0                0                
! Port Impedance         50               0                50               0                
7.6                            0.213531385382821 63.7205531795961 0.966513538598835 -23.4741206314787 0.966513538598837 -23.4741206314787 0.21352695647979 63.7434544397962 
! Gamma         0                0                0                0                
! Port Impedance         50               0                50               0                
7.7                            0.216004329972382 63.4428097811968 0.965909732779015 -23.768304578999 0.965909732779016 -23.768304578999 0.215999805221957 63.4660287536446 
! Gamma         0                0                0                0                
! Port Impedance         50               0                50               0                
7.8                            0.218468171822871 63.1652144027921 0.965302377112175 -24.0621259670963 0.965302377112176 -24.0621259670963 0.218463550623515 63.1887514368251 
! Gamma         0                0                0                0                
! Port Impedance         50               0                50               0                
7.9                            0.220922864951323 62.887771339342  0.964691521584083 -24.3555833572526 0.964691521584084 -24.3555833572526 0.220918146707732 62.9116267860117 
! Gamma         0                0                0                0                
! Port Impedance         50               0                50               0                
8                              0.223368363242171 62.6104849061275 0.96407721716834 -24.6486752912785 0.964077217168341 -24.6486752912786 0.223363547365217 62.6346591183391 
! Gamma         0                0                0                0                
! Port Impedance         50               0                50               0                
8.1                            0.22580462053588 62.3333594362959 0.963459515803464 -24.941400296296 0.963459515803465 -24.941400296296 0.22579970644257 62.3578527689384 
! Gamma         0                0                0                0                
! Port Impedance         50               0                50               0                
8.2                            0.228231590712359 62.0563992777506 0.962838470367505 -25.2337568894147 0.962838470367506 -25.2337568894147 0.228226577825806 62.0812120878182 
! Gamma         0                0                0                0                
! Port Impedance         50               0                50               0                
8.3                            0.230649227769318 61.7796087895362 0.962214134650591 -25.5257435821163 0.962214134650592 -25.5257435821163 0.230644115518721 61.8047414362407 
! Gamma         0                0                0                0                
! Port Impedance         50               0                50               0                
8.4                            0.233057485895761 61.5029923378435 0.961586563325714 -25.8173588843576 0.961586563325715 -25.8173588843576 0.233052273716403 61.5284451827197 
! Gamma         0                0                0                0                
! Port Impedance         50               0                50               0                
8.5                            0.235456319540809 61.2265542917441 0.960955811918073 -26.1086013084085 0.960955811918074 -26.1086013084085 0.235451006874055 61.2523276987472 
! Gamma         0                0                0                0                
! Port Impedance         50               0                50               0                
8.6                            0.23784568347803 60.9502990187439 0.960321936773222 -26.3994693724345 0.960321936773223 -26.3994693724346 0.237840269771338 60.9763933543404 
! Gamma         0                0                0                0                
! Port Impedance         50               0                50               0                
8.7                            0.240225532865473 60.6742308802322 0.959684995024283 -26.6899616038392 0.959684995024283 -26.6899616038392 0.240220017572413 60.7006465134846 
! Gamma         0                0                0                0                
! Port Impedance         50               0                50               0                
8.8                            0.24259582330159 60.3983542268903 0.95904504455842 -26.9800765423758 0.959045044558421 -26.9800765423758 0.242590205881862 60.425091529536  
! Gamma         0                0                0                0                
! Port Impedance         50               0                50               0                
8.9                            0.24495651087722 60.1226733941121 0.958402143982794 -27.2698127430424 0.958402143982795 -27.2698127430424 0.244950790796689 60.1497327406366 
! Gamma         0                0                0                0                
! Port Impedance         50               0                50               0                
9                              0.247307552223832 59.8471926974813 0.95775635259013 -27.55916877877  0.957756352590131 -27.55916877877  0.247301728954553 59.8745744651865 
! Gamma         0                0                0                0                
! Port Impedance         50               0                50               0                
9.1                            0.249648904558183 59.5719164283393 0.95710773032409 -27.8481432429153 0.95710773032409 -27.8481432429153 0.24964297757844 59.5996209974076 
! Gamma         0                0                0                0                
! Port Impedance         50               0                50               0                
9.2                            0.251980525723572 59.2968488494737 0.956456337744557 -28.1367347515684 0.956456337744557 -28.1367347515684 0.251974494517915 59.3248766030268 
! Gamma         0                0                0                0                
! Port Impedance         50               0                50               0                
9.3                            0.254302374227849 59.0219941909494 0.955802235992969 -28.424941945686 0.95580223599297 -28.424941945686 0.254296238287134 59.050345515104  
! Gamma         0                0                0                0                
! Port Impedance         50               0                50               0                
9.4                            0.256614409278347 58.7473566461003 0.9551454867578  -28.7127634930583 0.9551454867578  -28.7127634930583 0.256608168099776 58.7760319300202 
! Gamma         0                0                0                0                
! Port Impedance         50               0                50               0                
9.5                            0.258916590813871 58.4729403676951 0.954486152240271 -29.0001980901208 0.954486152240271 -29.0001980901208 0.258910243901037 58.5019400036393 
! Gamma         0                0                0                0                
! Port Impedance         50               0                50               0                
9.6                            0.261208879533925 58.1987494642866 0.953824295120403 -29.2872444636176 0.953824295120403 -29.2872444636176 0.261202426396848 58.2280738476546 
! Gamma         0                0                0                0                
! Port Impedance         50               0                50               0                
9.7                            0.263491236925276 57.9247879967515 0.953159978523445 -29.5739013721265 0.953159978523445 -29.5739013721265 0.263484677080452 57.9544375261259 
! Gamma         0                0                0                0                
! Port Impedance         50               0                50               0                
9.8                            0.265763625286037 57.6510599750235 0.952493265986771 -29.8601676074524 0.952493265986771 -29.8601676074524 0.265756958256473 57.68103505221   
! Gamma         0                0                0                0                
! Port Impedance         50               0                50               0                
9.9                            0.26802600774736 57.3775693550243 0.951824221427278 -30.1460419958972 0.951824221427278 -30.1460419958972 0.268019233062619 57.407870385089  
! Gamma         0                0                0                0                
! Port Impedance         50               0                50               0                
10                             0.270278348292894 57.1043200357884 0.951152909109341 -30.4315233994134 0.951152909109341 -30.4315233994134 0.27027146548913 57.1349474270936 
! Gamma         0                0                0                0                
! Port Impedance         50               0                50               0                
10.1                           0.272520611776106 56.8313158567847 0.950479393613362 -30.7166107166476 0.950479393613362 -30.7166107166476 0.272513620396099 56.8622700210217 
! Gamma         0                0                0                0                
! Port Impedance         50               0                50               0                
10.2                           0.274752763935592 56.5585605954277 0.949803739804945 -31.0013028838817 0.949803739804945 -31.0013028838817 0.274745663528788 56.5898419476493 
! Gamma         0                0                0                0                
! Port Impedance         50               0                50               0                
10.3                           0.276974771408488 56.2860579647789 0.949126012804727 -31.2855988758757 0.949126012804727 -31.2855988758757 0.276967561531027 56.3176669234286 
! Gamma         0                0                0                0                
! Port Impedance         50               0                50               0                
10.4                           0.279186601742072 56.0138116114297 0.948446277958882 -31.5694977066204 0.948446277958882 -31.5694977066204 0.279179281956818 56.0457485983707 
! Gamma         0                0                0                0                
! Port Impedance         50               0                50               0                
10.5                           0.28138822340367 55.7418251135636 0.947764600810322 -31.8529984300039 0.947764600810322 -31.8529984300038 0.28138079328024 55.7740905541065 
! Gamma         0                0                0                0                
! Port Impedance         50               0                50               0                
10.6                           0.283579605788956 55.4701019791914 0.947081047070608 -32.1361001403967 0.947081047070608 -32.1361001403967 0.283572064903738 55.5026963021197 
! Gamma         0                0                0                0                
! Port Impedance         50               0                50               0                
10.7                           0.285760719228729 55.1986456445514 0.946395682592578 -32.4188019731626 0.946395682592578 -32.4188019731626 0.285753067164909 55.2315692821471 
! Gamma         0                0                0                0                
! Port Impedance         50               0                50               0                
10.8                           0.287931534994262 54.9274594726717 0.945708573343707 -32.7011031050971 0.945708573343706 -32.7011031050971 0.287923771341838 54.9607128607395 
! Gamma         0                0                0                0                
! Port Impedance         50               0                50               0                
10.9                           0.290092025301304 54.6565467520848 0.945019785380191 -32.9830027547998 0.945019785380191 -32.9830027547998 0.290084149657098 54.6901303299754 
! Gamma         0                0                0                0                
! Port Impedance         50               0                50               0                
11                             0.292242163312801 54.3859106956902 0.944329384821778 -33.264500182984 0.944329384821778 -33.264500182984 0.292234175280474 54.4198249063237 
! Gamma         0                0                0                0                
! Port Impedance         50               0                50               0                
11.1                           0.294381923140424 54.1155544397579 0.943637437827324 -33.5455946927281 0.943637437827323 -33.5455946927281 0.29437382233048 54.1497997296454 
! Gamma         0                0                0                0                
! Port Impedance         50               0                50               0                
11.2                           0.296511279844966 53.8454810430651 0.942944010571082 -33.8262856296714 0.942944010571082 -33.8262856296714 0.296503065874753 53.8800578623309 
! Gamma         0                0                0                0                
! Port Impedance         50               0                50               0                
11.3                           0.298630209435672 53.5756934861616 0.942249169219735 -34.1065723821589 0.942249169219735 -34.1065723821589 0.298621881929384 53.6106022885646 
! Gamma         0                0                0                0                
! Port Impedance         50               0                50               0                
11.4                           0.300738688868575 53.3061946707557 0.941552979910135 -34.386454381338 0.941552979910135 -34.3864543813379 0.300730247457248 53.3414359137106 
! Gamma         0                0                0                0                
! Port Impedance         50               0                50               0                
11.5                           0.302836696043885 53.0369874192155 0.940855508727776 -34.6659311012097 0.940855508727776 -34.6659311012097 0.302828140365389 53.0725615638135 
! Gamma         0                0                0                0                
! Port Impedance         50               0                50               0                
11.6                           0.304924209802502 52.7680744741796 0.940156821685969 -34.9450020586386 0.940156821685969 -34.9450020586386 0.304915539501528 52.8039819852091 
! Gamma         0                0                0                0                
! Port Impedance         50               0                50               0                
11.7                           0.307001209921694 52.4994584982694 0.939456984705734 -35.2236668133224 0.939456984705733 -35.2236668133224 0.306992424649739 52.5356998442372 
! Gamma         0                0                0                0                
! Port Impedance         50               0                50               0                
11.8                           0.309067677110001 52.2311420739006 0.938756063596366 -35.5019249677261 0.938756063596365 -35.501924967726 0.309058776525351 52.267717727052  
! Gamma         0                0                0                0                
! Port Impedance         50               0                50               0                
11.9                           0.311123593001407 51.9631277031849 0.938054124036707 -35.7797761669806 0.938054124036707 -35.7797761669806 0.311114576769113 52.0000381395247 
! Gamma         0                0                0                0                
! Port Impedance         50               0                50               0                
12                             0.313168940148831 51.6954178079192 0.937351231557081 -36.0572200987509 0.937351231557081 -36.0572200987509 0.313159807940685 51.7326635072323 
! Gamma         0                0                0                0                
! Port Impedance         50               0                50               0                
12.1                           0.315203702016982 51.4280147296556 0.936647451521892 -36.3342564930732 0.936647451521892 -36.3342564930732 0.315194453511486 51.465596175528  
! Gamma         0                0                0                0                
! Port Impedance         50               0                50               0                
12.2                           0.317227862974613 51.1609207298477 0.935942849112879 -36.6108851221657 0.935942849112879 -36.6108851221657 0.317218497856947 51.1988384096875 
! Gamma         0                0                0                0                
! Port Impedance         50               0                50               0                
12.3                           0.319241408286223 50.894137990069  0.935237489313005 -36.887105800213 0.935237489313005 -36.8871058002129 0.31923192624821 50.9323923951281 
! Gamma         0                0                0                0                
! Port Impedance         50               0                50               0                
12.4                           0.321244324103234 50.6276686122983 0.934531436890983 -37.1629183831269 0.934531436890983 -37.1629183831268 0.321234724843302 50.6662602376935 
! Gamma         0                0                0                0                
! Port Impedance         50               0                50               0                
12.5                           0.323236597454692 50.3615146192678 0.933824756386405 -37.4383227682857 0.933824756386405 -37.4383227682856 0.323226880677829 50.4004439640032 
! Gamma         0                0                0                0                
! Port Impedance         50               0                50               0                
12.6                           0.325218216237513 50.0956779548704 0.933117512095488 -37.7133188942527 0.933117512095488 -37.7133188942526 0.325208381655227 50.1349455218591 
! Gamma         0                0                0                0                
! Port Impedance         50               0                50               0                
12.7                           0.327189169206316 49.8301604846213 0.932409768057397 -37.987906740476 0.932409768057397 -37.9879067404759 0.327179216536584 49.8697667807085 
! Gamma         0                0                0                0                
! Port Impedance         50               0                50               0                
12.8                           0.329149445962872 49.5649639961711 0.931701588041157 -38.2620863269711 0.931701588041157 -38.262086326971 0.329139374930093 49.6049095321569 
! Gamma         0                0                0                0                
! Port Impedance         50               0                50               0                
12.9                           0.331099036945193 49.3000901998667 0.930993035533121 -38.5358577139878 0.930993035533121 -38.5358577139877 0.331088847280131 49.3403754905295 
! Gamma         0                0                0                0                
! Port Impedance         50               0                50               0                
13                             0.333037933416294 49.0355407293558 0.930284173724998 -38.8092210016622 0.930284173724999 -38.8092210016621 0.333027624856029 49.0761662934765 
! Gamma         0                0                0                0                
! Port Impedance         50               0                50               0                
13.1                           0.334966127452653 48.7713171422333 0.929575065502413 -39.0821763296555 0.929575065502413 -39.0821763296554 0.334955699740522 48.8122835026193 
! Gamma         0                0                0                0                
! Port Impedance         50               0                50               0                
13.2                           0.336883611932399 48.507420920725  0.928865773433995 -39.3547238767808 0.928865773433995 -39.3547238767807 0.336873064817935 48.5487286042354 
! Gamma         0                0                0                0                
! Port Impedance         50               0                50               0                
13.3                           0.33879038052324 48.2438534724072 0.928156359760984 -39.6268638606187 0.928156359760984 -39.6268638606186 0.338779713762114 48.2855030099777 
! Gamma         0                0                0                0                
! Port Impedance         50               0                50               0                
13.4                           0.340686427670169 47.9806161309579 0.92744688638733 -39.8985965371229 0.92744688638733 -39.8985965371228 0.340675641024126 48.0226080576273 
! Gamma         0                0                0                0                
! Port Impedance         50               0                50               0                
13.5                           0.342571748582952 47.7177101569388 0.92673741487029 -40.1699222002169 0.926737414870291 -40.1699222002168 0.34256084181975 47.760045011875  
! Gamma         0                0                0                0                
! Port Impedance         50               0                50               0                
13.6                           0.344446339223443 47.4551367386042 0.926028006411494 -40.4408411813823 0.926028006411495 -40.4408411813822 0.344435312116784 47.4978150651318 
! Gamma         0                0                0                0                
! Port Impedance         50               0                50               0                
13.7                           0.346310196292719 47.1928969927358 0.925318721848474 -40.7113538492405 0.925318721848475 -40.7113538492404 0.346299048622185 47.2359193383629 
! Gamma         0                0                0                0                
! Port Impedance         50               0                50               0                
13.8                           0.348163317218071 46.9309919654996 0.924609621646652 -40.9814606091275 0.924609621646652 -40.9814606091274 0.348152048769057 46.9743588819466 
! Gamma         0                0                0                0                
! Port Impedance         50               0                50               0                
13.9                           0.350005700139864 46.6694226333243 0.923900765891758 -41.2511619026631 0.923900765891758 -41.251161902663 0.349994310703511 46.7131346765527 
! Gamma         0                0                0                0                
! Port Impedance         50               0                50               0                
14                             0.351837343898284 46.4081899037996 0.923192214282683 -41.5204582073157 0.923192214282684 -41.5204582073157 0.351825833271408 46.4522476340409 
! Gamma         0                0                0                0                
! Port Impedance         50               0                50               0                
14.1                           0.353658248019986 46.14729461659   0.922484026124746 -41.7893500359626 0.922484026124747 -41.7893500359626 0.353646616005009 46.1916985983761 
! Gamma         0                0                0                0                
! Port Impedance         50               0                50               0                
14.2                           0.355468412704654 45.8867375443658 0.92177626032336 -42.0578379364468 0.921776260323361 -42.0578379364467 0.355456659109539 45.9314883465597 
! Gamma         0                0                0                0                
! Port Impedance         50               0                50               0                
14.3                           0.357267838811506 45.6265193937473 0.921068975378099 -42.3259224911309 0.921068975378099 -42.3259224911308 0.357255963449685 45.6716175895739 
! Gamma         0                0                0                0                
! Port Impedance         50               0                50               0                
14.4                           0.35905652784573 45.3666408062617 0.920362229377142 -42.5936043164489 0.920362229377142 -42.5936043164488 0.359044530536036 45.4120869733402 
! Gamma         0                0                0                0                
! Port Impedance         50               0                50               0                
14.5                           0.360834481944891 45.1071023593108 0.919656079992088 -42.8608840624562 0.919656079992089 -42.8608840624562 0.360822362511489 45.1528970796869 
! Gamma         0                0                0                0                
! Port Impedance         50               0                50               0                
14.6                           0.362601703865301 44.8479045671487 0.918950584473135 -43.1277624123783 0.918950584473135 -43.1277624123783 0.362589462137621 44.8940484273278 
! Gamma         0                0                0                0                
! Port Impedance         50               0                50               0                
14.7                           0.364358196968379 44.5890478818674 0.918245799644601 -43.3942400821585 0.918245799644602 -43.3942400821585 0.36434583278105 44.6355414728484 
! Gamma         0                0                0                0                
! Port Impedance         50               0                50               0                
14.8                           0.366103965207002 44.3305326943904 0.917541781900794 -43.6603178200059 0.917541781900795 -43.6603178200058 0.366091478399785 44.3773766117003 
! Gamma         0                0                0                0                
! Port Impedance         50               0                50               0                
14.9                           0.367839013111864 44.0723593354719 0.916838587202201 -43.9259964059428 0.916838587202202 -43.9259964059428 0.367826403529588 44.1195541792008 
! Gamma         0                0                0                0                
! Port Impedance         50               0                50               0                
15                             0.369563345777848 43.8145280767011 0.916136271072004 -44.1912766513537 0.916136271072005 -44.1912766513537 0.369550613270347 43.8620744515377 
! Gamma         0                0                0                0                
! Port Impedance         50               0                50               0                
15.1                           0.37127696885043 43.5570391315109 0.915434888592899 -44.4561593985339 0.9154348885929  -44.4561593985339 0.371264113272482 43.6049376467791 
! Gamma         0                0                0                0                
! Port Impedance         50               0                50               0                
15.2                           0.372979888512111 43.2998926561893 0.914734494404218 -44.7206455202406 0.914734494404219 -44.7206455202406 0.372966909723377 43.3481439258853 
! Gamma         0                0                0                0                
! Port Impedance         50               0                50               0                
15.3                           0.374672111468898 43.0430887508938 0.914035142699342 -44.9847359192447 0.914035142699343 -44.9847359192447 0.374659009333867 43.0916933937236 
! Gamma         0                0                0                0                
! Port Impedance         50               0                50               0                
15.4                           0.376353644936834 42.7866274606666 0.913336887223391 -45.2484315278853 0.913336887223392 -45.2484315278853 0.376340419324766 42.8355861000842 
! Gamma         0                0                0                0                
! Port Impedance         50               0                50               0                
15.5                           0.378024496628591 42.5305087764512 0.912639781271187 -45.5117333076257 0.912639781271188 -45.5117333076257 0.378011147413467 42.5798220406978 
! Gamma         0                0                0                0                
! Port Impedance         50               0                50               0                
15.6                           0.37968467474013 42.2747326361084 0.911943877685484 -45.7746422486127 0.911943877685486 -45.7746422486126 0.379671201800598 42.3244011582519 
! Gamma         0                0                0                0                
! Port Impedance         50               0                50               0                
15.7                           0.381334187937437 42.0192989254324 0.91124922885545 -46.0371593692377 0.911249228855451 -46.0371593692377 0.381320591156768 42.0693233434072 
! Gamma         0                0                0                0                
! Port Impedance         50               0                50               0                
15.8                           0.382973045343334 41.7642074791649 0.910555886715388 -46.299285715702 0.910555886715389 -46.299285715702 0.382959324609378 41.8145884358134 
! Gamma         0                0                0                0                
! Port Impedance         50               0                50               0                
15.9                           0.384601256524393 41.509458082008  0.909863902743708 -46.5610223615841 0.909863902743709 -46.5610223615841 0.384587411729537 41.5601962251215 
! Gamma         0                0                0                0                
! Port Impedance         50               0                50               0                
16                             0.386218831477925 41.2550504696348 0.90917332796212 -46.8223704074113 0.90917332796212 -46.8223704074113 0.386204862519058 41.3061464519958 
! Gamma         0                0                0                0                
! Port Impedance         50               0                50               0                
16.1                           0.387825780619086 41.0009843296961 0.908484212935046 -47.0833309802347 0.908484212935046 -47.0833309802347 0.387811687397564 41.0524388091209 
! Gamma         0                0                0                0                
! Port Impedance         50               0                50               0                
16.2                           0.389422114768081 40.7472593028254 0.907796607769256 -47.3439052332079 0.907796607769256 -47.3439052332079 0.389407897189698 40.7990729422074 
! Gamma         0                0                0                0                
! Port Impedance         50               0                50               0                
16.3                           0.391007845137475 40.4938749836387 0.907110562113702 -47.6040943451696 0.907110562113703 -47.6040943451696 0.39099350311244 40.5460484509923 
! Gamma         0                0                0                0                
! Port Impedance         50               0                50               0                
16.4                           0.39258298331963 40.2408309217308 0.906426125159555 -47.8638995202308 0.906426125159555 -47.8638995202307 0.392568516762542 40.2933648902358 
! Gamma         0                0                0                0                
! Port Impedance         50               0                50               0                
16.5                           0.394147541274249 39.9881266226672 0.905743345640431 -48.1233219873657 0.905743345640432 -48.1233219873657 0.394132950104086 40.0410217707141 
! Gamma         0                0                0                0                
! Port Impedance         50               0                50               0                
16.6                           0.395701531316059 39.7357615489705 0.905062271832809 -48.3823630000076 0.90506227183281 -48.3823630000076 0.395686815456163 39.7890185602058 
! Gamma         0                0                0                0                
! Port Impedance         50               0                50               0                
16.7                           0.397244966102608 39.4837351211022 0.904382951556615 -48.6410238356488 0.904382951556616 -48.6410238356488 0.397230125480678 39.5373546844749 
! Gamma         0                0                0                0                
! Port Impedance         50               0                50               0                
16.8                           0.398777858622204 39.2320467184385 0.903705432175989 -48.8993057954455 0.90370543217599 -48.8993057954456 0.398762893170298 39.2860295282467 
! Gamma         0                0                0                0                
! Port Impedance         50               0                50               0                
16.9                           0.400300222181989 38.9806956802405 0.903029760600212 -49.1572102038275 0.903029760600213 -49.1572102038275 0.400285131836524 39.0350424361789 
! Gamma         0                0                0                0                
! Port Impedance         50               0                50               0                
17                             0.401812070396145 38.7296813066183 0.902355983284793 -49.4147384081122 0.902355983284794 -49.4147384081122 0.40179685509791 38.7843927138259 
! Gamma         0                0                0                0                
! Port Impedance         50               0                50               0                
17.1                           0.403313417174254 38.4790028594889 0.901684146232705 -49.6718917781242 0.901684146232705 -49.6718917781242 0.403298076868421 38.5340796285977 
! Gamma         0                0                0                0                
! Port Impedance         50               0                50               0                
17.2                           0.404804276709791 38.2286595635272 0.901014294995771 -49.9286717058198 0.901014294995772 -49.9286717058198 0.404788811345942 38.2841024107109 
! Gamma         0                0                0                0                
! Port Impedance         50               0                50               0                
17.3                           0.406284663468774 37.9786506071108 0.900346474676192 -50.185079604916 0.900346474676193 -50.185079604916 0.406269073000922 38.0344602541346 
! Gamma         0                0                0                0                
! Port Impedance         50               0                50               0                
17.4                           0.407754592178562 37.7289751432573 0.899680729928204 -50.4411169105255 0.899680729928205 -50.4411169105255 0.407738876565189 37.7851523175277 
! Gamma         0                0                0                0                
! Port Impedance         50               0                50               0                
17.5                           0.409214077816804 37.4796322905554 0.899017104959872 -50.696785078796 0.899017104959872 -50.696785078796 0.409198237020898 37.5361777251707 
! Gamma         0                0                0                0                
! Port Impedance         50               0                50               0                
17.6                           0.410663135600545 37.2306211340874 0.898355643534997 -50.9520855865555 0.898355643534998 -50.9520855865556 0.410647169589649 37.287535567889  
! Gamma         0                0                0                0                
! Port Impedance         50               0                50               0                
17.7                           0.41210178097549 36.9819407263457 0.897696388975156 -51.2070199309626 0.897696388975157 -51.2070199309626 0.412085689721753 37.0392249039694 
! Gamma         0                0                0                0                
! Port Impedance         50               0                50               0                
17.8                           0.413530029605425 36.7335900881412 0.897039384161843 -51.4615896291616 0.897039384161844 -51.4615896291616 0.413513813085665 36.791244760069  
! Gamma         0                0                0                0                
! Port Impedance         50               0                50               0                
17.9                           0.4149478973618  36.4855682095037 0.896384671538725 -51.7157962179439 0.896384671538725 -51.715796217944 0.41493155555757 36.5435941321169 
! Gamma         0                0                0                0                
! Port Impedance         50               0                50               0                
18                             0.416355400313474 36.2378740505753 0.895732293113997 -51.9696412534144 0.895732293113997 -51.9696412534144 0.416338933211136 36.2962719862068 
! Gamma         0                0                0                0                
! Port Impedance         50               0                50               0                
18.1                           0.417752554716625 35.9905065424957 0.895082290462844 -52.2231263106625 0.895082290462844 -52.2231263106625 0.417735962307435 36.0492772594837 
! Gamma         0                0                0                0                
! Port Impedance         50               0                50               0                
18.2                           0.41913937700482 35.7434645882792 0.894434704729987 -52.4762529834398 0.894434704729988 -52.4762529834399 0.419122659285017 35.802608861021  
! Gamma         0                0                0                0                
! Port Impedance         50               0                50               0                
18.3                           0.420515883779263 35.4967470636846 0.893789576632329 -52.7290228838424 0.893789576632329 -52.7290228838424 0.420499040750165 35.5562656726908 
! Gamma         0                0                0                0                
! Port Impedance         50               0                50               0                
18.4                           0.421882091799191 35.2503528180764 0.893146946461674 -52.9814376419985 0.893146946461674 -52.9814376419985 0.421865123467305 35.3102465500254 
! Gamma         0                0                0                0                
! Port Impedance         50               0                50               0                
18.5                           0.42323801797246 35.0042806752778 0.892506854087542 -53.2334989057623 0.892506854087542 -53.2334989057624 0.423220924349593 35.0645503230714 
! Gamma         0                0                0                0                
! Port Impedance         50               0                50               0                
18.6                           0.424583679346283 34.7585294344163 0.891869338960051 -53.4852083404123 0.891869338960051 -53.4852083404124 0.424566460449665 34.8191757972346 
! Gamma         0                0                0                0                
! Port Impedance         50               0                50               0                
18.7                           0.425919093098146 34.5130978707605 0.891234440112874 -53.7365676283555 0.891234440112874 -53.7365676283555 0.425901748950561 34.5741217541183 
! Gamma         0                0                0                0                
! Port Impedance         50               0                50               0                
18.8                           0.42724427652689 34.2679847365493 0.890602196166268 -53.9875784688369 0.890602196166269 -53.9875784688369 0.427226807156817 34.3293869523516 
! Gamma         0                0                0                0                
! Port Impedance         50               0                50               0                
18.9                           0.428559247043969 34.0231887618116 0.889972645330166 -54.2382425776546 0.889972645330167 -54.2382425776547 0.428541652485728 34.0849701284112 
! Gamma         0                0                0                0                
! Port Impedance         50               0                50               0                
19                             0.429864022164871 33.7787086551799 0.889345825407334 -54.4885616868802 0.889345825407334 -54.4885616868802 0.429846302458783 33.8408699974334 
! Gamma         0                0                0                0                
! Port Impedance         50               0                50               0                
19.1                           0.431158619500719 33.5345431046935 0.88872177379658 -54.7385375445837 0.88872177379658 -54.7385375445838 0.431140774693271 33.5970852540192 
! Gamma         0                0                0                0                
! Port Impedance         50               0                50               0                
19.2                           0.432443056750036 33.2906907785946 0.888100527496027 -54.9881719145656 0.888100527496027 -54.9881719145657 0.432425086894055 33.3536145730301 
! Gamma         0                0                0                0                
! Port Impedance         50               0                50               0                
19.3                           0.433717351690688 33.0471503261162 0.887482123106431 -55.2374665760922 0.887482123106431 -55.2374665760922 0.433699256845528 33.1104566103761 
! Gamma         0                0                0                0                
! Port Impedance         50               0                50               0                
19.4                           0.434981522171991 32.8039203782614 0.88686659683455 -55.4864233236377 0.88686659683455 -55.4864233236377 0.434963302403727 32.8676100037954 
! Gamma         0                0                0                0                
! Port Impedance         50               0                50               0                
19.5                           0.436235586106996 32.560999548574  0.886253984496556 -55.7350439666307 0.886253984496556 -55.7350439666307 0.436217241488627 32.6250733736262 
! Gamma         0                0                0                0                
! Port Impedance         50               0                50               0                
19.6                           0.437479561464945 32.3183864339022 0.885644321521495 -55.9833303292065 0.885644321521495 -55.9833303292065 0.437461092076607 32.3828453235691 
! Gamma         0                0                0                0                
! Port Impedance         50               0                50               0                
19.7                           0.438713466263891 32.0760796151528 0.885037642954777 -56.2312842499643 0.885037642954777 -56.2312842499643 0.438694872193084 32.1409244414428 
! Gamma         0                0                0                0                
! Port Impedance         50               0                50               0                
19.8                           0.439937318563501 31.8340776580378 0.884433983461715 -56.4789075817292 0.884433983461715 -56.4789075817292 0.439918599905318 31.8993092999304 
! Gamma         0                0                0                0                
! Port Impedance         50               0                50               0                
19.9                           0.441151136458015 31.5923791138127 0.883833377331083 -56.7262021913203 0.883833377331083 -56.7262021913203 0.44113229331539 31.6579984573183 
! Gamma         0                0                0                0                
! Port Impedance         50               0                50               0                
20                             0.44235493806939 31.3509825200067 0.88323585847872 -56.9731699593227 0.88323585847872 -56.9731699593227 0.442335970553346 31.4169904582262 
! Gamma         -0               -0               0                0                
! Port Impedance         50               0                50               0                
