! Touchstone file exported from HFSS 2026.1.0
!        File:           C:/ffzhzh/LocalFiles/Ansys_Project_Files/temp_train_TSV_196_1782991614_40604.aedt
!        Generated:      07:28:19 PM Jul  2, 2026
!        Design:         TSV
!        Project:        temp_train_TSV_196_1782991614_40604
!
! Variables:
!        h_bsmrdl = 2um
!        h_ox = 20um
!        h_rdl = 5um
!        h_sub = 79.26um
!        h_tmrdl = 5um
!        h_tsv = 79.26um
!        h_via = 3um
!        l_bsmrdl = 300um
!        l_sub = 425.58um
!        l_tmrdl = 200um
!        m_sub = 200um
!        pitch = 57.23um
!        r_tsv = 12.79um
!        s_tmrdl = 10um
!        w_bsmrdl = 18um
!        w_sub = 500um
!        w_tmrdl = 12um
!        x_tsv_center1 = 206um
!        x_tsv_center2 = 524um
!        x_tsv_center3 = 736um
!        x_tsv_center4 = 1054um
!        x_tsv_center5 = 1266um
!        x_tsv_center6 = 1584um
!
# GHz S MA R 50.000000
! Terminal data exported
! Port[1] = TSV1_1_T1
! Port[2] = TSV1_1_T2
0.1                            0.000144855262675346 53.4327227089685 0.999913782005714 -0.0436681386435696 0.999913782005716 -0.0436681386435682 0.000144855261031278 53.4327049688421 
! Gamma         0                0                0                0                
! Port Impedance         50               0                50               0                
0.2                            0.000249873697024874 66.7560644263362 0.999901955079828 -0.0871691144492058 0.99990195507983 -0.0871691144492046 0.00024987366816509 66.755983131503  
! Gamma         0                0                0                0                
! Port Impedance         50               0                50               0                
0.3                            0.00035721074203642 70.9141599213089 0.999884389488512 -0.130382435277259 0.999884389488514 -0.130382435277261 0.000357210524309349 70.9140357302806 
! Gamma         0                0                0                0                
! Port Impedance         50               0                50               0                
0.4                            0.000460693532203825 72.5221385430805 0.999863442391946 -0.173255955101591 0.999863442391948 -0.173255955101597 0.000460692995034048 72.5219899419043 
! Gamma         0                0                0                0                
! Port Impedance         50               0                50               0                
0.5                            0.000559105769285744 73.2561370770827 0.999841258148741 -0.215798145655702 0.999841258148743 -0.215798145655713 0.000559104849617994 73.255977735874  
! Gamma         0                0                0                0                
! Port Impedance         50               0                50               0                
0.6                            0.000652698668468008 73.683878006282  0.999819408721966 -0.258054719959335 0.999819408721968 -0.258054719959352 0.000652697374160211 73.6837162563876 
! Gamma         0                0                0                0                
! Port Impedance         50               0                50               0                
0.7                            0.000742254356606788 74.0203067059707 0.999798843267959 -0.300085302196162 0.999798843267961 -0.300085302196183 0.000742252747570596 74.0201461519658 
! Gamma         0                0                0                0                
! Port Impedance         50               0                50               0                
0.8                            0.000828668627147125 74.3451738647177 0.999780009561449 -0.34194787241453 0.999780009561451 -0.341947872414554 0.00082866679077615 74.3450146325286 
! Gamma         0                0                0                0                
! Port Impedance         50               0                50               0                
0.9                            0.000912758935773121 74.6827242046778 0.999763019426935 -0.383691367657908 0.999763019426937 -0.383691367657932 0.000912756966681795 74.6825642537    
! Gamma         0                0                0                0                
! Port Impedance         50               0                50               0                
1                              0.000995194892938488 75.0348651585879 0.999747790731777 -0.425353783287474 0.999747790731779 -0.425353783287499 0.0009951928799576 75.0347013459706 
! Gamma         0                0                0                0                
! Port Impedance         50               0                50               0                
1.1                            0.00107649115623943 75.3956293566696 0.999734146837506 -0.466963060906536 0.999734146837508 -0.46696306090656 0.00107648917579079 75.3954581737223 
! Gamma         0                0                0                0                
! Port Impedance         50               0                50               0                
1.2                            0.00115702692580821 75.7573864114778 0.999721877793741 -0.50853897596847 0.999721877793742 -0.508538975968492 0.00115702503965004 75.7572044322799 
! Gamma         0                0                0                0                
! Port Impedance         50               0                50               0                
1.3                            0.00123707303211455 76.1132966841854 0.999710774150892 -0.550095108114458 0.999710774150893 -0.550095108114478 0.00123707128761935 76.113100803554  
! Gamma         0                0                0                0                
! Port Impedance         50               0                50               0                
1.4                            0.00131681792028391 76.4580730674737 0.999700643467192 -0.591640527059475 0.999700643467193 -0.591640527059492 0.0013168163519521 76.4578606015336 
! Gamma         0                0                0                0                
! Port Impedance         50               0                50               0                
1.5                            0.0013963893843342 76.7880220303788 0.999691316787504 -0.633181107079631 0.999691316787506 -0.633181107079645 0.00139638801575413 76.7877907355297 
! Gamma         0                0                0                0                
! Port Impedance         50               0                50               0                
1.6                            0.00147587153002958 77.1008161603811 0.999682649746761 -0.67472050087173 0.999682649746762 -0.674720500871741 0.00147587037585707 77.1005642084324 
! Gamma         0                0                0                0                
! Port Impedance         50               0                50               0                
1.7                            0.00155531749909848 77.3952007789613 0.999674521053504 -0.716260839599488 0.999674521053506 -0.716260839599496 0.00155531656685468 77.3949267120121 
! Gamma         0                0                0                0                
! Port Impedance         50               0                50               0                
1.8                            0.00163475878592278 77.6707181156448 0.999666829891435 -0.757803226869945 0.999666829891437 -0.757803226869949 0.00163475807753743 77.6704207944373 
! Gamma         0                0                0                0                
! Port Impedance         50               0                50               0                
1.9                            0.00171421195530576 77.9274773048737 0.999659493048348 -0.799348083221661 0.999659493048349 -0.799348083221661 0.00171421146839858 77.9271558580254 
! Gamma         0                0                0                0                
! Port Impedance         50               0                50               0                
2                              0.00179368343731879 78.1659742573965 0.999652442166902 -0.840895384470211 0.999652442166903 -0.84089538447021 0.00179368316624228 78.1656280350917 
! Gamma         0                0                0                0                
! Port Impedance         50               0                50               0                
2.1                            0.00187317292505198 78.3869559786661 0.999645621285134 -0.882444825631228 0.999645621285136 -0.882444825631223 0.00187317286172955 78.3865845121867 
! Gamma         0                0                0                0                
! Port Impedance         50               0                50               0                
2.2                            0.00195267576841615 78.591321156889  0.999638984716581 -0.923995933039292 0.999638984716583 -0.923995933039284 0.00195267590301085 78.5909241241739 
! Gamma         0                0                0                0                
! Port Impedance         50               0                50               0                
2.3                            0.00203218465123832 78.7800489517722 0.999632495262236 -0.965548140551731 0.999632495262237 -0.965548140551721 0.00203218497268418 78.7796261486067 
! Gamma         0                0                0                0                
! Port Impedance         50               0                50               0                
2.4                            0.00211169075866365 78.9541490629131 0.999626122721512 -1.00710084090605 0.999626122721514 -1.00710084090604 0.00211169125508687 78.9537003790977 
! Gamma         0                0                0                0                
! Port Impedance         50               0                50               0                
2.5                            0.00219118458287453 79.1146275310916 0.999619842661229 -1.04865341990885 0.99961984266123 -1.04865341990884 0.00219118524192691 79.1141529308766 
! Gamma         0                0                0                0                
! Port Impedance         50               0                50               0                
2.6                            0.00227065647249616 79.2624639955916 0.999613635401723 -1.09020527877264 0.999613635401725 -1.09020527877263 0.00227065728161895 79.2619635016924 
! Gamma         0                0                0                0                
! Port Impedance         50               0                50               0                
2.7                            0.00235009700055558 79.3985971883246 0.999607485183002 -1.13175584828149 0.999607485183003 -1.13175584828148 0.00235009794718785 79.3980708689039 
! Gamma         0                0                0                0                
! Port Impedance         50               0                50               0                
2.8                            0.00242949720416498 79.5239162802405 0.999601379478862 -1.17330459733588 0.999601379478863 -1.17330459733586 0.00242949827590792 79.5233642383306 
! Gamma         0                0                0                0                
! Port Impedance         50               0                50               0                
2.9                            0.0025088487337113 79.6392563337979 0.99959530843206 -1.21485103764597 0.999595308432061 -1.21485103764595 0.00250884991845716 79.6386786987152 
! Gamma         0                0                0                0                
! Port Impedance         50               0                50               0                
3                              0.00258814393842738 79.7453965937586 0.999589264388298 -1.25639472580241 0.9995892643883  -1.25639472580239 0.00258814522445998 79.7447935141459 
! Gamma         0                0                0                0                
! Port Impedance         50               0                50               0                
3.1                            0.00266737590748616 79.8430607026125 0.999583241510862 -1.29793526357924 0.999583241510863 -1.29793526357922 0.0026673772835584 79.842432340804  
! Gamma         0                0                0                0                
! Port Impedance         50               0                50               0                
3.2                            0.00274653848026821 79.9329181865482 0.999577235461148 -1.33947229706347 0.99957723546115 -1.33947229706345 0.00274653993566087 79.9322647140139 
! Gamma         0                0                0                0                
! Port Impedance         50               0                50               0                
3.3                            0.00282562623554661 80.0155867470306 0.999571243133156 -1.38100551502526 0.999571243133158 -1.38100551502524 0.00282562776011177 80.0149083406986 
! Gamma         0                0                0                0                
! Port Impedance         50               0                50               0                
3.4                            0.0029046344665481 80.0916350301772 0.999565262432257 -1.42253464681599 0.999565262432258 -1.42253464681597 0.00290463605073986 80.0909318694736 
! Gamma         0                0                0                0                
! Port Impedance         50               0                50               0                
3.5                            0.00298355914685903 80.1615856451409 0.999559292090439 -1.46405945999356 0.999559292090441 -1.46405945999354 0.00298356078175379 80.1608579096157 
! Gamma         0                0                0                0                
! Port Impedance         50               0                50               0                
3.6                            0.00306239689071891 80.2259182739269 0.9995533315117  -1.50557975781234 0.999553331511702 -1.50557975781232 0.00306239856802686 80.2251661413598 
! Gamma         0                0                0                0                
! Port Impedance         50               0                50               0                
3.7                            0.00314114491022035 80.285072766101  0.999547380642421 -1.54709537667184 0.999547380642422 -1.54709537667182 0.00314114662228967 80.2842964110019 
! Gamma         0                0                0                0                
! Port Impedance         50               0                50               0                
3.8                            0.00321980097119748 80.3394521482395 0.999541439862552 -1.5886061835878 0.999541439862554 -1.58860618358778 0.00321980271101244 80.3386517406723 
! Gamma         0                0                0                0                
! Port Impedance         50               0                50               0                
3.9                            0.00329836334905357 80.3894255037803 0.999535509894187 -1.63011207372805 0.999535509894189 -1.63011207372803 0.00329836511022753 80.3886012084541 
! Gamma         0                0                0                0                
! Port Impedance         50               0                50               0                
4                              0.00337683078539484 80.4353306971085 0.9995295917247  -1.67161296804044 0.999529591724702 -1.67161296804042 0.003376832562159 80.434482672689  
! Gamma         0                0                0                0                
! Port Impedance         50               0                50               0                
4.1                            0.00345520244606011 80.4774769283779 0.999523686542153 -1.71310881098975 0.999523686542155 -1.71310881098973 0.00345520423324868 80.4766053269806 
! Gamma         0                0                0                0                
! Port Impedance         50               0                50               0                
4.2                            0.00353347788093497 80.5161471142904 0.999517795681055 -1.75459956841317 0.999517795681057 -1.75459956841315 0.00353347967396748 80.5152520811241 
! Gamma         0                0                0                0                
! Port Impedance         50               0                50               0                
4.3                            0.00361165698579421 80.5516000959392 0.99951192057688 -1.79608522549874 0.999511920576882 -1.79608522549872 0.00361165878065542 80.5506817690739 
! Gamma         0                0                0                0                
! Port Impedance         50               0                50               0                
4.4                            0.00368973996631127 80.5840726786943 0.999506062728026 -1.83756578488781 0.999506062728028 -1.83756578488779 0.00368974175952922 80.5831311889314 
! Gamma         0                0                0                0                
! Port Impedance         50               0                50               0                
4.5                            0.00376772730429792 80.6137815115399 0.999500223664111 -1.87904126490007 0.999500223664112 -1.87904126490005 0.00376772909292044 80.6128169823668 
! Gamma         0                0                0                0                
! Port Impedance         50               0                50               0                
4.6                            0.00384561972618322 80.6409248147051 0.999494404919656 -1.9205116978782 0.999494404919658 -1.92051169787819 0.00384562150775335 80.6399373623194 
! Gamma         0                0                0                0                
! Port Impedance         50               0                50               0                
4.7                            0.00392341817370258 80.6656839651509 0.999488608012392 -1.96197712864802 0.999488608012394 -1.96197712864801 0.0039234199462332 80.6646736985406 
! Gamma         0                0                0                0                
! Port Impedance         50               0                50               0                
4.8                            0.00400112377674046 80.6882249497188 0.999482834425498 -2.00343761308942 0.9994828344255  -2.00343761308941 0.00400112553868836 80.6871919707894 
! Gamma         0                0                0                0                
! Port Impedance         50               0                50               0                
4.9                            0.00407873782825191 80.7086996956624 0.99947708559322 -2.04489321681312 0.999477085593222 -2.04489321681311 0.00407873957849159 80.7076440994004 
! Gamma         0                0                0                0                
! Port Impedance         50               0                50               0                
5                              0.00415626176117571 80.7272472879852 0.999471362889374 -2.08634401393784 0.999471362889376 -2.08634401393783 0.00415626349897313 80.7261691626508 
! Gamma         0                0                0                0                
! Port Impedance         50               0                50               0                
5.1                            0.00423369712724414 80.7439950825759 0.999465667618326 -2.12779008596259 0.999465667618328 -2.12779008596259 0.00423369885223064 80.742894509919  
! Gamma         0                0                0                0                
! Port Impedance         50               0                50               0                
5.2                            0.00431104557759013 80.7590597236246 0.999460001008078 -2.16923152072883 0.99946000100808 -2.16923152072883 0.00431104728973651 80.7579367791183 
! Gamma         0                0                0                0                
! Port Impedance         50               0                50               0                
5.3                            0.0043883088450503 80.7725480732577 0.999454364205167 -2.2106684114672 0.999454364205169 -2.2106684114672 0.00438831054464146 80.7714028263445 
! Gamma         0                0                0                0                
! Port Impedance         50               0                50               0                
5.4                            0.00446548872806278 80.784558060769  0.999448758271102 -2.25210085592384 0.999448758271104 -2.25210085592383 0.00446549041567284 80.7833905751155 
! Gamma         0                0                0                0                
! Port Impedance         50               0                50               0                
5.5                            0.00454258707605967 80.7951794582745 0.999443184180102 -2.29352895556131 0.999443184180104 -2.2935289555613 0.00454258875252773 80.7939897920326 
! Gamma         0                0                0                0                
! Port Impedance         50               0                50               0                
5.6                            0.00461960577625631 80.8044945890862 0.999437642817951 -2.33495281482951 0.999437642817953 -2.3349528148295 0.00461960744266296 80.8032827951563 
! Gamma         0                0                0                0                
! Port Impedance         50               0                50               0                
5.7                            0.00469654674174253 80.8125789745914 0.999432134981783 -2.3763725405019 0.999432134981785 -2.37637254050189 0.00469654839938716 80.8113451008865 
! Gamma         0                0                0                0                
! Port Impedance         50               0                50               0                
5.8                            0.00477341190078455 80.8195019249469 0.999426661380649 -2.41778824107283 0.999426661380651 -2.41778824107283 0.00477341355116351 80.818246014655  
! Gamma         0                0                0                0                
! Port Impedance         50               0                50               0                
5.9                            0.00485020318724983 80.8253270784542 0.999421222636744 -2.45920002621182 0.999421222636746 -2.45920002621182 0.00485020483203542 80.8240491702971 
! Gamma         0                0                0                0                
! Port Impedance         50               0                50               0                
6                              0.00492692253207125 80.8301128940634 0.999415819287161 -2.50060800627071 0.999415819287162 -2.50060800627071 0.00492692417309173 80.8288130225518 
! Gamma         0                0                0                0                
! Port Impedance         50               0                50               0                
6.1                            0.00500357185567126 80.8339131010771 0.999410451786095 -2.54201229184022 0.999410451786097 -2.54201229184022 0.00500357349489174 80.8325912967595 
! Gamma         0                0                0                0                
! Port Impedance         50               0                50               0                
6.2                            0.00508015306127059 80.8367771097715 0.999405120507398 -2.58341299335208 0.9994051205074  -2.58341299335208 0.00508015470077485 80.8354333994761 
! Gamma         0                0                0                0                
! Port Impedance         50               0                50               0                
6.3                            0.00515666802901039 80.8387503863279 0.999399825747407 -2.62481022072359 0.999399825747409 -2.62481022072359 0.00515666967098374 80.8373847933982 
! Gamma         0                0                0                0                
! Port Impedance         50               0                50               0                
6.4                            0.00523311861082092 80.8398747951769 0.999394567727991 -2.66620408304129 0.999394567727993 -2.6662040830413 0.00523312025753387 80.8384873396987 
! Gamma         0                0                0                0                
! Port Impedance         50               0                50               0                
6.5                            0.00530950662597367 80.8401889115828 0.999389346599761 -2.70759468828089 0.999389346599763 -2.7075946882809 0.00530950827976671 80.8387796106033 
! Gamma         0                0                0                0                
! Port Impedance         50               0                50               0                
6.6                            0.00538583385725808 80.8397283070526 0.999384162445382 -2.74898214306045 0.999384162445384 -2.74898214306046 0.00538583552052724 80.8382971747906 
! Gamma         0                0                0                0                
! Port Impedance         50               0                50               0                
6.7                            0.00546210204772759 80.8385258099258 0.99937901528296 -2.79036655242437 0.999379015282962 -2.79036655242438 0.00546210372291099 80.8370728579738 
! Gamma         0                0                0                0                
! Port Impedance         50               0                50               0                
6.8                            0.00553831289796357 80.8366117432979 0.999373905069462 -2.83174801965553 0.999373905069464 -2.83174801965555 0.00553831458752882 80.8351369808143 
! Gamma         0                0                0                0                
! Port Impedance         50               0                50               0                
6.9                            0.00561446806380916 80.8340141422413 0.99936883170414 -2.87312664611334 0.999368831704142 -2.87312664611335 0.00561446977024164 80.832517576135  
! Gamma         0                0                0                0                
! Port Impedance         50               0                50               0                
7                              0.00569056915452851 80.8307589521178 0.999363795031935 -2.9145025310954 0.999363795031937 -2.91450253109541 0.00569057088032045 80.8292405872229 
! Gamma         0                0                0                0                
! Port Impedance         50               0                50               0                
7.1                            0.00576661773135004 80.8268702096195 0.999358794846836 -2.95587577172091 0.999358794846837 -2.95587577172093 0.00576661947899044 80.8253300488617 
! Gamma         0                0                0                0                
! Port Impedance         50               0                50               0                
7.2                            0.00584261530635547 80.8223702080336 0.999353830895181 -2.99724646283373 0.999353830895182 -2.99724646283375 0.00584261707832074 80.8208082525882 
! Gamma         0                0                0                0                
! Port Impedance         50               0                50               0                
7.3                            0.00591856334167923 80.8172796480966 0.999348902878886 -3.03861469692335 0.999348902878887 -3.03861469692337 0.00591856514042463 80.8156958975375 
! Gamma         0                0                0                0                
! Port Impedance         50               0                50               0                
7.4                            0.00599446324898572 80.8116177756851 0.999344010458582 -3.07998056406223 0.999344010458583 -3.07998056406224 0.00599446507693743 80.8100122281262 
! Gamma         0                0                0                0                
! Port Impedance         50               0                50               0                
7.5                            0.00607031638919423 80.8054025074827 0.99933915325666 -3.12134415185781 0.999339153256662 -3.12134415185782 0.00607031824874216 80.8037751597108 
! Gamma         0                0                0                0                
! Port Impedance         50               0                50               0                
7.6                            0.00614612407242405 80.7986505456625 0.999334330860213 -3.16270554541785 0.999334330860215 -3.16270554541787 0.00614612596591524 80.7970013932627 
! Gamma         0                0                0                0                
! Port Impedance         50               0                50               0                
7.7                            0.00622188755813442 80.7913774825385 0.999329542823866 -3.20406482732777 0.999329542823867 -3.20406482732779 0.00622188948786706 80.7897065200123 
! Gamma         0                0                0                0                
! Port Impedance         50               0                50               0                
7.8                            0.00629760805543597 80.783597896052  0.999324788672497 -3.2454220776387 0.999324788672499 -3.24542207763872 0.006297610023654 80.7819051169274 
! Gamma         0                0                0                0                
! Port Impedance         50               0                50               0                
7.9                            0.00637328672355273 80.7753254368879 0.999320067903843 -3.28677737386518 0.999320067903845 -3.2867773738652 0.00637328873244097 80.7736108338238 
! Gamma         0                0                0                0                
! Port Impedance         50               0                50               0                
8                              0.00644892467241515 80.7665729079474 0.999315379990986 -3.32813079099141 0.999315379990988 -3.32813079099143 0.00644892672409494 80.7648364728303 
! Gamma         0                0                0                0                
! Port Impedance         50               0                50               0                
8.1                            0.00652452296336652 80.7573523368382 0.999310724384726 -3.36948240148518 0.999310724384727 -3.3694824014852 0.00652452505989182 80.7555940608731 
! Gamma         0                0                0                0                
! Port Impedance         50               0                50               0                
8.2                            0.00660008260996691 80.7476750419891 0.999306100515831 -3.41083227531841 0.999306100515832 -3.41083227531843 0.00660008475332091 80.7458949157842 
! Gamma         0                0                0                0                
! Port Impedance         50               0                50               0                
8.3                            0.00667560457888009 80.7375516929424 0.999301507797183 -3.45218047999372 0.999301507797184 -3.45218047999374 0.00667560677097213 80.7357497065878 
! Gamma         0                0                0                0                
! Port Impedance         50               0                50               0                
8.4                            0.00675108979083006 80.7269923653299 0.999296945625799 -3.49352708057608 0.9992969456258  -3.4935270805761 0.00675109203349307 80.7251685084717 
! Gamma         0                0                0                0                
! Port Impedance         50               0                50               0                
8.5                            0.0068265391216157 80.7160065909961 0.999292413384748 -3.534872139729  0.999292413384749 -3.53487213972903 0.00682654141660389 80.7141608529039 
! Gamma         0                0                0                0                
! Port Impedance         50               0                50               0                
8.6                            0.00690195340317253 80.7046034036889 0.999287910444954 -3.57621571775459 0.999287910444955 -3.57621571775461 0.00690195575215947 80.7027357733197 
! Gamma         0                0                0                0                
! Port Impedance         50               0                50               0                
8.7                            0.00697733342467208 80.692791380707  0.999283436166898 -3.61755787263686 0.999283436166899 -3.61755787263688 0.00697733582924914 80.6909018467633 
! Gamma         0                0                0                0                
! Port Impedance         50               0                50               0                
8.8                            0.00705267993365033 80.6805786808541 0.999278989902214 -3.65889866008787 0.999278989902216 -3.6588986600879 0.00705268239532533 80.6786672318387 
! Gamma         0                0                0                0                
! Port Impedance         50               0                50               0                
8.9                            0.00712799363715737 80.6679730790253 0.999274570995192 -3.70023813359621 0.999274570995193 -3.70023813359624 0.00712799615735352 80.6660397032909 
! Gamma         0                0                0                0                
! Port Impedance         50               0                50               0                
9                              0.00720327520292148 80.6549819977177 0.999270178784175 -3.74157634447727 0.999270178784176 -3.74157634447729 0.00720327778297662 80.6530266835132 
! Gamma         0                0                0                0                
! Port Impedance         50               0                50               0                
9.1                            0.0072785252605216 80.641612535737  0.999265812602876 -3.78291334192512 0.999265812602877 -3.78291334192515 0.00727852790168762 80.6396352712499 
! Gamma         0                0                0                0                
! Port Impedance         50               0                50               0                
9.2                            0.00735374440256262 80.6278714943446 0.999261471781598 -3.82424917306556 0.999261471781599 -3.82424917306558 0.0073537471060051 80.6258722677401 
! Gamma         0                0                0                0                
! Port Impedance         50               0                50               0                
9.3                            0.0074289331858489 80.6137654010708 0.999257155648378 -3.8655838830099 0.999257155648379 -3.86558388300993 0.00742893595264694 80.6117442005274 
! Gamma         0                0                0                0                
! Port Impedance         50               0                50               0                
9.4                            0.00750409213255168 80.5993005313994 0.999252863530042 -3.90691751490952 0.999252863530043 -3.90691751490955 0.00750409496369793 80.5972573451413 
! Gamma         0                0                0                0                
! Port Impedance         50               0                50               0                
9.5                            0.0075792217313669 80.584482928511  0.999248594753192 -3.94825011001054 0.999248594753193 -3.94825011001056 0.00757922462776773 80.5824177448384 
! Gamma         0                0                0                0                
! Port Impedance         50               0                50               0                
9.6                            0.00765432243866005 80.5693184212579 0.999244348645111 -3.98958170770875 0.999244348645112 -3.98958170770878 0.00765432540113585 80.5672312285734 
! Gamma         0                0                0                0                
! Port Impedance         50               0                50               0                
9.7                            0.0077293946795955 80.5538126405243 0.99924012453461 -4.03091234560441 0.999240124534611 -4.03091234560444 0.00772939770888117 80.5517034273581 
! Gamma         0                0                0                0                
! Port Impedance         50               0                50               0                
9.8                            0.00780443884924783 80.5379710341181 0.999235921752797 -4.07224205955674 0.999235921752798 -4.07224205955677 0.00780444194599333 80.53583978915   
! Gamma         0                0                0                0                
! Port Impedance         50               0                50               0                
9.9                            0.00787945531369326 80.521798880323  0.999231739633796 -4.11357088373805 0.999231739633797 -4.11357088373807 0.00787945847846429 80.5196455924021 
! Gamma         0                0                0                0                
! Port Impedance         50               0                50               0                
10                             0.00795444441107942 80.5053013002296 0.999227577515395 -4.15489885068725 0.999227577515396 -4.15489885068728 0.0079544476443582 80.5031259583929 
! Gamma         0                0                0                0                
! Port Impedance         50               0                50               0                
10.1                           0.00802940645267217 80.4884832689566 0.999223434739649 -4.1962259913628 0.99922343473965 -4.19622599136283 0.00802940975485831 80.4862858624445 
! Gamma         0                0                0                0                
! Port Impedance         50               0                50               0                
10.2                           0.00810434172387823 80.471349625859  0.999219310653424 -4.23755233519477 0.999219310653426 -4.2375523351948 0.00810434509528965 80.4691301441303 
! Gamma         0                0                0                0                
! Port Impedance         50               0                50               0                
10.3                           0.00817925048524286 80.453905083816  0.999215204608898 -4.2788779101361 0.999215204608899 -4.27887791013612 0.00817925392611686 80.45166351656   
! Gamma         0                0                0                0                
! Port Impedance         50               0                50               0                
10.4                           0.0082541329734218 80.4361542376796 0.999211115964003 -4.32020274271292 0.999211115964004 -4.32020274271294 0.00825413648391603 80.4338905748276 
! Gamma         0                0                0                0                
! Port Impedance         50               0                50               0                
10.5                           0.00832898940212696 80.4181015719612 0.99920704408284 -4.36152685807388 0.999207044082841 -4.3615268580739 0.00832899298232063 80.4158158036961 
! Gamma         0                0                0                0                
! Port Impedance         50               0                50               0                
10.6                           0.00840381996304566 80.3997514678233 0.999202988336043 -4.40285028003843 0.999202988336044 -4.40285028003846 0.00840382361294066 80.3974435845886 
! Gamma         0                0                0                0                
! Port Impedance         50               0                50               0                
10.7                           0.00847862482673295 80.3811082094412 0.999198948101104 -4.44417303114402 0.999198948101105 -4.44417303114404 0.00847862854625508 80.3787782019475 
! Gamma         0                0                0                0                
! Port Impedance         50               0                50               0                
10.8                           0.00855340414347728 80.3621759897899 0.999194922762665 -4.48549513269213 0.999194922762666 -4.48549513269215 0.00855340793247745 80.3598238490216 
! Gamma         0                0                0                0                
! Port Impedance         50               0                50               0                
10.9                           0.00862815804413928 80.3429589159097 0.999190911712778 -4.52681660479324 0.999190911712779 -4.52681660479326 0.0086281619023948 80.34058463313   
! Gamma         0                0                0                0                
! Port Impedance         50               0                50               0                
11                             0.0087028866409639 80.3234610136988 0.999186914351133 -4.56813746641055 0.999186914351133 -4.56813746641057 0.00870289056817977 80.3210645804538 
! Gamma         0                0                0                0                
! Port Impedance         50               0                50               0                
11.1                           0.00877759002836619 80.303686232274  0.999182930085249 -4.6094577354026 0.999182930085249 -4.60945773540263 0.00877759402417638 80.3012676403962 
! Gamma         0                0                0                0                
! Port Impedance         50               0                50               0                
11.2                           0.00885226828369092 80.283638447942  0.99917895833065 -4.65077742856462 0.999178958330651 -4.65077742856464 0.0088522723476597 80.2811976895526 
! Gamma         0                0                0                0                
! Port Impedance         50               0                50               0                
11.3                           0.00892692146794644 80.2633214678149 0.99917499851101 -4.69209656166877 0.999174998511011 -4.69209656166879 0.00892692559956971 80.260858535326  
! Gamma         0                0                0                0                
! Port Impedance         50               0                50               0                
11.4                           0.00900154962651321 80.2427390331047 0.999171050058268 -4.73341514950313 0.999171050058269 -4.73341514950314 0.00900155382521981 80.2402539192198 
! Gamma         0                0                0                0                
! Port Impedance         50               0                50               0                
11.5                           0.00907615278982744 80.221894822125  0.999167112412733 -4.77473320590958 0.999167112412734 -4.7747332059096 0.00907615705498051 80.2193875198401 
! Gamma         0                0                0                0                
! Port Impedance         50               0                50               0                
11.6                           0.00915073097404041 80.2007924530284 0.999163185023162 -4.81605074382047 0.999163185023163 -4.81605074382049 0.00915073530493869 80.1982629556319 
! Gamma         0                0                0                0                
! Port Impedance         50               0                50               0                
11.7                           0.0092252841816538 80.1794354863045 0.999159267346818 -4.85736777529412 0.999159267346819 -4.85736777529414 0.00922528857753299 80.1768837873762 
! Gamma         0                0                0                0                
! Port Impedance         50               0                50               0                
11.8                           0.00929981240213191 80.1578274270594 0.999155358849513 -4.8986843115492 0.999155358849514 -4.89868431154922 0.00929981686216597 80.1552535204702 
! Gamma         0                0                0                0                
! Port Impedance         50               0                50               0                
11.9                           0.00937431561249103 80.1359717270994 0.999151459005638 -4.94000036299802 0.999151459005639 -4.94000036299804 0.0093743201357935 80.1333756070092 
! Gamma         0                0                0                0                
! Port Impedance         50               0                50               0                
12                             0.00944879377786673 80.1138717868364 0.999147567298171 -4.98131593927864 0.999147567298172 -4.98131593927866 0.00944879836349205 80.1112534476927 
! Gamma         0                0                0                0                
! Port Impedance         50               0                50               0                
12.1                           0.00952324685205967 80.0915309570314 0.999143683218678 -5.02263104928594 0.999143683218679 -5.02263104928596 0.00952325149900447 80.0888903935672 
! Gamma         0                0                0                0                
! Port Impedance         50               0                50               0                
12.2                           0.00959767477806043 80.0689525403935 0.999139806267296 -5.06394570120165 0.999139806267296 -5.06394570120167 0.00959767948526479 80.0662897476248 
! Gamma         0                0                0                0                
! Port Impedance         50               0                50               0                
12.3                           0.0096720774885541 80.0461397930463 0.999135935952711 -5.10525990252327 0.999135935952712 -5.10525990252329 0.00967208225490287 80.0434547662691 
! Gamma         0                0                0                0                
! Port Impedance         50               0                50               0                
12.4                           0.00974645490640519 80.0230959258756 0.999132071792121 -5.14657366009206 0.999132071792122 -5.14657366009208 0.00974645973072918 80.0203886606635 
! Gamma         0                0                0                0                
! Port Impedance         50               0                50               0                
12.5                           0.00982080694512342 79.99982410577   0.999128213311189 -5.18788698011997 0.999128213311189 -5.18788698011998 0.00982081182620069 79.9970945979707 
! Gamma         0                0                0                0                
! Port Impedance         50               0                50               0                
12.6                           0.00989513350931116 79.976327456764  0.999124360043989 -5.22919986821562 0.999124360043989 -5.22919986821564 0.00989513844586822 79.9735757024959 
! Gamma         0                0                0                0                
! Port Impedance         50               0                50               0                
12.7                           0.0099694344950929 79.9526090610943 0.999120511532946 -5.27051232940939 0.999120511532946 -5.27051232940941 0.00996943948580589 79.9498350567431 
! Gamma         0                0                0                0                
! Port Impedance         50               0                50               0                
12.8                           0.0100437097905275 79.9286719601767 0.999116667328765 -5.31182436817751 0.999116667328766 -5.31182436817753 0.0100437148340234 79.925875702392  
! Gamma         0                0                0                0                
! Port Impedance         50               0                50               0                
12.9                           0.010117959276004 79.9045191555132 0.999112826990357 -5.35313598846533 0.999112826990357 -5.35313598846534 0.0101179643708618 79.9017006412044 
! Gamma         0                0                0                0                
! Port Impedance         50               0                50               0                
13                             0.0101921828246207 79.8801536095335 0.999108990084754 -5.39444719370968 0.999108990084755 -5.3944471937097 0.0101921879693726 79.877312835866  
! Gamma         0                0                0                0                
! Port Impedance         50               0                50               0                
13.1                           0.0102663803025498 79.8555782463809 0.999105156187028 -5.43575798686045 0.999105156187029 -5.43575798686046 0.0102663854956822 79.8527152107721 
! Gamma         0                0                0                0                
! Port Impedance         50               0                50               0                
13.2                           0.0103405515693859 79.8307959526449 0.999101324880195 -5.47706837040127 0.999101324880196 -5.47706837040128 0.0103405568093406 79.8279106527605 
! Gamma         0                0                0                0                
! Port Impedance         50               0                50               0                
13.3                           0.0104146964784808 79.805809578049  0.999097495755123 -5.51837834636949 0.999097495755123 -5.5183783463695 0.010414701763656 79.8029020117983 
! Gamma         0                0                0                0                
! Port Impedance         50               0                50               0                
13.4                           0.0104888148772644 79.7806219360949 0.999093668410431 -5.55968791637537 0.999093668410431 -5.55968791637538 0.0104888202060159 79.7776921016272 
! Gamma         0                0                0                0                
! Port Impedance         50               0                50               0                
13.5                           0.0105629066075517 79.7552358046713 0.999089842452388 -5.60099708162048 0.999089842452388 -5.60099708162049 0.010562911978194 79.7522837003715 
! Gamma         0                0                0                0                
! Port Impedance         50               0                50               0                
13.6                           0.0106369715058378 79.729653926628  0.999086017494808 -5.64230584291549 0.999086017494809 -5.6423058429155 0.0106369769166448 79.7266795511125 
! Gamma         0                0                0                0                
! Port Impedance         50               0                50               0                
13.7                           0.0107110094035796 79.7038790103197 0.999082193158946 -5.68361420069715 0.999082193158947 -5.68361420069716 0.0107110148527859 79.7008823624321 
! Gamma         0                0                0                0                
! Port Impedance         50               0                50               0                
13.8                           0.0107850201274661 79.6779137301239 0.999078369073384 -5.72492215504472 0.999078369073384 -5.72492215504473 0.0107850256132678 79.674894808931  
! Gamma         0                0                0                0                
! Port Impedance         50               0                50               0                
13.9                           0.0108590034996773 79.651760726934  0.999074544873922 -5.76622970569568 0.999074544873923 -5.76622970569569 0.0108590090202333 79.6487195317212 
! Gamma         0                0                0                0                
! Port Impedance         50               0                50               0                
14                             0.0109329593381318 79.6254226086308 0.999070720203471 -5.80753685206084 0.999070720203472 -5.80753685206085 0.0109329648915643 79.6223591388984 
! Gamma         0                0                0                0                
! Port Impedance         50               0                50               0                
14.1                           0.0110068874567241 79.5989019505348 0.999066894711934 -5.84884359323887 0.999066894711934 -5.84884359323888 0.0110068930411198 79.5958162059935 
! Gamma         0                0                0                0                
! Port Impedance         50               0                50               0                
14.2                           0.0110807876655518 79.5722012958416 0.999063068056093 -5.89014992803022 0.999063068056093 -5.89014992803023 0.0110807932789627 79.5690932764086 
! Gamma         0                0                0                0                
! Port Impedance         50               0                50               0                
14.3                           0.0111546597711324 79.5453231560414 0.999059239899501 -5.9314558549505 0.999059239899501 -5.93145585495051 0.0111546654115768 79.5421928618362 
! Gamma         0                0                0                0                
! Port Impedance         50               0                50               0                
14.4                           0.011228503576612 79.5182700113249 0.999055409912359 -5.97276137224335 0.999055409912359 -5.97276137224336 0.0112285092420751 79.5151174426652 
! Gamma         0                0                0                0                
! Port Impedance         50               0                50               0                
14.5                           0.0113023188819636 79.491044310977  0.999051577771407 -6.01406647789273 0.999051577771408 -6.01406647789274 0.0113023245703988 79.4878694683745 
! Gamma         0                0                0                0                
! Port Impedance         50               0                50               0                
14.6                           0.0113761054841779 79.463648473759  0.99904774315981 -6.05537116963479 0.99904774315981 -6.05537116963479 0.0113761111935072 79.4604513579158 
! Gamma         0                0                0                0                
! Port Impedance         50               0                50               0                
14.7                           0.0114498631774451 79.4360848882817 0.999043905767039 -6.09667544496917 0.999043905767039 -6.09667544496917 0.0114498689055602 79.4328655000863 
! Gamma         0                0                0                0                
! Port Impedance         50               0                50               0                
14.8                           0.0115235917533296 79.4083559133693 0.999040065288761 -6.13797930116993 0.999040065288761 -6.13797930116993 0.0115235974980924 79.4051142538923 
! Gamma         0                0                0                0                
! Port Impedance         50               0                50               0                
14.9                           0.0115972910009359 79.380463878415  0.999036221426727 -6.17928273529597 0.999036221426727 -6.17928273529597 0.0115972967601796 79.3771999489058 
! Gamma         0                0                0                0                
! Port Impedance         50               0                50               0                
15                             0.0116709607070684 79.3524110837301 0.999032373888655 -6.22058574420108 0.999032373888655 -6.22058574420108 0.0116709664785981 79.3491248856129 
! Gamma         0                0                0                0                
! Port Impedance         50               0                50               0                
15.1                           0.0117446006563837 79.324199800887  0.99902852238812 -6.26188832454348 0.99902852238812 -6.26188832454348 0.0117446064379771 79.3208913357569 
! Gamma         0                0                0                0                
! Port Impedance         50               0                50               0                
15.2                           0.011818210631536 79.295832273055  0.999024666644448 -6.3031904727951 0.999024666644448 -6.30319047279511 0.0118182164209441 79.2925015426748 
! Gamma         0                0                0                0                
! Port Impedance         50               0                50               0                
15.3                           0.0118917904133165 79.2673107153332 0.999020806382597 -6.34449218525039 0.999020806382597 -6.34449218525039 0.0118917962082646 79.2639577216293 
! Gamma         0                0                0                0                
! Port Impedance         50               0                50               0                
15.4                           0.0119653397807864 79.2386373150764 0.999016941333057 -6.38579345803474 0.999016941333057 -6.38579345803474 0.0119653455789746 79.2352620601356 
! Gamma         0                0                0                0                
! Port Impedance         50               0                50               0                
15.5                           0.0120388585114044 79.2098142322183 0.999013071231737 -6.42709428711266 0.999013071231737 -6.42709428711266 0.012038864310508 79.2064167182844 
! Gamma         0                0                0                0                
! Port Impedance         50               0                50               0                
15.6                           0.0121123463811477 79.1808435995905 0.99900919581986 -6.46839466829552 0.99900919581986 -6.46839466829552 0.0121123521788184 79.1774238290605 
! Gamma         0                0                0                0                
! Port Impedance         50               0                50               0                
15.7                           0.0121858031646288 79.1517275232374 0.999005314843859 -6.50969459724901 0.999005314843859 -6.509694597249  0.0121858089584949 79.1482854986586 
! Gamma         0                0                0                0                
! Port Impedance         50               0                50               0                
15.8                           0.0122592286352059 79.1224680827283 0.999001428055273 -6.55099406950026 0.999001428055273 -6.55099406950026 0.0122592344228733 79.1190038067947 
! Gamma         0                0                0                0                
! Port Impedance         50               0                50               0                
15.9                           0.0123326225650896 79.0930673314666 0.998997535210643 -6.59229308044473 0.998997535210644 -6.59229308044472 0.012332628344142 79.0895808070157 
! Gamma         0                0                0                0                
! Port Impedance         50               0                50               0                
16                             0.0124059847254437 79.0635272969956 0.998993636071414 -6.63359162535271 0.998993636071415 -6.63359162535271 0.0124059904934436 79.0600185270056 
! Gamma         0                0                0                0                
! Port Impedance         50               0                50               0                
16.1                           0.0124793148864821 79.0338499813019 0.998989730403833 -6.67488969937565 0.998989730403833 -6.67488969937565 0.0124793206409712 79.0303189688884 
! Gamma         0                0                0                0                
! Port Impedance         50               0                50               0                
16.2                           0.0125526128175614 79.004037361117  0.99898581797885 -6.71618729755212 0.99898581797885 -6.71618729755212 0.0125526185560613 79.0004841095297 
! Gamma         0                0                0                0                
! Port Impedance         50               0                50               0                
16.3                           0.0126258782872691 78.9740913882148 0.998981898572027 -6.75748441481361 0.998981898572027 -6.75748441481361 0.0126258840072817 78.970515900835  
! Gamma         0                0                0                0                
! Port Impedance         50               0                50               0                
16.4                           0.0126991110635078 78.9440139897088 0.998977971963438 -6.79878104599003 0.998977971963438 -6.79878104599003 0.012699116762516 78.9404162700462 
! Gamma         0                0                0                0                
! Port Impedance         50               0                50               0                
16.5                           0.0127723109135758 78.9138070683453 0.998974037937576 -6.84007718581498 0.998974037937576 -6.84007718581498 0.012772316589044 78.9101871200355 
! Gamma         0                0                0                0                
! Port Impedance         50               0                50               0                
16.6                           0.012845477604244 78.8834725027959 0.998970096283264 -6.88137282893084 0.998970096283264 -6.88137282893083 0.0128454832536187 78.8798303295972 
! Gamma         0                0                0                0                
! Port Impedance         50               0                50               0                
16.7                           0.0129186109018293 78.8530121479468 0.998966146793564 -6.92266796989355 0.998966146793564 -6.92266796989355 0.0129186165225392 78.8493477537378 
! Gamma         0                0                0                0                
! Port Impedance         50               0                50               0                
16.8                           0.0129917105722642 78.8224278351867 0.998962189265685 -6.96396260317732 0.998962189265685 -6.96396260317732 0.0129917161617215 78.8187412239636 
! Gamma         0                0                0                0                
! Port Impedance         50               0                50               0                
16.9                           0.0130647763811643 78.7917213726921 0.9989582235009  -7.00525672317901 0.9989582235009  -7.005256723179  0.0130647819367645 78.788012548566  
! Gamma         0                0                0                0                
! Port Impedance         50               0                50               0                
17                             0.0131378080938916 78.7608945457111 0.998954249304458 -7.04655032422236 0.998954249304459 -7.04655032422236 0.0131378136130145 78.7571635129058 
! Gamma         0                0                0                0                
! Port Impedance         50               0                50               0                
17.1                           0.0132108054756158 78.729949116845  0.998950266485503 -7.08784340056212 0.998950266485503 -7.08784340056211 0.0132108109556254 78.7261958796941 
! Gamma         0                0                0                0                
! Port Impedance         50               0                50               0                
17.2                           0.0132837682913719 78.6988868263275 0.998946274856987 -7.12913594638787 0.998946274856988 -7.12913594638786 0.0132837737296174 78.6951113892721 
! Gamma         0                0                0                0                
! Port Impedance         50               0                50               0                
17.3                           0.0133566963061158 78.6677093923022 0.998942274235594 -7.17042795582776 0.998942274235594 -7.17042795582775 0.0133567016999319 78.6639117598889 
! Gamma         0                0                0                0                
! Port Impedance         50               0                50               0                
17.4                           0.0134295892847774 78.6364185110982 0.998938264441656 -7.21171942295208 0.998938264441656 -7.21171942295207 0.0134295946314846 78.6325986879765 
! Gamma         0                0                0                0                
! Port Impedance         50               0                50               0                
17.5                           0.0135024469923105 78.6050158575033 0.998934245299079 -7.25301034177664 0.99893424529908 -7.25301034177664 0.0135024522892157 78.6011738484232 
! Gamma         0                0                0                0                
! Port Impedance         50               0                50               0                
17.6                           0.0135752691937414 78.573503085035  0.998930216635267 -7.29430070626603 0.998930216635267 -7.29430070626603 0.0135752744381383 78.5696388948452 
! Gamma         0                0                0                0                
! Port Impedance         50               0                50               0                
17.7                           0.0136480556542143 78.54188182621   0.998926178281042 -7.33559051033673 0.998926178281042 -7.33559051033673 0.0136480608433839 78.5379954598556 
! Gamma         0                0                0                0                
! Port Impedance         50               0                50               0                
17.8                           0.0137208061390354 78.510153692811  0.998922130070577 -7.37687974786009 0.998922130070577 -7.37687974786009 0.0137208112702462 78.5062451553313 
! Gamma         0                0                0                0                
! Port Impedance         50               0                50               0                
17.9                           0.0137935204137141 78.4783202761516 0.998918071841321 -7.41816841266517 0.998918071841321 -7.41816841266516 0.0137935254842226 78.4743895726782 
! Gamma         0                0                0                0                
! Port Impedance         50               0                50               0                
18                             0.0138661982440029 78.4463831473387 0.998914003433931 -7.45945649854144 0.998914003433931 -7.45945649854143 0.0138662032510542 78.4424302830936 
! Gamma         0                0                0                0                
! Port Impedance         50               0                50               0                
18.1                           0.0139388393959354 78.4143438575334 0.998909924692198 -7.50074399924141 0.998909924692198 -7.50074399924141 0.0139388443367635 78.4103688378268 
! Gamma         0                0                0                0                
! Port Impedance         50               0                50               0                
18.2                           0.0140114436358621 78.3822039382089 0.998905835462985 -7.5420309084831 0.998905835462985 -7.54203090848309 0.01401144850769 78.3782067684376 
! Gamma         0                0                0                0                
! Port Impedance         50               0                50               0                
18.3                           0.0140840107304848 78.3499649014065 0.99890173559616 -7.58331721995239 0.99890173559616 -7.58331721995238 0.0140840155305252 78.3459455870518 
! Gamma         0                0                0                0                
! Port Impedance         50               0                50               0                
18.4                           0.0141565404468892 78.3176282399893 0.998897624944529 -7.62460292730532 0.998897624944529 -7.62460292730532 0.0141565451723449 78.3135867866154 
! Gamma         0                0                0                0                
! Port Impedance         50               0                50               0                
18.5                           0.0142290325525762 78.2851954278936 0.998893503363774 -7.66588802417023 0.998893503363774 -7.66588802417023 0.0142290372006402 78.2811318411459 
! Gamma         0                0                0                0                
! Port Impedance         50               0                50               0                
18.6                           0.0143014868154915 78.252667920378  0.998889370712391 -7.70717250414984 0.998889370712391 -7.70717250414984 0.0143014913833475 78.2485822059811 
! Gamma         0                0                0                0                
! Port Impedance         50               0                50               0                
18.7                           0.0143739030040537 78.2200471542699 0.998885226851629 -7.74845636082323 0.998885226851629 -7.74845636082322 0.0143739074888765 78.2159393180261 
! Gamma         0                0                0                0                
! Port Impedance         50               0                50               0                
18.8                           0.014446280887181 78.1873345482099 0.998881071645433 -7.78973958774768 0.998881071645433 -7.78973958774768 0.014446285286137 78.1832045959979 
! Gamma         0                0                0                0                
! Port Impedance         50               0                50               0                
18.9                           0.0145186202343173 78.1545315028938 0.998876904960381 -7.83102217846054 0.998876904960381 -7.83102217846054 0.0145186245445643 78.1503794406665 
! Gamma         0                0                0                0                
! Port Impedance         50               0                50               0                
19                             0.0145909208154559 78.1216394013121 0.998872726665632 -7.8723041264809 0.998872726665632 -7.87230412648089 0.014590925034144 78.1174652350955 
! Gamma         0                0                0                0                
! Port Impedance         50               0                50               0                
19.1                           0.0146631824011629 78.088659608987  0.998868536632867 -7.91358542531122 0.998868536632867 -7.91358542531122 0.0146631865254345 78.0844633448785 
! Gamma         0                0                0                0                
! Port Impedance         50               0                50               0                
19.2                           0.0147354047625989 78.0555934742068 0.998864334736238 -7.95486606843894 0.998864334736238 -7.95486606843894 0.0147354087895893 78.051375118374  
! Gamma         0                0                0                0                
! Port Impedance         50               0                50               0                
19.3                           0.0148075876715402 78.0224423282587 0.998860120852312 -7.99614604933793 0.998860120852312 -7.99614604933792 0.0148075915983778 78.0182018869376 
! Gamma         0                0                0                0                
! Port Impedance         50               0                50               0                
19.4                           0.0148797309003985 77.989207485658  0.998855894860018 -8.03742536146991 0.998855894860018 -8.03742536146991 0.0148797347242048 77.9849449651517 
! Gamma         0                0                0                0                
! Port Impedance         50               0                50               0                
19.5                           0.0149518342222397 77.9558902443752 0.998851656640601 -8.07870399828584 0.9988516566406  -8.07870399828583 0.01495183794013 77.9516056510529 
! Gamma         0                0                0                0                
! Port Impedance         50               0                50               0                
19.6                           0.0150238974108015 77.9224918860614 0.998847406077566 -8.11998195322718 0.998847406077566 -8.11998195322717 0.0150239010198853 77.9181852263566 
! Gamma         0                0                0                0                
! Port Impedance         50               0                50               0                
19.7                           0.0150959202405111 77.8890136762697 0.998843143056635 -8.16125921972713 0.998843143056635 -8.16125921972712 0.0150959237378919 77.8846849566793 
! Gamma         0                0                0                0                
! Port Impedance         50               0                50               0                
19.8                           0.0151679024865004 77.8554568646756 0.998838867465695 -8.20253579121181 0.998838867465695 -8.20253579121181 0.0151679058692766 77.8511060917583 
! Gamma         0                0                0                0                
! Port Impedance         50               0                50               0                
19.9                           0.0152398439246221 77.8218226852939 0.998834579194754 -8.24381166110138 0.998834579194754 -8.24381166110138 0.0152398471898867 77.8174498656691 
! Gamma         0                0                0                0                
! Port Impedance         50               0                50               0                
20                             0.0153117443314636 77.7881123566934 0.998830278135895 -8.28508682281106 0.998830278135895 -8.28508682281106 0.0153117474763048 77.7837174970402 
! Gamma         0                0                -0               -0               
! Port Impedance         50               0                50               0                
